22
Image 0  Energy = -383.9388951029
C  -0.8748600123 -0.4912680823  0.4205400313
C   1.4398395235  0.3050711105 -0.0488234645
C  -1.4531649290  0.8569518362  0.8331653936
C   2.0445249896 -0.3464922971  1.1878144226
C   2.4257160624  0.2926355996 -1.2087474299
N   0.2522491008 -0.4287731883 -0.4943078141
N  -1.9375712622 -1.2133660496 -0.2757148840
O  -1.8781663981  1.5952808471 -0.2976045197
H  -2.4564060309  1.0035302699 -0.7924836153
H  -0.0893889791  0.0135291854 -1.3363619988
H  -0.5575273553 -1.0253683419  1.3216533588
H   1.2019853167  1.3494449848  0.1904672420
H  -2.6090840340 -1.5772483251  0.3868270722
H  -1.5285846730 -2.0021129157 -0.7573847321
H  -0.7003546106  1.4510954620  1.3425110929
H  -2.2766068487  0.6816445440  1.5349822948
H   2.9787566251  0.1437509146  1.4610978493
H   1.9835770316  0.7456888317 -2.0957186706
H   2.2530528530 -1.3978538067  0.9850050911
H   1.3762378335 -0.2940635955  2.0454104071
H   3.3388148959  0.8377340540 -0.9697511701
H   2.6868709574 -0.7361727436 -1.4541106372
