6
Scanning combination 1/73: [299.5959]  Energy = -115.7951877043
C  -0.4383946674  1.1530801018  0.4332798144
O  -0.3465779857 -0.2539564750  0.2614330339
H  -1.4605776516  1.4702668321  0.6551607401
H  -0.1392011432  1.6099020883 -0.5079103487
H   0.2287514266  1.5135800094  1.2200934621
H  -0.6262956419 -0.6735793873  1.0736822808
6
Scanning combination 2/73: [304.5959]  Energy = -115.7951702509
C  -0.4392438371  1.1530371791  0.4315939327
O  -0.3429125164 -0.2537906741  0.2631426986
H  -1.4564606783  1.4675294625  0.6777187625
H  -0.1505458365  1.6114010760 -0.5117225692
H   0.2352504815  1.5131082132  1.2123889780
H  -0.6736269654 -0.6739893534  1.0555935437
6
Scanning combination 3/73: [309.5959]  Energy = -115.7951196602
C  -0.4396765380  1.1530662949  0.4309069390
O  -0.3390813285 -0.2538118610  0.2650484725
H  -1.4535981534  1.4636764160  0.6948612392
H  -0.1674878914  1.6124962213 -0.5168237439
H   0.2451663669  1.5152290565  1.2015794495
H  -0.7251161036 -0.6733629519  1.0322992807
6
Scanning combination 4/73: [314.5959]  Energy = -115.7950436731
C  -0.4400737060  1.1531152407  0.4302054704
O  -0.3354057083 -0.2538739142  0.2671975421
H  -1.4502875629  1.4599731133  0.7119430796
H  -0.1844223273  1.6134244525 -0.5217692498
H   0.2548503735  1.5176747848  1.1905351353
H  -0.7747832697 -0.6726319220  1.0054556481
6
Scanning combination 5/73: [319.5959]  Energy = -115.7949524320
C  -0.4402707616  1.1531521982  0.4299005477
O  -0.3318076095 -0.2539703545  0.2695885884
H  -1.4471821992  1.4561666812  0.7269408673
H  -0.2035443769  1.6139860183 -0.5269619128
H   0.2656270076  1.5211566790  1.1780124815
H  -0.8243042804 -0.6717786223  0.9738557904
6
Scanning combination 6/73: [324.5959]  Energy = -115.7948408115
C  -0.4406308719  1.1532318168  0.4290858361
O  -0.3284785850 -0.2541106048  0.2722159836
H  -1.4430765162  1.4526920405  0.7439738031
H  -0.2203361054  1.6151344185 -0.5313343978
H   0.2749641038  1.5234326514  1.1666448573
H  -0.8695027320 -0.6704510104  0.9405687169
6
Scanning combination 7/73: [329.5959]  Energy = -115.7947205308
C  -0.4409795780  1.1533410034  0.4282132487
O  -0.3253149203 -0.2543005180  0.2750877326
H  -1.4386796244  1.4492135727  0.7607607866
H  -0.2372427738  1.6165165815 -0.5354497235
H   0.2842721406  1.5255846581  1.1550121325
H  -0.9123596864 -0.6687934387  0.9043467820
6
Scanning combination 8/73: [334.5959]  Energy = -115.7946050248
C  -0.4411418517  1.1534440950  0.4277470995
O  -0.3222641720 -0.2545390111  0.2782233300
H  -1.4346516401  1.4459737286  0.7752131802
H  -0.2564135593  1.6174645591 -0.5397383152
H   0.2948950958  1.5287032779  1.1415961825
H  -0.9543277840 -0.6670632257  0.8633851342
6
Scanning combination 9/73: [339.5959]  Energy = -115.7944911751
C  -0.4415140244  1.1535668441  0.4267956640
O  -0.3194996802 -0.2547646645  0.2815394446
H  -1.4295137545  1.4432858315  0.7916784166
H  -0.2730899651  1.6187220696 -0.5433810980
H   0.3041803836  1.5306264558  1.1293523807
H  -0.9915179383 -0.6654370807  0.8215100286
6
Scanning combination 10/73: [344.5959]  Energy = -115.7943968232
C  -0.4417132165  1.1536780740  0.4262529400
O  -0.3168814402 -0.2550234949  0.2851106920
H  -1.4248266609  1.4409980616  0.8057891209
H  -0.2919755227  1.6194804355 -0.5471352993
H   0.3148709986  1.5332172032  1.1152195578
H  -1.0271933476 -0.6637156450  0.7750703566
6
Scanning combination 11/73: [349.5959]  Energy = -115.7943193034
C  -0.4421218827  1.1537903165  0.4252458948
O  -0.3145487272 -0.2552546965  0.2888055725
H  -1.4189930755  1.4391806164  0.8218633419
H  -0.3084446431  1.6205394790 -0.5503258453
H   0.3242335491  1.5345426953  1.1023531570
H  -1.0580757085 -0.6619505426  0.7284074705
6
Scanning combination 12/73: [354.5959]  Energy = -115.7942730975
C  -0.4423569934  1.1538736992  0.4246568032
O  -0.3123927368 -0.2555001504  0.2927296748
H  -1.4136852755  1.4378244577  0.8356037960
H  -0.3271077934  1.6209470394 -0.5535899415
H   0.3349942597  1.5363120766  1.0875496180
H  -1.0868994987 -0.6598690322  0.6774706271
6
Scanning combination 13/73: [359.5959]  Energy = -115.7942525915
C  -0.4427885726  1.1539488195  0.4236218024
O  -0.3105247367 -0.2557124690  0.2967167616
H  -1.4071728719  1.4367899170  0.8513209183
H  -0.3434029803  1.6216106861 -0.5563766290
H   0.3443570247  1.5369245768  1.0741435527
H  -1.1109858655 -0.6576358215  0.6269958545
6
Scanning combination 14/73: [364.5959]  Energy = -115.7942680821
C  -0.4430406006  1.1539788640  0.4230185595
O  -0.3088657036 -0.2559224238  0.3008970118
H  -1.4012428589  1.4362520694  0.8647670288
H  -0.3618421332  1.6214044958 -0.5592155139
H   0.3550613974  1.5378964942  1.0587704189
H  -1.1325102316 -0.6548892939  0.5726007795
6
Scanning combination 15/73: [369.5959]  Energy = -115.7943108605
C  -0.4512296467  1.1430129958  0.4404691505
O  -0.3157740645 -0.2657108236  0.3071024704
H  -1.4003835194  1.4198820653  0.9046434638
H  -0.3897471543  1.6215391124 -0.5381424663
H   0.3591706659  1.5198672707  1.0642296800
H  -1.1571348042 -0.6639169426  0.5192662073
6
Scanning combination 16/73: [374.5959]  Energy = -115.7943798670
C  -0.4516516624  1.1430231340  0.4394755773
O  -0.3146672454 -0.2659141882  0.3113460268
H  -1.3927548055  1.4197480412  0.9199171850
H  -0.4057044949  1.6211171742 -0.5404164500
H   0.3682996497  1.5199955650  1.0500622573
H  -1.1704740125 -0.6603822730  0.4649191599
6
Scanning combination 17/73: [379.5959]  Energy = -115.7944766663
C  -0.4518944929  1.1429825384  0.4389368021
O  -0.3138188757 -0.2661167978  0.3157231684
H  -1.3857702170  1.4203330360  0.9330296702
H  -0.4236240915  1.6196292069 -0.5426921725
H   0.3787060524  1.5205115242  1.0338246805
H  -1.1805172639 -0.6562957099  0.4072657458
6
Scanning combination 18/73: [384.5959]  Energy = -115.7945847362
C  -0.4523201777  1.1429711090  0.4379817352
O  -0.3132656730 -0.2663151352  0.3200357748
H  -1.3773568030  1.4210717956  0.9481570864
H  -0.4391021283  1.6186275690 -0.5446212549
H   0.3876388555  1.5203562934  1.0192069892
H  -1.1860935683 -0.6525933954  0.3516155787
6
Scanning combination 19/73: [389.5959]  Energy = -115.7947012309
C  -0.4527305094  1.1429572616  0.4370730692
O  -0.3130015073 -0.2665121640  0.3243627091
H  -1.3685925412  1.4222487418  0.9630684230
H  -0.4544471197  1.6174352459 -0.5463685225
H   0.3965763234  1.5200999313  1.0042537824
H  -1.1877537711 -0.6490294078  0.2955548788
6
Scanning combination 20/73: [394.5959]  Energy = -115.7948239313
C  -0.4529344490  1.1429081483  0.4366434863
O  -0.3130637641 -0.2667114914  0.3287458220
H  -1.3604902766  1.4242181336  0.9759625739
H  -0.4715185437  1.6150127858 -0.5480888477
H   0.4066405693  1.5204478940  0.9871927723
H  -1.1854306389 -0.6451753557  0.2369919619
6
Scanning combination 21/73: [399.5959]  Energy = -115.7949346147
C  -0.4533042989  1.1429041357  0.4357873188
O  -0.3133983656 -0.2669267813  0.3330082844
H  -1.3508772780  1.4260465474  0.9908057340
H  -0.4862639283  1.6134276841 -0.5494663753
H   0.4151972219  1.5202921461  0.9719365079
H  -1.1791370923 -0.6417980218  0.1813305050
6
Scanning combination 22/73: [404.5959]  Energy = -115.7950312831
C  -0.4536283589  1.1429115309  0.4349741516
O  -0.3140291895 -0.2671592456  0.3372273842
H  -1.3409350401  1.4280596715  1.0054148003
H  -0.5009595932  1.6117969111 -0.5506065756
H   0.4236694161  1.5201664379  0.9564358223
H  -1.1689820137 -0.6384531058  0.1260861050
6
Scanning combination 23/73: [409.5959]  Energy = -115.7951078025
C  -0.4538954564  1.1429268622  0.4341997110
O  -0.3149524026 -0.2674114468  0.3413799990
H  -1.3306531534  1.4301261665  1.0198325771
H  -0.5156270242  1.6100387842 -0.5515271254
H   0.4319606954  1.5202148116  0.9407778501
H  -1.1550518430 -0.6349895852  0.0715644340
6
Scanning combination 24/73: [414.5959]  Energy = -115.7951648840
C  -0.4538698701  1.1429288723  0.4338827313
O  -0.3162423691 -0.2677167073  0.3455093097
H  -1.3211846047  1.4325010757  1.0323014717
H  -0.5321844050  1.6070200556 -0.5522886639
H   0.4410620920  1.5212570340  0.9231310491
H  -1.1368949064 -0.6305668387  0.0157403907
6
Scanning combination 25/73: [419.5959]  Energy = -115.7951878445
C  -0.4539825162  1.1429632842  0.4331210622
O  -0.3177540996 -0.2680427400  0.3494653207
H  -1.3100700512  1.4343736141  1.0466135889
H  -0.5466688869  1.6049806169 -0.5527605266
H   0.4486734887  1.5219307542  0.9075560884
H  -1.1157999024 -0.6263089004 -0.0362390024
6
Scanning combination 26/73: [424.5959]  Energy = -115.7951806610
C  -0.4540243532  1.1430237520  0.4324723213
O  -0.3195119233 -0.2684220266  0.3533049328
H  -1.2989322955  1.4360289833  1.0604275499
H  -0.5616319347  1.6027691352 -0.5529196379
H   0.4561448313  1.5230260820  0.8916491969
H  -1.0910472182 -0.6215485850 -0.0871991918
6
Scanning combination 27/73: [429.5959]  Energy = -115.7951484777
C  -0.4536840114  1.1430738505  0.4322594979
O  -0.3216810894 -0.2688667009  0.3570705885
H  -1.2887480095  1.4377091232  1.0723204168
H  -0.5786687825  1.5992018503 -0.5528008739
H   0.4642406639  1.5254142678  0.8738077380
H  -1.0619168362 -0.6155887036 -0.1386020083
6
Scanning combination 28/73: [434.5959]  Energy = -115.7950813041
C  -0.4535470003  1.1431476534  0.4316498184
O  -0.3239890226 -0.2693083204  0.3606180236
H  -1.2769445115  1.4389893089  1.0858893169
H  -0.5937901014  1.5966438611 -0.5524260386
H   0.4710189305  1.5273212415  0.8579777003
H  -1.0303782916 -0.6100878913 -0.1857559394
6
Scanning combination 29/73: [439.5959]  Energy = -115.7949942418
C  -0.4529889104  1.1432308916  0.4314532102
O  -0.3267322739 -0.2698242005  0.3640581807
H  -1.2661628788  1.4402195639  1.0975659143
H  -0.6109990909  1.5928907824 -0.5516352736
H   0.4784057471  1.5304271172  0.8402058538
H  -0.9944468196 -0.6034747220 -0.2327109987
6
Scanning combination 30/73: [444.5959]  Energy = -115.7948867319
C  -0.4523419767  1.1433248985  0.4312609619
O  -0.3297367424 -0.2703713124  0.3672968611
H  -1.2550224066  1.4412934993  1.1092507555
H  -0.6281679753  1.5889676493 -0.5505325050
H   0.4853414790  1.5339375116  0.8225717547
H  -0.9553757901 -0.5965723000 -0.2769781572
6
Scanning combination 31/73: [449.5959]  Energy = -115.7947664511
C  -0.4515904788  1.1434364864  0.4310860271
O  -0.3330138153 -0.2709355759  0.3703169240
H  -1.2435860327  1.4422320698  1.1208598117
H  -0.6453465090  1.5851289339 -0.5490102216
H   0.4919727872  1.5376119588  0.8049862097
H  -0.9132057579 -0.5897202421 -0.3183739991
6
Scanning combination 32/73: [454.5959]  Energy = -115.7946419467
C  -0.4507430903  1.1435621786  0.4309296518
O  -0.3365461789 -0.2714960054  0.3731041805
H  -1.2319166128  1.4429842632  1.1323589931
H  -0.6625856079  1.5814950224 -0.5470148912
H   0.4983381659  1.5413662276  0.7874002547
H  -0.8680329073 -0.5831953530 -0.3566586419
6
Scanning combination 33/73: [459.5959]  Energy = -115.7945223892
C  -0.4498037928  1.1436972525  0.4307872097
O  -0.3403159745 -0.2720411125  0.3756479531
H  -1.2200516912  1.4434859874  1.1437329365
H  -0.6798973578  1.5781474149 -0.5445143209
H   0.5044503435  1.5451539136  0.7697944471
H  -0.8200563290 -0.5770947021 -0.3916048741
6
Scanning combination 34/73: [464.5959]  Energy = -115.7944167799
C  -0.4487754083  1.1438349490  0.4306538104
O  -0.3443041745 -0.2725609615  0.3779393140
H  -1.2080230473  1.4436542579  1.1549704425
H  -0.6972843215  1.5751341718 -0.5414853969
H   0.5103170775  1.5489348004  0.7521552708
H  -0.7695178354 -0.5714203092 -0.4230111269
6
Scanning combination 35/73: [469.5959]  Energy = -115.7943332069
C  -0.4476647508  1.1439660414  0.4305240025
O  -0.3484881424 -0.2730448851  0.3799707400
H  -1.1958520223  1.4434155900  1.1660675424
H  -0.7147371845  1.5724729122 -0.5379154700
H   0.5159432203  1.5526569793  0.7344752664
H  -0.7166883353 -0.5661237657 -0.4506942394
6
Scanning combination 36/73: [474.5959]  Energy = -115.7942780859
C  -0.4464848668  1.1440811099  0.4303936909
O  -0.3528409995 -0.2734828996  0.3817348205
H  -1.1835465289  1.4427365552  1.1770276791
H  -0.7322321306  1.5701594036 -0.5338029204
H   0.5213342177  1.5562480865  0.7167522577
H  -0.6618603413 -0.5611412734 -0.4744906960
6
Scanning combination 37/73: [479.5959]  Energy = -115.7942556451
C  -0.4452552505  1.1441717050  0.4302607610
O  -0.3573319006 -0.2738663187  0.3832231948
H  -1.1710990200  1.4416371691  1.1878626030
H  -0.7497309598  1.5681819244 -0.5291546811
H   0.5264968719  1.5596169297  0.6989938874
H  -0.6053436935 -0.5564271151 -0.4942550575
6
Scanning combination 38/73: [484.5959]  Energy = -115.7942675434
C  -0.4440009274  1.1442324106  0.4301243540
O  -0.3619265288 -0.2741889451  0.3844263023
H  -1.1584851576  1.4401846278  1.1985946636
H  -0.7671816474  1.5665374688 -0.5239840706
H   0.5314370760  1.5626631365  0.6812252200
H  -0.5474671334 -0.5519789369 -0.5098594316
6
Scanning combination 39/73: [489.5959]  Energy = -115.7943120520
C  -0.4414654430  1.1452945363  0.4414790719
O  -0.3411925309 -0.2717992851  0.3919464311
H  -1.1313323900  1.4256544246  1.2373502518
H  -0.8102851980  1.5626455766 -0.4981957280
H   0.5349038332  1.5823937511  0.6554346997
H  -0.4791548827 -0.5458408130 -0.5120968922
6
Scanning combination 40/73: [494.5959]  Energy = -115.7943870779
C  -0.4402969753  1.1453076367  0.4412713945
O  -0.3458406158 -0.2720516653  0.3926529286
H  -1.1179122108  1.4239065101  1.2477718339
H  -0.8270621424  1.5616024257 -0.4917303393
H   0.5389386919  1.5845294647  0.6380529668
H  -0.4199815414 -0.5413357787 -0.5203410628
6
Scanning combination 41/73: [499.5959]  Energy = -115.7944860466
C  -0.4391685326  1.1453114592  0.4410703119
O  -0.3504991852 -0.2722662193  0.3930514962
H  -1.1042484498  1.4221138439  1.2581238760
H  -0.8436663436  1.5609289891 -0.4848059180
H   0.5427657887  1.5862450498  0.6207806899
H  -0.3603734259 -0.5372254033 -0.5242752903
6
Scanning combination 42/73: [504.5959]  Energy = -115.7946004331
C  -0.4383956151  1.1453194072  0.4406803698
O  -0.3549567467 -0.2724161593  0.3931613917
H  -1.0891267087  1.4203906719  1.2694000810
H  -0.8589551043  1.5614139565 -0.4778447824
H   0.5462326906  1.5868470979  0.6048971346
H  -0.3021326161 -0.5343041015 -0.5237269154
6
Scanning combination 43/73: [509.5959]  Energy = -115.7947236028
C  -0.4374258051  1.1453132184  0.4404605531
O  -0.3595266175 -0.2725300166  0.3929290128
H  -1.0747241043  1.4185234691  1.2798096371
H  -0.8749808305  1.5617176051 -0.4700597090
H   0.5496062399  1.5877360707  0.5882774761
H  -0.2429058890 -0.5317486317 -0.5189942993
6
Scanning combination 44/73: [514.5959]  Energy = -115.7948452441
C  -0.4367159532  1.1453162927  0.4401510084
O  -0.3639100018 -0.2726043618  0.3924051875
H  -1.0592242068  1.4168027452  1.2907616859
H  -0.8901083599  1.5628127576 -0.4622000738
H   0.5526446375  1.5879095512  0.5725598216
H  -0.1852018379 -0.5301531625 -0.5100857281
6
Scanning combination 45/73: [519.5959]  Energy = -115.7949575216
C  -0.4174326433  1.1473529861  0.4186641923
O  -0.3843973889 -0.2727504372  0.4122582402
H  -0.9960580308  1.4575947925  1.2865400623
H  -0.9035550172  1.5491504452 -0.4740215754
H   0.5866234424  1.5702124423  0.4927776137
H  -0.1734415450 -0.5615132121 -0.4738966602
6
Scanning combination 46/73: [524.5959]  Energy = -115.7950537472
C  -0.4174460533  1.1472953191  0.4181721243
O  -0.3883021275 -0.2727119070  0.4113390580
H  -0.9776184240  1.4567869524  1.2981495752
H  -0.9156525630  1.5516104141 -0.4664835626
H   0.5885422404  1.5685662868  0.4794211376
H  -0.1195665102 -0.5614435958 -0.4592351057
6
Scanning combination 47/73: [529.5959]  Energy = -115.7951286126
C  -0.4398849300  1.1261238203  0.4128206034
O  -0.3871461760 -0.2930661102  0.4109730726
H  -0.9616111760  1.4279630380  1.3185615111
H  -0.9905265675  1.5163957090 -0.4467090716
H   0.5593402563  1.5678157811  0.4222363947
H  -0.0807847592 -0.5805841760 -0.4476503634
6
Scanning combination 48/73: [534.5959]  Energy = -115.7951739277
C  -0.4399643015  1.1261108792  0.4125494427
O  -0.3909039386 -0.2931302892  0.4095893336
H  -0.9427612050  1.4278747007  1.3288591790
H  -1.0022820771  1.5188089482 -0.4381999350
H   0.5604369511  1.5656782096  0.4083108433
H  -0.0283868507 -0.5795986554 -0.4273378168
6
Scanning combination 49/73: [539.5959]  Energy = -115.7951928532
C  -0.4395287470  1.1261208027  0.4126595240
O  -0.3948431658 -0.2932207198  0.4077879370
H  -0.9260896491  1.4278964857  1.3376512443
H  -1.0157414289  1.5202498662 -0.4280584047
H   0.5613614345  1.5642481860  0.3918527728
H   0.0248100449 -0.5783142616 -0.4025332215
6
Scanning combination 50/73: [544.5959]  Energy = -115.7951807368
C  -0.4390963075  1.1261298469  0.4129487593
O  -0.3986725887 -0.2933503439  0.4056654478
H  -0.9093681685  1.4286395991  1.3461188985
H  -1.0288773625  1.5210032845 -0.4178588371
H   0.5619131904  1.5629264298  0.3750790020
H   0.0763006245 -0.5765394129 -0.3741849022
6
Scanning combination 51/73: [549.5959]  Energy = -115.7951380616
C  -0.4389111095  1.1261377326  0.4132755905
O  -0.4022423179 -0.2934918520  0.4033030474
H  -0.8918025532  1.4298653386  1.3546968261
H  -1.0410396923  1.5218375576 -0.4080109621
H   0.5621884511  1.5611003365  0.3588922667
H   0.1250741450 -0.5746212733 -0.3428223115
6
Scanning combination 52/73: [554.5959]  Energy = -115.7950679678
C  -0.4387899647  1.1261459885  0.4136973057
O  -0.4056250998 -0.2936341007  0.4006820486
H  -0.8741041959  1.4314243765  1.3630180214
H  -1.0529376665  1.5226097196 -0.3980247655
H   0.5621572642  1.5590107876  0.3425448936
H   0.1715530197 -0.5727035227 -0.3082067916
6
Scanning combination 53/73: [559.5959]  Energy = -115.7949678449
C  -0.4393567279  1.1261366945  0.4138998489
O  -0.4085190481 -0.2937663191  0.3980231716
H  -0.8533756652  1.4330774639  1.3723225470
H  -1.0624379083  1.5240446238 -0.3898274893
H   0.5618158860  1.5562763663  0.3292393366
H   0.2133522862 -0.5708477747 -0.2726147216
6
Scanning combination 54/73: [564.5959]  Energy = -115.7948601523
C  -0.4391060882  1.1261519296  0.4146177589
O  -0.4115921215 -0.2938972935  0.3948316132
H  -0.8368694660  1.4351247333  1.3795324723
H  -1.0748602863  1.5245677331 -0.3786698808
H   0.5611694185  1.5539537274  0.3114576844
H   0.2557042882 -0.5691982233 -0.2310984922
6
Scanning combination 55/73: [569.5959]  Energy = -115.7947428439
C  -0.4386179628  1.1261927090  0.4155909335
O  -0.4145696601 -0.2940636318  0.3912865465
H  -0.8212115227  1.4378093472  1.3860356753
H  -1.0877964570  1.5239965522 -0.3668434012
H   0.5599385311  1.5524490310  0.2926699174
H   0.2956566323 -0.5676527476 -0.1859690608
6
Scanning combination 56/73: [574.5959]  Energy = -115.7946185588
C  -0.4386191059  1.1262188024  0.4163546981
O  -0.4170910900 -0.2941699601  0.3877189275
H  -0.8033173700  1.4401526582  1.3932262988
H  -1.0992892821  1.5240937166 -0.3560467938
H   0.5583725653  1.5506322755  0.2761259886
H   0.3308550835 -0.5668997401 -0.1398877999
6
Scanning combination 57/73: [579.5959]  Energy = -115.7945036088
C  -0.4380906821  1.1262822427  0.4174591321
O  -0.4195795089 -0.2942773540  0.3837187460
H  -0.7877298932  1.4429092344  1.3992896863
H  -1.1123916689  1.5229495308 -0.3435081565
H   0.5560678969  1.5499293113  0.2573155432
H   0.3638743847 -0.5668605409 -0.0893484817
6
Scanning combination 58/73: [584.5959]  Energy = -115.7943997912
C  -0.4381581781  1.1262983813  0.4182805337
O  -0.4215741280 -0.2943027866  0.3798049141
H  -0.7696157833  1.4450669513  1.4060489787
H  -1.1237095410  1.5226983511 -0.3323470636
H   0.5536569182  1.5486862846  0.2412902812
H   0.3919520250 -0.5673126930 -0.0389107256
6
Scanning combination 59/73: [589.5959]  Energy = -115.7943227235
C  -0.4433155475  1.1254530960  0.4262682012
O  -0.4225787401 -0.2952711754  0.3868231211
H  -0.7142483186  1.4487939691  1.4312204145
H  -1.1802207895  1.5126006136 -0.2789564401
H   0.5311189633  1.5532268761  0.1800109987
H   0.4019395783 -0.5657531362 -0.0113573491
6
Scanning combination 60/73: [594.5959]  Energy = -115.7942726237
C  -0.4391211010  1.1226339451  0.4346952411
O  -0.4256523002 -0.2981190637  0.3900638907
H  -0.6905596219  1.4491859494  1.4440136984
H  -1.1884029660  1.5102652866 -0.2567417556
H   0.5312679083  1.5472304654  0.1680638917
H   0.4225732514 -0.5731217492  0.0489892748
6
Scanning combination 61/73: [599.5959]  Energy = -115.7942542479
C  -0.4346441679  1.1325532533  0.4374458995
O  -0.4343281927 -0.2880596084  0.3856235250
H  -0.6685849077  1.4615472560  1.4504958389
H  -1.1906773030  1.5255099908 -0.2431104657
H   0.5348174142  1.5497280581  0.1561510691
H   0.4333807846 -0.5712270534  0.1057648861
6
Scanning combination 62/73: [604.5959]  Energy = -115.7942716561
C  -0.4341524952  1.1325075226  0.4385233527
O  -0.4355981429 -0.2878551070  0.3810994329
H  -0.6523962950  1.4629016261  1.4549259312
H  -1.2026007434  1.5228608693 -0.2290928091
H   0.5292927109  1.5507699388  0.1389451683
H   0.4489383800 -0.5736751209  0.1634909525
6
Scanning combination 63/73: [609.5959]  Energy = -115.7943219024
C  -0.4336940072  1.1324367609  0.4395696197
O  -0.4365717944 -0.2876075073  0.3765315084
H  -0.6361012303  1.4639176990  1.4591705055
H  -1.2143256874  1.5199923529 -0.2149587243
H   0.5233569708  1.5520992444  0.1220648422
H   0.4602946333 -0.5762387198  0.2220278503
6
Scanning combination 64/73: [614.5959]  Energy = -115.7944012224
C  -0.4332729601  1.1323449417  0.4405676230
O  -0.4372366783 -0.2873115537  0.3719467130
H  -0.6197483766  1.4645093179  1.4632320928
H  -1.2258824303  1.5169967450 -0.2006605777
H   0.5170109882  1.5537376388  0.1055006666
H   0.4673804984 -0.5790764227  0.2811103948
6
Scanning combination 65/73: [619.5959]  Energy = -115.7945036411
C  -0.4328931322  1.1322396801  0.4415082683
O  -0.4375848105 -0.2869730183  0.3673692151
H  -0.6033669274  1.4646895815  1.4671007299
H  -1.2372877582  1.5139317342 -0.1861738175
H   0.5102567519  1.5557186839  0.0892573687
H   0.4701582718 -0.5822917002  0.3404440296
6
Scanning combination 66/73: [624.5959]  Energy = -115.7946213763
C  -0.4325600421  1.1321299860  0.4423872030
O  -0.4376090205 -0.2866002692  0.3628216761
H  -0.5869824105  1.4645173807  1.4707606494
H  -1.2485521159  1.5108406821 -0.1714848158
H   0.5030999637  1.5580572483  0.0733382148
H   0.4686101719 -0.5859762135  0.3997198053
6
Scanning combination 67/73: [629.5959]  Energy = -115.7947456959
C  -0.4322798315  1.1320242423  0.4432030618
O  -0.4373046930 -0.2862029780  0.3583261146
H  -0.5706163682  1.4640713500  1.4741912275
H  -1.2596788578  1.5077596524 -0.1565879665
H   0.4955524595  1.5607369607  0.0577420335
H   0.4627491837 -0.5901746717  0.4586207122
6
Scanning combination 68/73: [634.5959]  Energy = -115.7948676679
C  -0.4320583929  1.1319287050  0.4439553248
O  -0.4366714366 -0.2857915556  0.3539044919
H  -0.5542840152  1.4634217673  1.4773694207
H  -1.2706640707  1.5047271031 -0.1414818408
H   0.4876359226  1.5637021416  0.0424636025
H   0.4526289293 -0.5948494355  0.5168312009
6
Scanning combination 69/73: [639.5959]  Energy = -115.7949788837
C  -0.4319008833  1.1318467843  0.4446425755
O  -0.4357133704 -0.2853772771  0.3495784373
H  -0.5379965537  1.4626128420  1.4802728554
H  -1.2814999925  1.5017939888 -0.1261629109
H   0.4793805816  1.5668618634  0.0274943200
H   0.4383494477 -0.5998664133  0.5740523061
6
Scanning combination 70/73: [644.5959]  Energy = -115.7950723094
C  -0.4318033961  1.1317812617  0.4452595258
O  -0.4344277538 -0.2849782355  0.3453658931
H  -0.5218935118  1.4616996863  1.4828569536
H  -1.2922371963  1.4989628919 -0.1105678899
H   0.4707592057  1.5701660654  0.0127404050
H   0.4200380215 -0.6049792178  0.6301373244
6
Scanning combination 71/73: [649.5959]  Energy = -115.7951370591
C  -0.4322688606  1.1317138090  0.4457775229
O  -0.4328012807 -0.2846419946  0.3414301383
H  -0.5038418943  1.4607850918  1.4852215561
H  -1.3017130088  1.4973692387 -0.0964484611
H   0.4628820094  1.5722496571 -0.0001416180
H   0.3990703138 -0.6090876414  0.6828314299
6
Scanning combination 72/73: [654.5959]  Energy = -115.7951799332
C  -0.4322798051  1.1316708428  0.4462381879
O  -0.4309186405 -0.2842752939  0.3374947044
H  -0.4880476925  1.4593719510  1.4871970961
H  -1.3122155796  1.4951919013 -0.0801400488
H   0.4537299581  1.5754125615 -0.0145079295
H   0.3731798331 -0.6139683786  0.7358879569
6
Scanning combination 73/73: [659.5959]  Energy = -115.7951874762
C  -0.4328620797  1.1316287224  0.4466423335
O  -0.4287429553 -0.2839845324  0.3338469986
H  -0.4701561878  1.4580544814  1.4888793792
H  -1.3214287329  1.4941450009 -0.0655112300
H   0.4454166557  1.5774122320 -0.0269252844
H   0.3452204544 -0.6177167581  0.7850750119
