17
enolate intermediate + H2O
 C                 -2.00000000    0.50000000    0.00000000
 O                 -2.00000000    1.72000000    0.00000000
 C                 -0.75000000   -0.35000000    0.00000000
 C                  0.55000000    0.45000000    0.00000000
 C                  1.85000000   -0.35000000    0.00000000
 O                  1.95000000   -1.55000000    0.00000000
 C                  3.05000000    0.55000000    0.00000000
 O                  4.46023754    2.56442427    0.70549281
 H                 -2.95000000    0.00000000    0.00000000
 H                 -0.80000000   -1.00000000    0.88000000
 H                 -0.80000000   -1.00000000   -0.88000000
 H                  0.60000000    1.10000000    0.88000000
 H                  0.60000000    1.10000000   -0.88000000
 H                  3.00000000    1.20000000    0.88000000
 H                  4.54433019    1.60390227    0.97068314
 H                  3.95000000    0.00000000    0.00000000
 H                  4.80000000    3.10000000    0.00000000