17
Image 0  Energy = -421.91332019
C  -1.9760481581  0.5090722776  0.0154802079
O  -2.0724356745  1.7143249696  0.0029569131
C  -0.7080750181 -0.2763470643 -0.0215854459
C   0.5675037666  0.5393879543 -0.0639463173
C   1.8163012740 -0.3244720273 -0.1133636937
O   1.6966808941 -1.5189722022 -0.4090741498
C   3.0935012859  0.3143302320  0.2217401115
O   4.2708719353  2.7510389330  0.0647307907
H  -2.9008801247 -0.1005366984  0.0662236744
H  -0.7262022587 -0.9267690047  0.8590662065
H  -0.7719881510 -0.9592044658 -0.8714044506
H   0.6148737970  1.2193722242  0.7850658266
H   0.5837708120  1.1683258928 -0.9563429372
H   3.0553355344  0.6982822478  1.2381340642
H   3.4099426004  1.2867196180 -0.2571790232
H   3.9219578609 -0.3769733240  0.1370452846
H   4.6748896774  3.1524197994 -0.6975475229
17
Image 1  Energy = -421.89069069
C  -1.9717218630  0.5137734698  0.0137016653
O  -2.0702382421  1.7149788054  0.0079584885
C  -0.7008642086 -0.2718280331 -0.0274613093
C   0.5715132743  0.5535658348 -0.0638577272
C   1.8213180740 -0.3290302583 -0.1099457033
O   1.6719355223 -1.5101976291 -0.4083372945
C   3.1084908547  0.2938734510  0.2363195966
O   4.1799954503  2.7584969717  0.0086698361
H  -2.8962144494 -0.1016239121  0.0605765215
H  -0.7168471313 -0.9283443888  0.8490633021
H  -0.7531023121 -0.9528559522 -0.8796936310
H   0.6207950985  1.2288040677  0.7881582147
H   0.5841258229  1.1855642304 -0.9531271023
H   3.0491907249  0.6257385467  1.2701055568
H   3.4693304910  1.3709213559 -0.1994546923
H   3.9191444240 -0.4166440034  0.1387113067
H   4.6631488520  3.1348066836 -0.7313874590
17
Image 2  Energy = -421.89616824
C  -1.9678401617  0.5133202219  0.0132101149
O  -2.0707206464  1.7163074734  0.0112366862
C  -0.6976102374 -0.2674046114 -0.0276875703
C   0.5781870996  0.5558145520 -0.0572477332
C   1.8280379558 -0.3278429887 -0.1133318898
O   1.6760888535 -1.5059231536 -0.4393918168
C   3.1097333640  0.2845011031  0.2438464306
O   4.1107362989  2.7302526551 -0.0140073666
H  -2.8925524372 -0.1025248708  0.0569475612
H  -0.7124146634 -0.9296055202  0.8455232650
H  -0.7442359588 -0.9475194656 -0.8817879727
H   0.6191337711  1.2280972090  0.7968481390
H   0.5838227118  1.1923967562 -0.9435903848
H   3.0371387224  0.6387277539  1.2667511559
H   3.5467319237  1.4765102985 -0.1456310932
H   3.9100560800 -0.4406318138  0.1390123536
H   4.6357076816  3.0555235281 -0.7507003157
17
Image 3  Energy = -421.89986691
C  -1.9628359077  0.5141371805  0.0136420383
O  -2.0732833940  1.7172492768  0.0161055938
C  -0.6913799016 -0.2612162514 -0.0263407999
C   0.5878740910  0.5589580221 -0.0486632499
C   1.8368294458 -0.3275515851 -0.1223450931
O   1.6840274214 -1.4943583277 -0.4979153320
C   3.1080988252  0.2736365435  0.2683544393
O   4.0450192196  2.7084017568 -0.0384855626
H  -2.8864427309 -0.1043998463  0.0521887126
H  -0.7086757871 -0.9302463150  0.8430928682
H  -0.7332925532 -0.9394666639 -0.8829760234
H   0.6242283451  1.2236442694  0.8112744816
H   0.5860972212  1.2031936102 -0.9301098853
H   3.0203027805  0.6682047434  1.2751877155
H   3.5883934994  1.5430123012 -0.1146745178
H   3.9142905679 -0.4509707957  0.1533579227
H   4.6107488980  2.9677709109 -0.7716937797
17
Image 4  Energy = -421.90976011
C  -1.9601041552  0.5151225390  0.0144608815
O  -2.0762401480  1.7183200446  0.0195594417
C  -0.6883211682 -0.2568251982 -0.0238309214
C   0.5964070705  0.5565867794 -0.0424979894
C   1.8354104252 -0.3542370269 -0.1178959996
O   1.6774228741 -1.5076058613 -0.5545588676
C   3.0771959713  0.2177135625  0.3000420689
O   4.0110828326  2.6779557630 -0.0392500092
H  -2.8844329159 -0.1044332003  0.0499826358
H  -0.7072014457 -0.9300349386  0.8440265444
H  -0.7292022790 -0.9359604623 -0.8810135925
H   0.6336180313  1.2176403938  0.8205697773
H   0.5914379203  1.2067757720 -0.9213565694
H   3.0042909629  0.7186840467  1.2582380744
H   3.6691514605  1.6899098659 -0.1191035798
H   3.9156073620 -0.4639391347  0.1679380472
H   4.5838771712  2.9043258543 -0.7753105118
17
Image 5  Energy = -421.91591230
C  -1.9622217196  0.5159953573  0.0189931484
O  -2.0866150283  1.7176763373  0.0273390650
C  -0.6903270493 -0.2563324877 -0.0147603009
C   0.5987555460  0.5428891004 -0.0345731195
C   1.8267649703 -0.3818285566 -0.1334729521
O   1.6553528625 -1.5102689790 -0.6474760474
C   3.0358842477  0.1618300424  0.3310461108
O   4.0595493891  2.7181020710 -0.0255532813
H  -2.8835569669 -0.1078717664  0.0453293206
H  -0.7129160565 -0.9331825791  0.8494539486
H  -0.7229922969 -0.9308135490 -0.8741650510
H   0.6573965793  1.1946643266  0.8355144840
H   0.6013271417  1.1930777102 -0.9112617417
H   2.9662386680  0.7789292194  1.2190509476
H   3.7317840718  1.7759528179 -0.0969400149
H   3.9093841913 -0.4810145752  0.2363530016
H   4.5661913111  2.8721945872 -0.8248779371
17
Image 6  Energy = -421.91783852
C  -1.9700608152  0.5042538096  0.0243203102
O  -2.0942913000  1.7070314544  0.0422321563
C  -0.6978875579 -0.2670417214 -0.0090087344
C   0.5852108234  0.5379628973 -0.0343995333
C   1.8195064031 -0.3764854152 -0.1484969333
O   1.6561279629 -1.4765516808 -0.7258397851
C   3.0052783969  0.1522233844  0.3742223911
O   4.2298267931  2.6912313212 -0.0215100761
H  -2.8905261420 -0.1191319385  0.0412822837
H  -0.7183785334 -0.9390046691  0.8585737842
H  -0.7232406416 -0.9435208829 -0.8661548818
H   0.6501037314  1.1855302409  0.8379354840
H   0.5810337621  1.1876583482 -0.9102534695
H   2.9183559181  0.8293957598  1.2164840460
H   3.8288359463  1.7849680544 -0.0574428265
H   3.8982343766 -0.4657949480  0.3081091806
H   4.4718708433  2.8772760901 -0.9300535762
17
Image 7  Energy = -421.92397925
C  -1.9778922872  0.4975746833  0.0279034748
O  -2.1004837445  1.6994323322  0.0468054730
C  -0.7109460437 -0.2769703521 -0.0057863194
C   0.5703820241  0.5296440956 -0.0403981761
C   1.8131336750 -0.3752022531 -0.1530498529
O   1.6583104953 -1.4692931647 -0.7371260727
C   2.9926070269  0.1649525452  0.3813642882
O   4.3431095980  2.6579616801 -0.0203551734
H  -2.9022557000 -0.1232649719  0.0449391445
H  -0.7272907195 -0.9426730484  0.8670723250
H  -0.7367570106 -0.9599671827 -0.8581879453
H   0.6367626453  1.1820070640  0.8286181211
H   0.5619708305  1.1754834107 -0.9193308284
H   2.8939243171  0.8673013718  1.1997734955
H   3.8953874458  1.7818271524 -0.0470922243
H   3.8921575609 -0.4422567021  0.3258526710
H   4.4478799839  2.9034442468 -0.9410025433
17
Image 8  Energy = -421.94173199
C  -1.9928003253  0.4894410021  0.0321870103
O  -2.1084407324  1.6937082704  0.0454187072
C  -0.7306186947 -0.2893685996 -0.0015240041
C   0.5523457067  0.5172936200 -0.0512759070
C   1.8015764735 -0.3733023576 -0.1513700166
O   1.6612420702 -1.4844413831 -0.7182468702
C   2.9753186177  0.1832207944  0.3679112490
O   4.4665083324  2.6208557211 -0.0041443326
H  -2.9194339453 -0.1257732755  0.0553588936
H  -0.7409453802 -0.9449460554  0.8769726986
H  -0.7619936055 -0.9816696525 -0.8459639778
H   0.6168865671  1.1785099435  0.8094798533
H   0.5379402179  1.1515030705 -0.9384158472
H   2.8707186622  0.9149512654  1.1590429828
H   3.9610983843  1.7761937465 -0.0464164788
H   3.8885416176 -0.4046168735  0.3157807918
H   4.4720561596  2.9484421343 -0.9047947405
17
Image 9  Energy = -421.95585603
C  -2.0073135049  0.4795386063  0.0352582118
O  -2.1158528013  1.6897558336  0.0307089811
C  -0.7551877012 -0.3059783097  0.0039024430
C   0.5298234242  0.4961751318 -0.0610868872
C   1.7910537480 -0.3736797096 -0.1405982787
O   1.6600219222 -1.5295765903 -0.6341364769
C   2.9655865753  0.2296616170  0.3029977006
O   4.5758262997  2.5551470015  0.0311408398
H  -2.9385219521 -0.1218554573  0.0718719768
H  -0.7637501873 -0.9495263892  0.8898073323
H  -0.8058324408 -1.0048570980 -0.8330433320
H   0.5859136713  1.1735704659  0.7863453845
H   0.5155928910  1.1084347536 -0.9617392396
H   2.8606769734  0.9814388266  1.0751149825
H   4.0080125524  1.7584641451 -0.0531218303
H   3.8865809113 -0.3454474495  0.2576272819
H   4.5573700266  3.0287352309 -0.8010491314
