17
Image 0  Energy = -421.93234718
C  -1.7552146826  0.2303713748  0.5425579294
O  -1.9487856485  1.3551388502  0.9354693820
C  -0.7027791263 -0.2174490076 -0.4028277734
C   0.5333087882  0.6721323587 -0.5400013555
C   1.8090135125 -0.1281270858 -0.2195626644
O   2.0218534671 -1.1086793850 -0.9943980073
C   2.5413319793  0.2854211858  0.8711398947
O   4.8129750770  2.3761378427 -0.1024227358
H  -2.4569559078 -0.5642818848  0.8731363032
H  -0.3830451866 -1.2218019975 -0.1225446460
H  -1.2347684906 -0.3513406848 -1.3515541784
H   0.4455915018  1.5567775147  0.0847546641
H   0.6184934847  0.9957528949 -1.5742457524
H   2.1390450660  1.0229351018  1.5548076163
H   4.2049619213  1.7019177443  0.2485624552
H   3.4301626782 -0.2531803910  1.1863829303
H   4.4748111584  2.5182761337 -0.9892538781
17
Image 1  Energy = -421.93288387
C  -1.7162273029  0.1959020971  0.5617182142
O  -1.9340498087  1.3146871912  0.9685802836
C  -0.6866613187 -0.2003261119 -0.4329647984
C   0.5417853420  0.7017278490 -0.5609073759
C   1.8151837050 -0.0926566745 -0.2223381418
O   2.0646091430 -1.0480568575 -1.0181150152
C   2.5137911211  0.2960146587  0.8990822837
O   4.7761016401  2.3594285131 -0.1168142070
H  -2.3680693982 -0.6272073374  0.9101464606
H  -0.3524387094 -1.2142751403 -0.2101554940
H  -1.2478282347 -0.2864668566 -1.3700006028
H   0.4363851288  1.5881967443  0.0595295436
H   0.6320259141  1.0226791104 -1.5967920690
H   2.0986648639  1.0291766771  1.5793367056
H   4.2090614359  1.6924411478  0.3081396457
H   3.3784781781 -0.2687964820  1.2354181130
H   4.3891870414  2.4075302483 -0.9938633813
17
Image 2  Energy = -421.93250874
C  -1.6637214351  0.1766047872  0.5940327015
O  -1.8793953750  1.2871540032  1.0227440808
C  -0.6779785734 -0.1914573748 -0.4560166192
C   0.5463187586  0.7144723141 -0.5989482407
C   1.8215751418 -0.0605147392 -0.2313876573
O   2.1386963478 -0.9755076779 -1.0509535422
C   2.4544882937  0.2917101501  0.9403982031
O   4.7628699587  2.3447702186 -0.1257491000
H  -2.2865360743 -0.6602096015  0.9608705401
H  -0.3414137647 -1.2133594954 -0.2778073665
H  -1.2773736924 -0.2403319599 -1.3720393097
H   0.4268941231  1.6166003773 -0.0036978794
H   0.6405867721  1.0047941906 -1.6433742718
H   2.0105535787  1.0058740831  1.6219795839
H   4.2065165967  1.6809402225  0.3165963863
H   3.3042924736 -0.2820484811  1.3013298781
H   4.3636269123  2.3705080364 -0.9979786892
17
Image 3  Energy = -421.93208966
C  -1.6069002406  0.1604381876  0.6262773534
O  -1.7952493114  1.2599323866  1.0924125359
C  -0.6715660253 -0.1856230323 -0.4765700589
C   0.5488387284  0.7216231719 -0.6381527633
C   1.8234904739 -0.0326273864 -0.2372176465
O   2.2132726087 -0.9061293338 -1.0702810258
C   2.3847062601  0.2862626162  0.9809002983
O   4.7531034570  2.3303778782 -0.1296439897
H  -2.2192341999 -0.6821599332  0.9962018009
H  -0.3371015885 -1.2138554413 -0.3340558441
H  -1.3065199750 -0.2049196573 -1.3694844442
H   0.4166767419  1.6395203811 -0.0697129509
H   0.6479124873  0.9798421170 -1.6902844692
H   1.9153876887  0.9854764727  1.6593478392
H   4.1946638502  1.6631353930  0.3036382241
H   3.2258641608 -0.2912675071  1.3620526225
H   4.3626546745  2.3599725164 -1.0054277850
17
Image 4  Energy = -421.93149395
C  -1.5563510704  0.1445528294  0.6558303616
O  -1.6895725877  1.2271817783  1.1760623339
C  -0.6700430654 -0.1830235223 -0.4933787252
C   0.5478262167  0.7226933250 -0.6739153394
C   1.8237265090 -0.0083143813 -0.2375074075
O   2.2932273816 -0.8296436406 -1.0839378368
C   2.3073484986  0.2719423571  1.0229590865
O   4.7600516102  2.3212866977 -0.1301511604
H  -2.1824403859 -0.6947647431  1.0112032306
H  -0.3400553225 -1.2170910321 -0.3812343801
H  -1.3340735204 -0.1787695319 -1.3649154481
H   0.4042254850  1.6558956227 -0.1331418973
H   0.6543347927  0.9481808275 -1.7328286828
H   1.8022243320  0.9506933386  1.6957563416
H   4.1858428755  1.6432984113  0.2641784206
H   3.1497887423 -0.2948869811  1.4191329377
H   4.3939385621  2.3907678791 -1.0141107816
17
Image 5  Energy = -421.92983291
C  -1.5314539798  0.1372029569  0.6695570156
O  -1.6536756124  1.2078607961  1.2128826567
C  -0.6696019104 -0.1821612029 -0.4983476945
C   0.5456734835  0.7239919935 -0.6921574312
C   1.8286916843  0.0165269634 -0.2311672761
O   2.3800661006 -0.7295432899 -1.1031837109
C   2.2347037701  0.2315338759  1.0656770912
O   4.7951792198  2.3229563717 -0.1451143937
H  -2.1628980144 -0.7036146593  1.0303429332
H  -0.3410951367 -1.2191339943 -0.4000943743
H  -1.3459188863 -0.1704494038 -1.3610853513
H   0.3910923706  1.6689922774 -0.1740790797
H   0.6575741287  0.9239966544 -1.7551231131
H   1.6883370832  0.8726211308  1.7439095072
H   4.2081631316  1.6268517036  0.1983873165
H   3.0837733961 -0.3179306344  1.4660660524
H   4.4413891706  2.4602983833 -1.0264691755
17
Image 6  Energy = -421.92831353
C  -1.5248450305  0.1391499767  0.6758123764
O  -1.6559835263  1.2138448357  1.2097900759
C  -0.6622100980 -0.1831678378 -0.4914264908
C   0.5459736984  0.7293717886 -0.6973418693
C   1.8408636089  0.0473805509 -0.2278568099
O   2.4658820494 -0.6134283833 -1.1183094250
C   2.1820440871  0.1959872536  1.0970572187
O   4.8200152113  2.3117551818 -0.1676610612
H  -2.1488069314 -0.7034899567  1.0449389198
H  -0.3286880075 -1.2186327435 -0.3892885430
H  -1.3412047757 -0.1826476294 -1.3526854946
H   0.3805308559  1.6804077829 -0.1935227078
H   0.6574761550  0.9137175817 -1.7629398924
H   1.5793372711  0.7730258605  1.7851162661
H   4.2369729169  1.5907436093  0.1250455522
H   3.0411323812 -0.3356685410  1.4984283308
H   4.4615104694  2.5116501742 -1.0351565633
17
Image 7  Energy = -421.92723882
C  -1.5230753556  0.1445664857  0.6789056656
O  -1.6635302293  1.2240202273  1.2015881025
C  -0.6534103847 -0.1846246110 -0.4820972921
C   0.5485639696  0.7336763656 -0.7002418814
C   1.8580893676  0.0841350702 -0.2208649615
O   2.5598799083 -0.4813416289 -1.1210412231
C   2.1416968489  0.1661141939  1.1215068498
O   4.8211851148  2.2840456685 -0.1866273401
H  -2.1423154109 -0.6987692397  1.0538860602
H  -0.3173374676 -1.2179579233 -0.3692227848
H  -1.3314613621 -0.1974862887 -1.3446626241
H   0.3719553918  1.6894267458 -0.2090172670
H   0.6574742904  0.9056156788 -1.7678474653
H   1.4971416861  0.6864064478  1.8169095961
H   4.2457867329  1.5374518405  0.0480432870
H   3.0156231397 -0.3409667332  1.5212592502
H   4.4637348244  2.5356874265 -1.0404763489
17
Image 8  Energy = -421.92712779
C  -1.5223280739  0.1507033732  0.6810241921
O  -1.6674887751  1.2337392938  1.1950243568
C  -0.6450413460 -0.1867970732 -0.4722560658
C   0.5519861354  0.7359148036 -0.7033360071
C   1.8777767170  0.1227480824 -0.2148149701
O   2.6522905637 -0.3380671417 -1.1175944534
C   2.1074508160  0.1341185290  1.1386250971
O   4.8108944470  2.2554400800 -0.2043394679
H  -2.1412293909 -0.6919271694  1.0589843992
H  -0.3089758455 -1.2180070533 -0.3458675624
H  -1.3213035484 -0.2115217204 -1.3365251256
H   0.3633537223  1.6958925302 -0.2247274252
H   0.6573519538  0.8962419400 -1.7728587364
H   1.4344569664  0.6103727063  1.8374348989
H   4.2477909957  1.4887003249 -0.0090409303
H   2.9950269657 -0.3466350329  1.5397331442
H   4.4579894095  2.5390833996 -1.0494647700
17
Image 9  Energy = -421.92791989
C  -1.5208958367  0.1562692119  0.6830586150
O  -1.6659605748  1.2413019480  1.1923949154
C  -0.6344536729 -0.1885122929 -0.4621118871
C   0.5562338035  0.7404015056 -0.7065586279
C   1.8970272726  0.1655688876 -0.2070209434
O   2.7315038920 -0.1973561467 -1.1039618089
C   2.0821003613  0.1111009884  1.1503670071
O   4.7902281034  2.2148643163 -0.2166777939
H  -2.1444351069 -0.6844201755  1.0591234815
H  -0.2934347980 -1.2162016995 -0.3219618544
H  -1.3082808887 -0.2276165444 -1.3282291885
H   0.3538953577  1.7052182260 -0.2430120000
H   0.6582297765  0.8877070860 -1.7781035473
H   1.3804304103  0.5370419106  1.8521270244
H   4.2351006775  1.4300753153 -0.0677451889
H   2.9842185596 -0.3389078831  1.5528144842
H   4.4484939978  2.5334652574 -1.0545019643
17
Image 10  Energy = -421.92892105
C  -1.5199674436  0.1608395697  0.6857224257
O  -1.6624389353  1.2476165367  1.1919567773
C  -0.6251506865 -0.1907209640 -0.4521778518
C   0.5578332546  0.7439143649 -0.7107262373
C   1.9090341040  0.2049324712 -0.1977156214
O   2.7906454669 -0.0702968785 -1.0837593568
C   2.0630822388  0.0940273957  1.1578403807
O   4.7774746163  2.1696238832 -0.2212030909
H  -2.1500941745 -0.6769802941  1.0585278612
H  -0.2767590244 -1.2143103456 -0.2997426825
H  -1.2969110919 -0.2449479704 -1.3194089166
H   0.3425843031  1.7144922783 -0.2651272129
H   0.6587916884  0.8752387846 -1.7842788114
H   1.3321477770  0.4624478945  1.8608221844
H   4.2157453014  1.3761023656 -0.1354513025
H   2.9809595395 -0.3213363724  1.5595641242
H   4.4530238516  2.5393572220 -1.0448424796
17
Image 11  Energy = -421.93030743
C  -1.5182862900  0.1637161390  0.6883287388
O  -1.6574640146  1.2511485708  1.1936921274
C  -0.6167556853 -0.1922208270 -0.4442702326
C   0.5600678573  0.7456184789 -0.7138206518
C   1.9208563302  0.2417189712 -0.1878914405
O   2.8413114686  0.0478086367 -1.0593742700
C   2.0490415784  0.0815261508  1.1631454994
O   4.7627815802  2.1222586922 -0.2247698754
H  -2.1546288285 -0.6717819411  1.0572662410
H  -0.2636297510 -1.2127558597 -0.2831760663
H  -1.2875901473 -0.2573791823 -1.3118720728
H   0.3334286665  1.7214342129 -0.2856964669
H   0.6619402920  0.8621158964 -1.7890495500
H   1.2944492089  0.4012591862  1.8632413718
H   4.1893505984  1.3324445921 -0.1971749805
H   2.9799929545 -0.3022399791  1.5648304108
H   4.4551348957  2.5353282573 -1.0334099257
17
Image 12  Energy = -421.93236102
C  -1.5147870568  0.1674516995  0.6923817942
O  -1.6478484709  1.2546210171  1.1991309770
C  -0.6083490038 -0.1936039851 -0.4358262513
C   0.5627587392  0.7462164687 -0.7192012671
C   1.9299261120  0.2791717089 -0.1765379621
O   2.8857984169  0.1679904928 -1.0267361837
C   2.0291944611  0.0637749736  1.1666625060
O   4.7542528485  2.0770521463 -0.2283009511
H  -2.1591312089 -0.6652947256  1.0567282576
H  -0.2509545358 -1.2103078943 -0.2624420366
H  -1.2789104488 -0.2720575202 -1.3029674790
H   0.3256994153  1.7285788115 -0.3124509102
H   0.6660392235  0.8442313583 -1.7962224020
H   1.2494087476  0.3258722881  1.8610075374
H   4.1624812824  1.2941382330 -0.2699757058
H   2.9738859110 -0.2819526224  1.5706782768
H   4.4705361326  2.5441171772 -1.0159304503
17
Image 13  Energy = -421.93417896
C  -1.5087647592  0.1745961861  0.7018785850
O  -1.6264216411  1.2612337003  1.2133680224
C  -0.6034245254 -0.1955624813 -0.4248353360
C   0.5598767766  0.7456511278 -0.7320779204
C   1.9270147798  0.3102957945 -0.1687219392
O   2.9086388108  0.2716585494 -0.9995851092
C   1.9999143097  0.0372224016  1.1633197807
O   4.7737943545  2.0503540419 -0.2297112552
H  -2.1648982558 -0.6521494848  1.0600765132
H  -0.2374791202 -1.2046343899 -0.2307524963
H  -1.2746210587 -0.2947060390 -1.2882248355
H   0.3167698220  1.7387664746 -0.3575799248
H   0.6662165826  0.8110498662 -1.8111178717
H   1.1856691088  0.2053414243  1.8438749191
H   4.1528437180  1.2868937936 -0.3338720950
H   2.9576591719 -0.2626605532  1.5765337386
H   4.5172123617  2.5866481379 -0.9825729280
17
Image 14  Energy = -421.93501518
C  -1.5011423370  0.1827237355  0.7130256572
O  -1.6009771146  1.2680199814  1.2311132745
C  -0.6060146615 -0.1967505421 -0.4161494670
C   0.5531705600  0.7380745437 -0.7484426064
C   1.9183223475  0.3294432456 -0.1621517614
O   2.9198473387  0.3580620700 -0.9702626351
C   1.9678996623  0.0008218602  1.1583591684
O   4.8184441232  2.0507944382 -0.2356980277
H  -2.1669058733 -0.6369018032  1.0710408684
H  -0.2361510476 -1.2030885267 -0.2092091994
H  -1.2829054691 -0.3098131229 -1.2742051844
H   0.3093477083  1.7445357310 -0.4118643617
H   0.6658071851  0.7667060005 -1.8291144649
H   1.1258383578  0.0802540163  1.8194618623
H   4.1661738183  1.3130125989 -0.3724536370
H   2.9299626141 -0.2605533627  1.5837945388
H   4.5692828253  2.6446569049 -0.9472424754
17
Image 15  Energy = -421.93572092
C  -1.4870412923  0.1894998122  0.7283219336
O  -1.5766452937  1.2763162406  1.2444112945
C  -0.6132565515 -0.1966216357 -0.4156575745
C   0.5476275406  0.7267191206 -0.7666692939
C   1.9059087148  0.3409404375 -0.1507790214
O   2.9258661312  0.4343123724 -0.9290530461
C   1.9281005955 -0.0414628473  1.1570157056
O   4.8787181406  2.0706336656 -0.2566011773
H  -2.1450441745 -0.6293000636  1.1007394367
H  -0.2481738198 -1.2054483585 -0.2107426228
H  -1.3028440014 -0.3055137318 -1.2638780531
H   0.3039671718  1.7460163677 -0.4700700447
H   0.6715807476  0.7180806751 -1.8471252299
H   1.0638278349 -0.0301469648  1.7934601450
H   4.2028151618  1.3528401368 -0.3889838516
H   2.8880227456 -0.2810679225  1.5993639159
H   4.6065718088  2.7042011268 -0.9237486849
17
Image 16  Energy = -421.93650094
C  -1.4639399762  0.1945880571  0.7455063583
O  -1.5611468350  1.2853088743  1.2459825153
C  -0.6219952906 -0.1929785058 -0.4230732292
C   0.5440683462  0.7162086773 -0.7836823129
C   1.8905647240  0.3490595713 -0.1341169127
O   2.9245010396  0.5032440887 -0.8807220929
C   1.8839701449 -0.0863222763  1.1572409319
O   4.9336733977  2.1028084861 -0.2787277043
H  -2.0872847496 -0.6340574193  1.1529254746
H  -0.2686277677 -1.2092658656 -0.2351110839
H  -1.3297854923 -0.2806673661 -1.2584459748
H   0.3033393947  1.7476144613 -0.5283338055
H   0.6870169202  0.6714044833 -1.8612877874
H   1.0003826569 -0.1346582850  1.7657766985
H   4.2402591917  1.3998151462 -0.3918467649
H   2.8340832340 -0.3214530779  1.6220188353
H   4.6409239326  2.7593495350 -0.9140972929
17
Image 17  Energy = -421.92419183
C  -1.4440506074  0.1905848197  0.7616775683
O  -1.5596468129  1.2856341631  1.2410541135
C  -0.6311647900 -0.1884644941 -0.4403109937
C   0.5459495827  0.7111896123 -0.7932276607
C   1.8824460933  0.3535058500 -0.1145951255
O   2.9269163927  0.5632579559 -0.8175539520
C   1.8411398696 -0.1424595956  1.1624785063
O   4.9803819541  2.1495198780 -0.2992071326
H  -2.0182643874 -0.6544481146  1.2119384712
H  -0.2931082320 -1.2156119536 -0.2878664119
H  -1.3534565932 -0.2365427792 -1.2669123986
H   0.3029237104  1.7479049495 -0.5577323212
H   0.7090939490  0.6523718994 -1.8681788171
H   0.9344347289 -0.2279436419  1.7357030431
H   4.2696673538  1.4592637881 -0.3829896676
H   2.7771461099 -0.3790161435  1.6513621621
H   4.6795902185  2.8012550784 -0.9356412856
17
Image 18  Energy = -421.92452290
C  -1.4225339719  0.1734648277  0.7663113546
O  -1.5612572932  1.2635209967  1.2498895775
C  -0.6412095155 -0.1712153037 -0.4679698144
C   0.5562633559  0.7123421130 -0.7880833674
C   1.8758182804  0.3405131160 -0.0874704517
O   2.9327772478  0.5839523232 -0.7597420098
C   1.8107192507 -0.1912687248  1.1746393424
O   4.9807206419  2.2071329129 -0.3011619712
H  -1.9496448491 -0.6913608486  1.2365793291
H  -0.3339148858 -1.2151359231 -0.3764939121
H  -1.3746492534 -0.1454855743 -1.2856162420
H   0.3242186943  1.7513614949 -0.5499987290
H   0.7418653779  0.6605087158 -1.8599158250
H   0.8906729539 -0.3574017007  1.7046854103
H   4.2703080469  1.5164096387 -0.3624964961
H   2.7386148144 -0.3843726620  1.6972835342
H   4.7112304860  2.8170350000 -0.9904408633
17
Image 19  Energy = -421.92457601
C  -1.4032510092  0.1556589879  0.7685223079
O  -1.5650069505  1.2385938282  1.2598683443
C  -0.6504135413 -0.1535545641 -0.4934705018
C   0.5673127330  0.7129626851 -0.7816331172
C   1.8718093370  0.3261599574 -0.0632669735
O   2.9390959474  0.5967642050 -0.7079828239
C   1.7862123485 -0.2329822425  1.1860287652
O   4.9727014352  2.2620098037 -0.3008434176
H  -1.8882535922 -0.7274310403  1.2501799382
H  -0.3754932219 -1.2101105119 -0.4612357771
H  -1.3908643278 -0.0553340775 -1.2991100702
H   0.3456955774  1.7531361561 -0.5363134480
H   0.7722577797  0.6711635529 -1.8505628442
H   0.8605638834 -0.4778076827  1.6727627791
H   4.2660144404  1.5681383921 -0.3433105241
H   2.7032475639 -0.3806418613  1.7423368603
H   4.7383725561  2.8232735257 -1.0419684472
17
Image 20  Energy = -421.92539562
C  -1.4127799446  0.1820711637  0.7710042508
O  -1.6530246292  1.2816815594  1.1892987826
C  -0.6542219170 -0.1543725890 -0.4804477080
C   0.5598389055  0.7128217682 -0.7793217003
C   1.8625250786  0.3347069008 -0.0577830350
O   2.9272091663  0.6619677078 -0.6784854080
C   1.7792257862 -0.2853894708  1.1620965450
O   5.0101757579  2.2731553398 -0.3048892120
H  -1.8292628832 -0.6966066889  1.3184929548
H  -0.3669501924 -1.2053112129 -0.4206010422
H  -1.3893284801 -0.0778445980 -1.2920004888
H   0.3373544766  1.7567324244 -0.5510006589
H   0.7684095569  0.6568073623 -1.8470310839
H   0.8533885077 -0.5601482524  1.6317441514
H   4.2827211720  1.6026546180 -0.3408099875
H   2.6949145947 -0.4680748811  1.7105506709
H   4.7798057127  2.8551481420 -1.0308164204
17
Image 21  Energy = -421.93928932
C  -1.4209056592  0.2077292742  0.7717283607
O  -1.7499978612  1.3160640594  1.1163097723
C  -0.6599390044 -0.1520152703 -0.4662358334
C   0.5523143862  0.7154545092 -0.7745959182
C   1.8459255783  0.3453946863 -0.0419431171
O   2.9145299747  0.7451438723 -0.6287739107
C   1.7683614599 -0.3479473811  1.1340187207
O   5.0501754264  2.2822894580 -0.3166129848
H  -1.7578048772 -0.6550510971  1.3916673403
H  -0.3542588839 -1.1949096531 -0.3776528370
H  -1.3876296768 -0.1010199308 -1.2858928570
H   0.3302554746  1.7640999308 -0.5700147069
H   0.7705847089  0.6397689858 -1.8408899178
H   0.8399414553 -0.6554589348  1.5785612735
H   4.2979924660  1.6456017432 -0.3380062620
H   2.6826198144 -0.5761751875  1.6698663548
H   4.8278356888  2.8910303914 -1.0215332812
