17
Image 0  Energy = -421.92084079
C  -1.9799728508  0.5151325762  0.0126894460
O  -2.0637347092  1.7207386757 -0.0070862471
C  -0.7239850416 -0.2867523233 -0.0128295945
C   0.5569896777  0.5086307554 -0.0481292415
C   1.7966994894 -0.3580587145 -0.0583149857
O   1.6976203219 -1.5765170230 -0.2297282889
C   3.0810680528  0.3473925478  0.1153661435
O   4.3705445941  2.7079879208  0.2237466966
H  -2.9106428219 -0.0870090055  0.0577059258
H  -0.7529996456 -0.9359359644  0.8677173272
H  -0.7911943646 -0.9635032384 -0.8662880061
H   0.6079035681  1.1980084052  0.7931625694
H   0.5985289940  1.1222945990 -0.9513761111
H   3.1304360706  0.8687969001  1.0702438510
H   3.2585905634  1.1831439779 -0.5577415475
H   3.9225848844 -0.3342402348  0.0538141448
H   4.7515635847  3.2398887218 -0.4629524321
17
Image 1  Energy = -421.92194765
C  -1.9796453439  0.5170559987  0.0133345794
O  -2.0686420008  1.7200117045 -0.0024911566
C  -0.7165404606 -0.2773700382 -0.0179246272
C   0.5655860120  0.5227792970 -0.0539539574
C   1.8047020231 -0.3526247240 -0.0751118284
O   1.6963929753 -1.5606882408 -0.2957943316
C   3.0869920968  0.3263283283  0.1615269850
O   4.3043940909  2.7385413350  0.1665574817
H  -2.9056823421 -0.0912575186  0.0606653751
H  -0.7400858781 -0.9291769756  0.8602368144
H  -0.7799255550 -0.9554060427 -0.8711553500
H   0.6161998012  1.2081734170  0.7897256120
H   0.6061013168  1.1385718653 -0.9526563353
H   3.1104073829  0.7975131152  1.1409879937
H   3.3058819705  1.2179551450 -0.4511180230
H   3.9242901634 -0.3539264932  0.0787300042
H   4.7195738509  3.2035191957 -0.5515594193
17
Image 2  Energy = -421.91223607
C  -1.9796065008  0.5173579543  0.0145637231
O  -2.0712539995  1.7157682756  0.0004627821
C  -0.7113890548 -0.2766536290 -0.0199419801
C   0.5672130733  0.5327325385 -0.0586534714
C   1.8127971303 -0.3403738199 -0.0958194111
O   1.7018786282 -1.5374280465 -0.3566186479
C   3.0898543380  0.3212984552  0.1941531419
O   4.2792203593  2.7356219314  0.1120712809
H  -2.9039351458 -0.0968350873  0.0632442665
H  -0.7325396450 -0.9275654099  0.8591740550
H  -0.7752870098 -0.9559179992 -0.8717170283
H   0.6161208091  1.2139484840  0.7883346467
H   0.5964449747  1.1537940362 -0.9540142516
H   3.0824195755  0.7482494232  1.1935104622
H   3.3623572266  1.2566841379 -0.3502941699
H   3.9230233872 -0.3627984188  0.1078810426
H   4.6926821767  3.1721164663 -0.6263367376
17
Image 3  Energy = -421.91332019
C  -1.9760481581  0.5090722776  0.0154802079
O  -2.0724356745  1.7143249696  0.0029569131
C  -0.7080750181 -0.2763470643 -0.0215854459
C   0.5675037666  0.5393879543 -0.0639463173
C   1.8163012740 -0.3244720273 -0.1133636937
O   1.6966808941 -1.5189722022 -0.4090741498
C   3.0935012859  0.3143302320  0.2217401115
O   4.2708719353  2.7510389330  0.0647307907
H  -2.9008801247 -0.1005366984  0.0662236744
H  -0.7262022587 -0.9267690047  0.8590662065
H  -0.7719881510 -0.9592044658 -0.8714044506
H   0.6148737970  1.2193722242  0.7850658266
H   0.5837708120  1.1683258928 -0.9563429372
H   3.0553355344  0.6982822478  1.2381340642
H   3.4099426004  1.2867196180 -0.2571790232
H   3.9219578609 -0.3769733240  0.1370452846
H   4.6748896774  3.1524197994 -0.6975475229
