17
Image 0  Energy = -421.93360891
C  -1.9828576939  0.5028397578  0.0213025307
O  -2.1015294220  1.7065564730  0.0145576046
C  -0.7142386666 -0.2712463220 -0.0085163114
C   0.5737668325  0.5275631551 -0.0375650143
C   1.8014350964 -0.3942176302 -0.1187987414
O   1.6208758965 -1.5510428065 -0.5817052295
C   3.0141603123  0.1615977911  0.2946649733
O   4.1792731885  2.7228903091  0.0233568671
H  -2.9046626443 -0.1181563672  0.0587879473
H  -0.7206277404 -0.9417755357  0.8586211166
H  -0.7416399819 -0.9527739081 -0.8623801557
H   0.6293907361  1.1933276628  0.8204248119
H   0.5791445460  1.1545208578 -0.9283743973
H   2.9767936090  0.8401344250  1.1378362988
H   3.7928580361  1.8154712505 -0.0923071925
H   3.9026298224 -0.4605576849  0.1878032637
H   4.6452287088  2.9348665922 -0.7877097094
17
Image 1  Energy = -421.91753267
C  -1.9710757965  0.5027246405  0.0231104900
O  -2.0937570926  1.7060916887  0.0335876483
C  -0.6998264889 -0.2683770419 -0.0095795382
C   0.5845678514  0.5344620904 -0.0333504996
C   1.8107666679 -0.3893271062 -0.1417902110
O   1.6242335053 -1.5127151849 -0.6629817123
C   3.0221379817  0.1466799936  0.3207936514
O   4.0654148166  2.7829237774 -0.0603760401
H  -2.8918443950 -0.1204358234  0.0471238825
H  -0.7141665153 -0.9414301210  0.8572496360
H  -0.7205870393 -0.9477507697 -0.8646306479
H   0.6503094106  1.1815755687  0.8384061988
H   0.5863441557  1.1811882345 -0.9099518692
H   2.9679232716  0.8169923142  1.1702363790
H   3.7265838608  1.8561797038 -0.0871435980
H   3.8949086534 -0.5028771473  0.2502153203
H   4.7080679787  2.8440932716 -0.7709195764
17
Image 2  Energy = -421.91837903
C  -1.9696432676  0.5028739640  0.0269289193
O  -2.0898216213  1.7062686048  0.0502571964
C  -0.6988934904 -0.2720775473 -0.0083086967
C   0.5837739995  0.5331654540 -0.0362503958
C   1.8176382739 -0.3784593192 -0.1660515201
O   1.6500974949 -1.4632845380 -0.7666034060
C   3.0089320958  0.1353794594  0.3676824975
O   4.1295513969  2.7790883203 -0.0617666841
H  -2.8920378173 -0.1177019418  0.0414666369
H  -0.7173017383 -0.9388631654  0.8634589701
H  -0.7216572754 -0.9530549443 -0.8613377205
H   0.6541440354  1.1706226889  0.8416427045
H   0.5759891002  1.1868274369 -0.9072438423
H   2.9295136355  0.8052777311  1.2159742626
H   3.7637892215  1.8649037247 -0.0300166454
H   3.8893893400 -0.5046517237  0.3065336440
H   4.6365375029  2.8136842917 -0.8763647877
17
Image 3  Energy = -421.92434378
C  -1.9730556278  0.5020079681  0.0278872248
O  -2.0949123986  1.7055361517  0.0536278309
C  -0.7057390238 -0.2716163519 -0.0097003480
C   0.5762448331  0.5325346099 -0.0442177269
C   1.8135271951 -0.3768792967 -0.1668850825
O   1.6500378402 -1.4560272373 -0.7788086342
C   2.9969342843  0.1322365998  0.3873341758
O   4.2741517814  2.7218374070 -0.0214666585
H  -2.8967685034 -0.1178630435  0.0428191335
H  -0.7179438377 -0.9346143404  0.8649806217
H  -0.7278645872 -0.9584174590 -0.8583266768
H   0.6476607952  1.1739143654  0.8308684087
H   0.5671552655  1.1849958586 -0.9167156630
H   2.9108794412  0.8237433226  1.2157187399
H   3.8629257620  1.8321349913  0.0013946808
H   3.8848615828 -0.4932584267  0.3175141044
H   4.4819081662  2.8697358287 -0.9460214720
17
Image 4  Energy = -421.94147317
C  -1.9756448280  0.4997006790  0.0230582759
O  -2.1031356487  1.7024444002  0.0322029083
C  -0.7061300712 -0.2640251817 -0.0132397534
C   0.5748974737  0.5403986561 -0.0429569619
C   1.7957372296 -0.3924046497 -0.1286417064
O   1.6143880476 -1.4946447518 -0.7082971835
C   2.9855428817  0.0976304341  0.4083889382
O   4.2882216438  2.7077832641 -0.0034991500
H  -2.8943105085 -0.1270878671  0.0530488403
H  -0.7014028617 -0.9322961726  0.8559046311
H  -0.7147761414 -0.9525703973 -0.8619029816
H   0.6361231334  1.1960003784  0.8216811515
H   0.5769180616  1.1803817814 -0.9254006978
H   2.9456429806  0.8434489416  1.1900198943
H   3.8726628188  1.8224722488 -0.0282616917
H   3.8944958254 -0.4773190559  0.2487122894
H   4.4607729342  2.9200878307 -0.9208149309
17
Image 5  Energy = -421.93853970
C  -1.9738935794  0.4962489924  0.0162250114
O  -2.0984833347  1.6986563754  0.0184897728
C  -0.7059345040 -0.2627119232 -0.0224387638
C   0.5727884820  0.5451026111 -0.0461145158
C   1.7804743619 -0.4106645675 -0.1017221947
O   1.5731584738 -1.5355356936 -0.6532622975
C   2.9764244264  0.0659951330  0.4348072944
O   4.2893318729  2.7133284664  0.0311332219
H  -2.8899739444 -0.1332440526  0.0622332977
H  -0.6837191458 -0.9274057543  0.8471929195
H  -0.7024454341 -0.9586032598 -0.8666304089
H   0.6190072748  1.2210174619  0.8050375587
H   0.5695913158  1.1948494163 -0.9227280909
H   3.0000105245  0.8683685395  1.1712075024
H   3.8687669294  1.8182420495 -0.0712965351
H   3.8983610699 -0.4548184107  0.1850247515
H   4.4565382068  2.9311751244 -0.8871573186
