17
Image 0  Energy = -421.95295083
C  -2.0163905013  0.4778404737  0.0327489330
O  -2.1019691403  1.6978797059  0.0075307874
C  -0.7773848567 -0.3246944452  0.0058801511
C   0.5107980195  0.4686588838 -0.0674928580
C   1.7731802295 -0.4039418059 -0.1144057809
O   1.6322301905 -1.6048067092 -0.4713295266
C   2.9556561287  0.2577646994  0.2194312672
O   4.6489620789  2.5212556810  0.0943381320
H  -2.9550769902 -0.1029084027  0.0855532520
H  -0.7889049773 -0.9611155795  0.8967539218
H  -0.8427768393 -1.0283484173 -0.8267797876
H   0.5663046862  1.1561790984  0.7724567186
H   0.4940304335  1.0723099313 -0.9745389120
H   2.8666701379  1.0408931800  0.9594883751
H   4.0420215926  1.7690626756 -0.0930164968
H   3.8905405363 -0.2845845348  0.1258328930
H   4.6521091644  3.1185530868 -0.6524503963
17
Image 1  Energy = -421.95004980
C  -2.0127862340  0.4900776653  0.0299218866
O  -2.0857001784  1.6998534044 -0.0029559252
C  -0.7836268095 -0.3321159100  0.0055548483
C   0.5091726032  0.4546715022 -0.0644324497
C   1.7723356204 -0.4138879324 -0.0978926213
O   1.6374147340 -1.6390117408 -0.3683448591
C   2.9580783588  0.2760911864  0.1606921387
O   4.6203975633  2.5212705198  0.1328418708
H  -2.9587825510 -0.0852107092  0.0874462152
H  -0.8014056866 -0.9711308597  0.8933649380
H  -0.8592639863 -1.0312800716 -0.8300653170
H   0.5606173376  1.1428046778  0.7764753045
H   0.4935930549  1.0591629265 -0.9714045513
H   2.8810236299  1.0469793070  0.9134390457
H   4.0226004772  1.7794802634 -0.1248292174
H   3.8927685539 -0.2640370459  0.0543689765
H   4.7035638060  3.1362804854 -0.5941798805
17
Image 2  Energy = -421.94637841
C  -2.0092722914  0.4940748713  0.0279504535
O  -2.0696137537  1.7027934708 -0.0068478954
C  -0.7842806452 -0.3380590048  0.0030998961
C   0.5080342463  0.4525687268 -0.0677976115
C   1.7835770567 -0.3973969767 -0.1003698633
O   1.6744247806 -1.6364580100 -0.2827721790
C   2.9723752137  0.3224177907  0.0929457489
O   4.5779779500  2.4972193844  0.1498416775
H  -2.9611201772 -0.0725947785  0.0877751218
H  -0.8072991208 -0.9760656224  0.8911685075
H  -0.8702763794 -1.0359363143 -0.8330380939
H   0.5532199396  1.1350873740  0.7782944716
H   0.4825825012  1.0633084857 -0.9702254333
H   2.8977386480  1.0235599507  0.9117470533
H   3.9804482622  1.7500869869 -0.1628135752
H   3.8913830147 -0.2514542497  0.0260519333
H   4.7301008654  3.1368456442 -0.5450096472
17
Image 3  Energy = -421.93033747
C  -2.0122045536  0.4925831192  0.0269077527
O  -2.0545782316  1.7070511230 -0.0090896145
C  -0.7856330398 -0.3415983578  0.0013561206
C   0.5089504220  0.4462526925 -0.0694898124
C   1.7947564461 -0.3771400241 -0.1163686580
O   1.7007358275 -1.6230299612 -0.2100743455
C   2.9934374877  0.3695262036  0.0381854516
O   4.5548235129  2.4951938311  0.1635503459
H  -2.9631746999 -0.0620211111  0.0879324616
H  -0.8133727388 -0.9789851490  0.8895169390
H  -0.8797575085 -1.0411075286 -0.8345073736
H   0.5484205702  1.1267253464  0.7783551437
H   0.4767566372  1.0643712908 -0.9690606588
H   2.9099901069  1.0096780909  0.9175496409
H   3.9115294785  1.6671538365 -0.1938333346
H   3.8978086950 -0.2439790562  0.0052273214
H   4.7615116951  3.1593233258 -0.5061568261
