17
Image 0  Energy = -421.91223607
C  -1.9796065008  0.5173579543  0.0145637231
O  -2.0712539995  1.7157682756  0.0004627821
C  -0.7113890548 -0.2766536290 -0.0199419801
C   0.5672130733  0.5327325385 -0.0586534714
C   1.8127971303 -0.3403738199 -0.0958194111
O   1.7018786282 -1.5374280465 -0.3566186479
C   3.0898543380  0.3212984552  0.1941531419
O   4.2792203593  2.7356219314  0.1120712809
H  -2.9039351458 -0.0968350873  0.0632442665
H  -0.7325396450 -0.9275654099  0.8591740550
H  -0.7752870098 -0.9559179992 -0.8717170283
H   0.6161208091  1.2139484840  0.7883346467
H   0.5964449747  1.1537940362 -0.9540142516
H   3.0824195755  0.7482494232  1.1935104622
H   3.3623572266  1.2566841379 -0.3502941699
H   3.9230233872 -0.3627984188  0.1078810426
H   4.6926821767  3.1721164663 -0.6263367376
17
Image 1  Energy = -421.89069070
C  -1.9717218630  0.5137734698  0.0137016653
O  -2.0702382421  1.7149788054  0.0079584885
C  -0.7008642086 -0.2718280331 -0.0274613093
C   0.5715132743  0.5535658348 -0.0638577272
C   1.8213180740 -0.3290302583 -0.1099457033
O   1.6719355223 -1.5101976291 -0.4083372945
C   3.1084908547  0.2938734510  0.2363195966
O   4.1799954503  2.7584969717  0.0086698361
H  -2.8962144494 -0.1016239121  0.0605765215
H  -0.7168471313 -0.9283443888  0.8490633021
H  -0.7531023121 -0.9528559522 -0.8796936310
H   0.6207950985  1.2288040677  0.7881582147
H   0.5841258229  1.1855642304 -0.9531271023
H   3.0491907249  0.6257385467  1.2701055568
H   3.4693304910  1.3709213559 -0.1994546923
H   3.9191444240 -0.4166440034  0.1387113067
H   4.6631488520  3.1348066836 -0.7313874590
17
Image 2  Energy = -421.94939639
C  -2.0140642703  0.4937289995  0.0317053569
O  -2.0804733835  1.7041137794 -0.0078901040
C  -0.7902871047 -0.3365252611  0.0072990712
C   0.5062348441  0.4415524733 -0.0685518429
C   1.7657926725 -0.4332778937 -0.0932553712
O   1.6315346108 -1.6660308584 -0.3221749239
C   2.9521216993  0.2723303282  0.1324853036
O   4.6123135879  2.5508243821  0.1763030579
H  -2.9624800123 -0.0754578677  0.0952105744
H  -0.8097013364 -0.9737184519  0.8960476041
H  -0.8733287259 -1.0357882112 -0.8276545008
H   0.5619047544  1.1338924900  0.7690675061
H   0.4932650477  1.0434625056 -0.9772519610
H   2.8752377376  1.0616934324  0.8637837270
H   4.0436666629  1.8045153944 -0.1356968257
H   3.8906041845 -0.2578333622  0.0226110644
H   4.7476588507  3.1425182180 -0.5620379949
17
Image 3  Energy = -421.93107857
C  -1.7752907147  0.2649011654  0.5385840708
O  -1.9240402621  1.3995431797  0.9275798490
C  -0.7200457074 -0.2344037795 -0.3767735783
C   0.5307059146  0.6306149429 -0.5313883633
C   1.8026897113 -0.1757433979 -0.2034315135
O   2.0102901753 -1.1639248252 -0.9721361999
C   2.5393264590  0.2588553864  0.8745729494
O   4.8275184666  2.4045778601 -0.0775652759
H  -2.5235463262 -0.4946141282  0.8476079444
H  -0.4225858962 -1.2377449092 -0.0657196831
H  -1.2471860375 -0.3837775693 -1.3256152754
H   0.4496918434  1.5313908005  0.0724052492
H   0.6151092937  0.9334176731 -1.5727592599
H   2.1228441986  0.9823066970  1.5654529621
H   4.1784177177  1.7097028224  0.1252634091
H   3.4746381008 -0.2172452363  1.1499799118
H   4.6114633798  2.6621425064 -0.9760570537
17
Image 4  Energy = -421.91156335
C  -0.6965935866 -0.1632973564  0.9984844392
O  -1.2654487890  0.7913924852  1.6931987719
C  -0.6669076634  0.0912169903 -0.5652472326
C   0.6302086739  0.8271520849 -0.8439204283
C   1.6006984081  0.4511259561  0.2496019289
O   2.7822469639  0.7352789553  0.2378883064
C   0.8850723715 -0.3335916074  1.3058680669
O   5.0430519591  2.2790455703 -0.6871444440
H  -1.1763909925 -1.1761498862  1.0983484946
H  -0.7093943207 -0.8530479717 -1.1160919703
H  -1.5320373093  0.6826057645 -0.8674638080
H   0.4997146552  1.9078808633 -0.7883131795
H   1.0810216184  0.5902842196 -1.8086824536
H   1.2236434296 -1.3739077969  1.2350762951
H   4.6701725816  1.4667025889 -1.0343820186
H   1.2089322907  0.0284371416  2.2873229956
H   4.9720096163  2.9188720701 -1.3945436995
