17
Image 0  Energy = -421.93331080
C  -1.7069074777  0.1831683876  0.5615794997
O  -1.9401712864  1.2947830545  0.9777284346
C  -0.6832367180 -0.1878972460 -0.4482466833
C   0.5496026392  0.7097936924 -0.5539349232
C   1.8118527812 -0.0978385073 -0.2036753093
O   2.0421056038 -1.0727044332 -0.9820384955
C   2.5229690835  0.3030228576  0.9048181053
O   4.7413363488  2.3653041107 -0.1306656796
H  -2.3404047072 -0.6539377061  0.9113058304
H  -0.3489462275 -1.2087985772 -0.2607742882
H  -1.2494458302 -0.2403980439 -1.3846257290
H   0.4412312977  1.5937327700  0.0698077133
H   0.6540819350  1.0374514421 -1.5867692040
H   2.1199392328  1.0539228265  1.5730525023
H   4.1822570605  1.7115846520  0.3250775560
H   3.3839556415 -0.2661378738  1.2429930800
H   4.3697807922  2.3449485993 -1.0156318459
17
Image 1  Energy = -421.93366471
C  -1.6495860379  0.1508811215  0.5897609971
O  -1.9037818083  1.2483678646  1.0307061106
C  -0.6744985742 -0.1665830543 -0.4850894216
C   0.5586108828  0.7301045575 -0.5835515849
C   1.8075319552 -0.0783148937 -0.1965771917
O   2.0597906229 -1.0530936130 -0.9696956157
C   2.4842253137  0.3122266167  0.9367885729
O   4.7035663153  2.3552758790 -0.1516279233
H  -2.2289409087 -0.7138997080  0.9631865191
H  -0.3350367260 -1.1963364135 -0.3709735781
H  -1.2794637074 -0.1559123534 -1.3982664582
H   0.4389051679  1.6253322958  0.0221453640
H   0.6810733576  1.0372346315 -1.6209030053
H   2.0763320370  1.0745173733  1.5885220539
H   4.1714326426  1.7263212681  0.3656852098
H   3.3250961110 -0.2706029838  1.3027123304
H   4.3147432012  2.2444812604 -1.0228220710
17
Image 2  Energy = -421.91869169
C  -1.5886438115  0.1352428233  0.6311336897
O  -1.8147189261  1.2226483862  1.0969224617
C  -0.6727841121 -0.1627984117 -0.5127808337
C   0.5626635543  0.7333370875 -0.6305220953
C   1.8175376689 -0.0565918989 -0.2127996473
O   2.1245127223 -1.0080508280 -0.9809008423
C   2.4477873124  0.3385052797  0.9549583961
O   4.6845576919  2.3310122046 -0.1419788086
H  -2.1471791049 -0.7389486156  1.0242967386
H  -0.3433986606 -1.2005085829 -0.4484099866
H  -1.3169318670 -0.1053295476 -1.3978765600
H   0.4295417453  1.6437193274 -0.0488081866
H   0.6883346750  1.0115851930 -1.6760114243
H   1.9939166324  1.0704795618  1.6105327873
H   4.1406167078  1.7171152037  0.3829327468
H   3.2524047559 -0.2745432212  1.3599801737
H   4.2917828010  2.2131261937 -1.0106682596
17
Image 3  Energy = -421.91877508
C  -1.5234213238  0.1164857325  0.6660077987
O  -1.6871147021  1.1885506137  1.1884831559
C  -0.6701833921 -0.1613128020 -0.5315512048
C   0.5606186502  0.7351574000 -0.6781982915
C   1.8179659360 -0.0324036736 -0.2309889370
O   2.1888001627 -0.9493645975 -1.0127577646
C   2.3790672786  0.3421765569  0.9794292521
O   4.6828762235  2.3134159150 -0.1218083747
H  -2.0945998201 -0.7556266527  1.0455322698
H  -0.3461963043 -1.2026284581 -0.5020792141
H  -1.3521512235 -0.0780263188 -1.3856296129
H   0.4185158348  1.6617249220 -0.1243987272
H   0.6866041289  0.9793740760 -1.7319721620
H   1.8845714517  1.0529083102  1.6291111763
H   4.1343641617  1.7004415002  0.3973043986
H   3.1872277911 -0.2546376432  1.4030704636
H   4.2830550617  2.2137653087 -0.9895541341
17
Image 4  Energy = -421.91794241
C  -1.4970095646  0.0962633491  0.6826464247
O  -1.6330149960  1.1570275764  1.2355868340
C  -0.6715913872 -0.1645507428 -0.5397427083
C   0.5516195992  0.7392071662 -0.7014541997
C   1.8214546996 -0.0010039037 -0.2383335989
O   2.2698780897 -0.8557424116 -1.0526596771
C   2.3132993375  0.3207076764  1.0155133959
O   4.7233992388  2.3113741658 -0.1091855831
H  -2.0730070717 -0.7770457076  1.0526153944
H  -0.3488929324 -1.2070823067 -0.5271421194
H  -1.3706030694 -0.0723802527 -1.3794140790
H   0.3939727325  1.6741305777 -0.1655743193
H   0.6791783077  0.9616045896 -1.7596810505
H   1.7846380509  1.0007146144  1.6718395502
H   4.1631982646  1.6657050948  0.3534304020
H   3.1178356876 -0.2742174346  1.4444400519
H   4.3256448283  2.2952882455 -0.9828849838
17
Image 5  Energy = -421.91639886
C  -1.5033202665  0.0916959653  0.6817093917
O  -1.6474252669  1.1533001450  1.2313717767
C  -0.6736034528 -0.1677010467 -0.5384945187
C   0.5463094867  0.7410531499 -0.6988404944
C   1.8194800866  0.0105994327 -0.2274540004
O   2.3207495975 -0.7926749025 -1.0653350756
C   2.2608007451  0.2773853598  1.0564613410
O   4.7743213884  2.3210147201 -0.1281638634
H  -2.0739538023 -0.7844147129  1.0532704048
H  -0.3481727246 -1.2096829787 -0.5207611238
H  -1.3701314335 -0.0825987264 -1.3810525385
H   0.3794632985  1.6775195142 -0.1675585700
H   0.6778866721  0.9593552015 -1.7573359827
H   1.7306583094  0.9517842454  1.7172778596
H   4.1968771888  1.6484348289  0.2715611522
H   3.0673710226 -0.3193221754  1.4792211839
H   4.3926891601  2.3942522896 -1.0058775867
17
Image 6  Energy = -421.91505836
C  -1.5041381963  0.0966483210  0.6774319894
O  -1.6540548975  1.1608624841  1.2231669078
C  -0.6674577897 -0.1673301999 -0.5339777847
C   0.5451463078  0.7478004951 -0.6947692842
C   1.8144898583  0.0214490419 -0.2125283080
O   2.3591519346 -0.7354521682 -1.0683476383
C   2.2012951394  0.2338602031  1.0971412024
O   4.8242705234  2.3153600293 -0.1766308151
H  -2.0729426369 -0.7793131192  1.0469644808
H  -0.3336740537 -1.2065566520 -0.4970470665
H  -1.3615507176 -0.1030795354 -1.3798396620
H   0.3727391862  1.6872360331 -0.1697242811
H   0.6819293675  0.9591828436 -1.7530205585
H   1.6532263365  0.8899630102  1.7624622145
H   4.2553591376  1.6197968384  0.1948642903
H   3.0265914304 -0.3404075987  1.5127008856
H   4.4096190956  2.4699794499 -1.0288480245
17
Image 7  Energy = -421.92949990
C  -1.4963684427  0.0993748470  0.6781236551
O  -1.6615192981  1.1674815997  1.2192069038
C  -0.6569470131 -0.1679337142 -0.5231090320
C   0.5485951240  0.7555934307 -0.6967169721
C   1.8312016942  0.0618137145 -0.2095843782
O   2.4435858143 -0.6301446983 -1.0862527571
C   2.1678463134  0.2232659697  1.1166481025
O   4.8173022527  2.2767282250 -0.1969560176
H  -2.0601507868 -0.7749035300  1.0587458383
H  -0.3170650511 -1.2046856274 -0.4767238653
H  -1.3477586314 -0.1199242172 -1.3733704011
H   0.3665208923  1.6988307556 -0.1834919550
H   0.6806205165  0.9574587442 -1.7577299532
H   1.5766628994  0.8290386260  1.7924717615
H   4.2595923175  1.5553945818  0.1399743848
H   3.0072110463 -0.3304894815  1.5330559986
H   4.3906703445  2.4731008676 -1.0342918740
17
Image 8  Energy = -421.92829281
C  -1.4921217520  0.1057784887  0.6777489177
O  -1.6707346523  1.1739641684  1.2123002025
C  -0.6460143379 -0.1683547826 -0.5164473652
C   0.5522194870  0.7629674120 -0.6972886507
C   1.8473308879  0.0955750399 -0.2029255723
O   2.5195156154 -0.5255939830 -1.0893292585
C   2.1369690513  0.2059006528  1.1381587837
O   4.8126919352  2.2480966704 -0.2223913548
H  -2.0550083814 -0.7701093822  1.0659543863
H  -0.3013756163 -1.2034998383 -0.4587874781
H  -1.3352525267 -0.1350417288 -1.3693136634
H   0.3598830696  1.7084292209 -0.1919670820
H   0.6813468875  0.9572596181 -1.7594736690
H   1.5133506263  0.7704241390  1.8203161486
H   4.2703698532  1.5035262513  0.0848768723
H   2.9869575847 -0.3317085499  1.5523825763
H   4.3698724673  2.4723868023 -1.0438142711
17
Image 9  Energy = -421.92807779
C  -1.4902921644  0.1114355530  0.6789237697
O  -1.6753018726  1.1824737643  1.2055565857
C  -0.6356551994 -0.1692736814 -0.5081576192
C   0.5565543974  0.7682806184 -0.6980927273
C   1.8656554880  0.1311294137 -0.1971984007
O   2.5990827718 -0.4093596700 -1.0899001695
C   2.1095834512  0.1866857138  1.1548876487
O   4.7961711174  2.2199088913 -0.2435418280
H  -2.0521405998 -0.7643096820  1.0687882233
H  -0.2885275923 -1.2026441198 -0.4388412230
H  -1.3228584725 -0.1488874590 -1.3635948467
H   0.3542506656  1.7160940843 -0.2013735619
H   0.6824228210  0.9548625758 -1.7618452470
H   1.4610492213  0.7168379981  1.8407904723
H   4.2746620509  1.4524266876  0.0415850982
H   2.9710877287 -0.3322732830  1.5683600637
H   4.3442562875  2.4566127216 -1.0563467558
17
Image 10  Energy = -421.92856147
C  -1.4898380489  0.1184629118  0.6809490249
O  -1.6755062970  1.1918764081  1.2019580943
C  -0.6260155445 -0.1712311672 -0.4978135330
C   0.5610181114  0.7710329314 -0.7009100973
C   1.8855663299  0.1688292155 -0.1943499957
O   2.6790569246 -0.2794541012 -1.0888525070
C   2.0858690518  0.1654003455  1.1645665756
O   4.7761023902  2.1924847467 -0.2604782088
H  -2.0561103086 -0.7553964842  1.0694148624
H  -0.2789418936 -1.2031419468 -0.4133931933
H  -1.3106089260 -0.1646421303 -1.3561010779
H   0.3489697368  1.7221671312 -0.2146110944
H   0.6817424365  0.9486080817 -1.7666594321
H   1.4125375677  0.6576946771  1.8539830410
H   4.2775694709  1.4058731860  0.0136721878
H   2.9610205012 -0.3289500798  1.5783178064
H   4.3175686501  2.4303862532 -1.0696931380
17
Image 11  Energy = -421.92918949
C  -1.4917076255  0.1270392723  0.6844342158
O  -1.6723855512  1.2037736366  1.1999721839
C  -0.6173590120 -0.1758912029 -0.4841305022
C   0.5621023807  0.7719494585 -0.7070038660
C   1.9004047889  0.2075469679 -0.1901838659
O   2.7491359053 -0.1456277651 -1.0786022685
C   2.0611409577  0.1430856616  1.1705909387
O   4.7721829801  2.1583848538 -0.2640985603
H  -2.0683282016 -0.7420394926  1.0696235602
H  -0.2646891621 -1.2040560414 -0.3792489753
H  -1.2989872240 -0.1904773426 -1.3451127340
H   0.3393062754  1.7287075116 -0.2367334058
H   0.6770004107  0.9346927439 -1.7755813180
H   1.3550532434  0.5786714009  1.8641179112
H   4.2768882613  1.3477925903 -0.0533324375
H   2.9535234329 -0.3170188901  1.5847378916
H   4.3167184717  2.4434670036 -1.0594490273
17
Image 12  Energy = -421.93025462
C  -1.4915646441  0.1322162148  0.6891248012
O  -1.6623358061  1.2109729462  1.2035727595
C  -0.6100457873 -0.1814448469 -0.4720519931
C   0.5615679658  0.7703464713 -0.7138587808
C   1.9120651675  0.2472306298 -0.1836902628
O   2.8106472176 -0.0086521121 -1.0598667297
C   2.0423301610  0.1279634204  1.1742139199
O   4.7689992799  2.1099134663 -0.2627777273
H  -2.0813585103 -0.7309736370  1.0686423025
H  -0.2519139150 -1.2065019561 -0.3539256777
H  -1.2913157067 -0.2115849084 -1.3332411866
H   0.3270644381  1.7334469549 -0.2626553044
H   0.6746506769  0.9154637977 -1.7851747757
H   1.3060861955  0.5074291237  1.8675314964
H   4.2556937590  1.2931398266 -0.1233204745
H   2.9522993024 -0.2945859716  1.5879017264
H   4.3271305527  2.4556208326 -1.0404242682
17
Image 13  Energy = -421.93199529
C  -1.4867629034  0.1354966804  0.6947441402
O  -1.6467510919  1.2148519298  1.2105501944
C  -0.6011564450 -0.1865997355 -0.4616959825
C   0.5632160498  0.7673595842 -0.7205400102
C   1.9221746537  0.2859770767 -0.1747664820
O   2.8610910810  0.1231339952 -1.0348656055
C   2.0228931938  0.1143729803  1.1775528423
O   4.7613958894  2.0587411956 -0.2581286369
H  -2.0899604606 -0.7220276166  1.0669939238
H  -0.2416454511 -1.2102718234 -0.3341988818
H  -1.2839026795 -0.2262843607 -1.3213540067
H   0.3186176950  1.7376955084 -0.2905118597
H   0.6782307122  0.8942052840 -1.7941787798
H   1.2614362875  0.4438154251  1.8677501903
H   4.2201150859  1.2464181456 -0.2008771206
H   2.9486466361 -0.2702758544  1.5928823255
H   4.3423621277  2.4633917392 -1.0193561464
17
Image 14  Energy = -421.93383568
C  -1.4766789180  0.1413826721  0.7067920321
O  -1.6187193303  1.2208680503  1.2264156962
C  -0.5939007676 -0.1924110158 -0.4483122734
C   0.5602427364  0.7636831610 -0.7344353340
C   1.9212799995  0.3230512354 -0.1688339091
O   2.8870512461  0.2438023247 -1.0128768035
C   1.9947192165  0.0963621548  1.1751604859
O   4.7747021540  2.0141315976 -0.2491342241
H  -2.0962780929 -0.7078349674  1.0712874620
H  -0.2301714853 -1.2121678081 -0.3044282425
H  -1.2801995670 -0.2482426523 -1.3031508089
H   0.3082871399  1.7459852404 -0.3375942739
H   0.6798034498  0.8577500143 -1.8108468947
H   1.1958635119  0.3427438509  1.8561914342
H   4.1952189403  1.2185750039 -0.2839196404
H   2.9349693408 -0.2424866973  1.5975991130
H   4.3938106787  2.5048081664 -0.9799134301
17
Image 15  Energy = -421.93485530
C  -1.4659675635  0.1507570387  0.7230931287
O  -1.5910575847  1.2317943701  1.2435613190
C  -0.5950840146 -0.1967761659 -0.4352769170
C   0.5510812843  0.7551387399 -0.7542122688
C   1.9118771837  0.3455487058 -0.1702946071
O   2.8963569428  0.3334216642 -0.9984626713
C   1.9642095971  0.0695992286  1.1646166638
O   4.8102155469  1.9942688008 -0.2351113239
H  -2.0936603701 -0.6908775908  1.0898957889
H  -0.2272302959 -1.2127985819 -0.2742644046
H  -1.2887778771 -0.2702325013 -1.2822604693
H   0.2988530166  1.7521994606 -0.3964454359
H   0.6742649529  0.8095212853 -1.8330373868
H   1.1312244891  0.2235125323  1.8305313803
H   4.1840980554  1.2333395467 -0.3417002937
H   2.9139582217 -0.2252595688  1.5978010259
H   4.4756388901  2.5668433799 -0.9284329178
17
Image 16  Energy = -421.93555125
C  -1.4533793099  0.1626243711  0.7395910920
O  -1.5770452731  1.2503027757  1.2468022459
C  -0.6034882481 -0.1982409203 -0.4291140920
C   0.5421204460  0.7410306767 -0.7751570641
C   1.8998448684  0.3573139941 -0.1689199710
O   2.9000333724  0.4121096166 -0.9774248377
C   1.9319702971  0.0306284753  1.1555359870
O   4.8538027551  2.0003883203 -0.2284074853
H  -2.0650795185 -0.6782794733  1.1314936839
H  -0.2398139905 -1.2154571046 -0.2619614724
H  -1.3094702738 -0.2758783894 -1.2657133124
H   0.2934559289  1.7532685713 -0.4596306081
H   0.6727616522  0.7548604953 -1.8547258714
H   1.0765887602  0.1030441440  1.8043794578
H   4.1917215001  1.2727066467 -0.3702839665
H   2.8871206045 -0.2297986719  1.5994565328
H   4.5488570769  2.6293764715 -0.8859195833
17
Image 17  Energy = -421.93645340
C  -1.4380965410  0.1775212655  0.7574968239
O  -1.5644785574  1.2751152205  1.2438889038
C  -0.6164235568 -0.1974711322 -0.4280626198
C   0.5348744584  0.7236395966 -0.7963610846
C   1.8856354231  0.3655056433 -0.1609909246
O   2.9002704998  0.4904150889 -0.9423087179
C   1.8968773543 -0.0149287007  1.1509721364
O   4.9150470559  2.0186540474 -0.2468623337
H  -2.0223643547 -0.6639226365  1.1866015084
H  -0.2627603915 -1.2184550792 -0.2620481001
H  -1.3375921572 -0.2672034905 -1.2520940504
H   0.2901997287  1.7513369809 -0.5295788802
H   0.6776737394  0.6928975640 -1.8746500987
H   1.0195933932 -0.0322665886  1.7737456322
H   4.2268955782  1.3146868889 -0.3855317341
H   2.8528842869 -0.2402707281  1.6118805761
H   4.5917634429  2.6947471063 -0.8460939880
17
Image 18  Energy = -421.92413197
C  -1.4271500192  0.1909808257  0.7755652704
O  -1.5485726158  1.2910619385  1.2399532644
C  -0.6287032445 -0.2002810304 -0.4312121758
C   0.5320830988  0.7052599209 -0.8133152244
C   1.8793373858  0.3726271175 -0.1484510159
O   2.9004696245  0.5664323128 -0.8890532761
C   1.8593689982 -0.0691812168  1.1517655856
O   4.9910975687  2.0617679912 -0.2893801621
H  -1.9903148579 -0.6563920608  1.2324187018
H  -0.2876123522 -1.2271200201 -0.2728155504
H  -1.3631827653 -0.2538622032 -1.2460926428
H   0.2846251618  1.7434421314 -0.5865007082
H   0.6880994505  0.6362682508 -1.8886243523
H   0.9578600844 -0.1352707252  1.7433899805
H   4.2878195912  1.3660371640 -0.3943106488
H   2.8053452290 -0.2878280586  1.6346583318
H   4.6094304073  2.7660579906 -0.8179940964
17
Image 19  Energy = -421.92455025
C  -1.4232795747  0.1898533585  0.7746137291
O  -1.5730606900  1.2954404966  1.2208228798
C  -0.6345317425 -0.1932257641 -0.4420047855
C   0.5402379365  0.7029133078 -0.8040081351
C   1.8731733524  0.3630879419 -0.1165159273
O   2.9114667528  0.6035316378 -0.8178595790
C   1.8216776306 -0.1363527051  1.1620036037
O   5.0317230560  2.1248309180 -0.3383750526
H  -1.9508234331 -0.6616807320  1.2643631924
H  -0.3079762197 -1.2267510291 -0.3044213940
H  -1.3679854997 -0.2177455280 -1.2587235141
H   0.2952865648  1.7430949534 -0.5847697363
H   0.7144322079  0.6337436118 -1.8766805281
H   0.9060892845 -0.2246972927  1.7237710461
H   4.3259134587  1.4302253798 -0.4011744580
H   2.7498975750 -0.3782250769  1.6657837722
H   4.6377602673  2.8219563953 -0.8668251587
17
Image 20  Energy = -421.92498504
C  -1.4155384066  0.1883404159  0.7751589684
O  -1.6018082403  1.2957615606  1.2026119245
C  -0.6407513105 -0.1819447343 -0.4554531891
C   0.5484313473  0.7038293856 -0.7959525200
C   1.8669904655  0.3532307335 -0.0890168785
O   2.9182368756  0.6342145207 -0.7540230855
C   1.7915923378 -0.2001694368  1.1656934798
O   5.0462987816  2.1824319310 -0.3519510112
H  -1.8964769517 -0.6733248064  1.2957797870
H  -0.3303661857 -1.2230910405 -0.3442550739
H  -1.3757118903 -0.1692095655 -1.2709523645
H   0.3092078600  1.7460755458 -0.5792788332
H   0.7392221954  0.6355540967 -1.8661440241
H   0.8659306010 -0.3275210755  1.7004339298
H   4.3350606722  1.4944302478 -0.3903361832
H   2.7114285616 -0.4464403438  1.6825003107
H   4.6782535482  2.8578322962 -0.9248159425
17
Image 21  Energy = -421.92532629
C  -1.4127404115  0.1862626279  0.7753246504
O  -1.6455564724  1.2917828060  1.1844240862
C  -0.6478388163 -0.1680878026 -0.4671571316
C   0.5544383090  0.7084008498 -0.7868087312
C   1.8629880332  0.3467138334 -0.0692534398
O   2.9211706307  0.6712687814 -0.7019069606
C   1.7760372797 -0.2612010859  1.1584963293
O   5.0475814839  2.2338905049 -0.3380942817
H  -1.8429031956 -0.6857782002  1.3230717202
H  -0.3521180214 -1.2156227973 -0.3830952795
H  -1.3830436574 -0.1180046666 -1.2805800283
H   0.3217077471  1.7516568849 -0.5669544438
H   0.7568615777  0.6459309501 -1.8555869938
H   0.8443862830 -0.4421598232  1.6648932117
H   4.3279918245  1.5554765037 -0.3624383006
H   2.6919950802 -0.5023222112  1.6847020168
H   4.7290420847  2.8717922224 -0.9790366157
17
Image 22  Energy = -421.92577269
C  -1.4126559615  0.1975629556  0.7763652765
O  -1.7049496379  1.2997289361  1.1490866278
C  -0.6601662814 -0.1563299635 -0.4704137419
C   0.5525325210  0.7072685700 -0.7822811654
C   1.8541302040  0.3434065918 -0.0583857696
O   2.9136815592  0.7169452578 -0.6633713689
C   1.7720879613 -0.3139183624  1.1424046141
O   5.0544755560  2.2719107704 -0.3159930217
H  -1.7777065607 -0.6753137740  1.3655226468
H  -0.3759346759 -1.2072458180 -0.3998787943
H  -1.3959503577 -0.0804386689 -1.2799736076
H   0.3290189425  1.7535905584 -0.5681463108
H   0.7618977691  0.6391470792 -1.8501696099
H   0.8441844444 -0.5719875217  1.6191948497
H   4.3266598608  1.6051784712 -0.3345682726
H   2.6881734591 -0.5391423780  1.6749879232
H   4.7805209550  2.8796366944 -1.0043800989
17
Image 23  Energy = -421.93948939
C  -1.4080668971  0.2087161733  0.7800721258
O  -1.7554731371  1.3138609635  1.1175304811
C  -0.6726184344 -0.1485637236 -0.4714910423
C   0.5483138409  0.7025861316 -0.7829732570
C   1.8420817131  0.3418947056 -0.0508819433
O   2.9034532938  0.7643937523 -0.6315486617
C   1.7683215816 -0.3571587549  1.1235256901
O   5.0655410004  2.2969256315 -0.2978085337
H  -1.7092020966 -0.6532826197  1.4147002395
H  -0.3996052418 -1.2025747859 -0.4082425883
H  -1.4108619687 -0.0525252856 -1.2755517547
H   0.3316386780  1.7524944894 -0.5795729078
H   0.7622669714  0.6233046403 -1.8494866256
H   0.8472883979 -0.6833383707  1.5713876924
H   4.3285339900  1.6431013649 -0.3086435068
H   2.6847321851 -0.5650128306  1.6630445101
H   4.8236556531  2.8851785565 -1.0140597081
17
Image 24  Energy = -421.92667979
C  -1.4015236499  0.2262002069  0.7946688645
O  -1.7820561057  1.3224785584  1.1018539935
C  -0.6880639669 -0.1427864066 -0.4737421424
C   0.5411402804  0.6953438789 -0.7925885800
C   1.8364784445  0.3463173117 -0.0529533756
O   2.8871721421  0.8150091843 -0.6024376411
C   1.7652555729 -0.3963153401  1.0985743285
O   5.0847408884  2.3165365899 -0.2715032932
H  -1.6446870315 -0.6280068004  1.4664487863
H  -0.4276019667 -1.2003536297 -0.4191981758
H  -1.4332665373 -0.0257327724 -1.2678493818
H   0.3277206765  1.7498427486 -0.6048432812
H   0.7569674076  0.5993355577 -1.8569828256
H   0.8513014901 -0.7813448963  1.5171804773
H   4.3359765534  1.6744780194 -0.2715177937
H   2.6828447179 -0.5869324054  1.6431542898
H   4.8576002302  2.8859309608 -1.0082644008
17
Image 25  Energy = -421.93640041
C  -1.3692926895  0.2334315258  0.8070649042
O  -1.8320914886  1.3149851985  1.0765748681
C  -0.7004349167 -0.1361950633 -0.4799638684
C   0.5376865912  0.6898990923 -0.8039041884
C   1.8179905865  0.3499690362 -0.0407535087
O   2.8776751740  0.8645416698 -0.5489094897
C   1.7377184564 -0.4231531211  1.0820100425
O   5.0925258610  2.3203372236 -0.2646791452
H  -1.4919091829 -0.5845884429  1.5474239363
H  -0.4492681828 -1.1968258225 -0.4380626695
H  -1.4537169790  0.0037156704 -1.2612093843
H   0.3245599098  1.7471971793 -0.6323377761
H   0.7627120670  0.5793931557 -1.8665336646
H   0.8306115402 -0.8637186399  1.4559651109
H   4.3253224879  1.7035698889 -0.2603126885
H   2.6427071237 -0.6084362125  1.6495729951
H   4.8972038230  2.8758778612 -1.0219454766
17
Image 26  Energy = -421.93730724
C  -1.3487814493  0.2478219568  0.8242373211
O  -1.8860425827  1.3094304131  1.0546331532
C  -0.7129436493 -0.1238950724 -0.4812529330
C   0.5386569975  0.6821803979 -0.8113908988
C   1.8064971296  0.3487873031 -0.0256064100
O   2.8685119787  0.9026391113 -0.4848043127
C   1.7131479978 -0.4598629965  1.0699367575
O   5.1194995922  2.3371705375 -0.2813168432
H  -1.3686554069 -0.5301055963  1.6081204670
H  -0.4789213462 -1.1887833259 -0.4537744238
H  -1.4729850415  0.0423084938 -1.2491807223
H   0.3314077681  1.7445523353 -0.6631865563
H   0.7716208972  0.5500091650 -1.8703403229
H   0.8172816877 -0.9720255148  1.3721871310
H   4.3481747106  1.7289824696 -0.2368663039
H   2.5960505311 -0.6252563046  1.6748236200
H   4.9074808479  2.8760464417 -1.0462182736
17
Image 27  Energy = -421.92440011
C  -1.3241088147  0.2696966286  0.8442903732
O  -1.8713551698  1.3194799326  1.0698662549
C  -0.7279764549 -0.1154892272 -0.4855115399
C   0.5391293181  0.6675862823 -0.8275485602
C   1.7962233566  0.3587836048 -0.0048476853
O   2.8448631860  0.9645713362 -0.3992695541
C   1.6857321067 -0.4974727712  1.0592453231
O   5.1549985684  2.3494656439 -0.3024742206
H  -1.2879962293 -0.4934411288  1.6447524418
H  -0.5175667024 -1.1858793780 -0.4709779121
H  -1.4988818280  0.0770720426 -1.2364728383
H   0.3322216646  1.7357678106 -0.7201510094
H   0.7884756210  0.4991579940 -1.8780129914
H   0.8063222039 -1.0765504094  1.2845620341
H   4.3695635528  1.7634988123 -0.2145400982
H   2.5441638971 -0.6458171137  1.7032673782
H   4.9161921758  2.8795692544 -1.0661771235
17
Image 28  Energy = -421.92427210
C  -1.2837845399  0.2758990488  0.8579488354
O  -1.7800287817  1.3433203108  1.1140602267
C  -0.7335633475 -0.1077066760 -0.4934286039
C   0.5420182516  0.6566612194 -0.8433290501
C   1.7775935657  0.3709133324  0.0186809480
O   2.8177421733  1.0215535562 -0.3179112666
C   1.6541075568 -0.5136515515  1.0574566564
O   5.1659574355  2.3466597402 -0.3263920399
H  -1.2591103084 -0.5026399236  1.6425802607
H  -0.5445772336 -1.1817926141 -0.4965393811
H  -1.5176635278  0.1118336543 -1.2221757942
H   0.3386593836  1.7279413570 -0.7786335332
H   0.8115051472  0.4494465980 -1.8865240433
H   0.7948438184 -1.1417059308  1.2220462075
H   4.3705291027  1.7822998523 -0.2000478326
H   2.4886848636 -0.6471319215  1.7347236946
H   4.9070868707  2.8780996360 -1.0825148918
17
Image 29  Energy = -421.92390608
C  -1.2366843948  0.2744567600  0.8718299023
O  -1.6727827328  1.3579642826  1.1661579218
C  -0.7345291296 -0.0982593745 -0.5019058947
C   0.5475411846  0.6487443900 -0.8654772435
C   1.7591489568  0.3844756069  0.0347197808
O   2.7953429253  1.0644209253 -0.2493742214
C   1.6177220757 -0.5158780081  1.0595471978
O   5.1636107891  2.3390277964 -0.3430140762
H  -1.2327546614 -0.5243082061  1.6350440919
H  -0.5668099472 -1.1753877404 -0.5269802226
H  -1.5331757164  0.1490070375 -1.2054015395
H   0.3484040673  1.7217829227 -0.8344824138
H   0.8328169774  0.4060564027 -1.8941359759
H   0.7843368877 -1.1904137436  1.1654075200
H   4.3604582364  1.7924910552 -0.1873071058
H   2.4263652278 -0.6330445094  1.7708554287
H   4.8909897064  2.8688640276 -1.0954830663
17
Image 30  Energy = -421.92313181
C  -1.1820043083  0.2653702565  0.8879645526
O  -1.5512716050  1.3608295938  1.2260261362
C  -0.7310647039 -0.0880470945 -0.5097315482
C   0.5542352559  0.6440740610 -0.8904074338
C   1.7434607767  0.3964677291  0.0407712805
O   2.7823387438  1.0857435365 -0.2052411826
C   1.5759656467 -0.5041705110  1.0648034076
O   5.1496876757  2.3327658302 -0.3478047487
H  -1.2115901629 -0.5582887717  1.6224629646
H  -0.5821579599 -1.1668641018 -0.5603836464
H  -1.5473943629  0.1860546975 -1.1818266517
H   0.3601369530  1.7187741608 -0.8888644062
H   0.8499432540  0.3712249171 -1.9081789113
H   0.7755285306 -1.2232051884  1.1143658769
H   4.3446127333  1.7939750425 -0.1730911458
H   2.3522183135 -0.5964585477  1.8133356943
H   4.8673555476  2.8517541395 -1.1042002021
17
Image 31  Energy = -421.92160278
C  -1.1157817037  0.2500663309  0.9063235888
O  -1.4175384344  1.3557249508  1.2808113150
C  -0.7229230578 -0.0827983411 -0.5162976394
C   0.5575861930  0.6430572330 -0.9191096320
C   1.7265115172  0.4070694273  0.0380387698
O   2.7745645111  1.0863881924 -0.1820569168
C   1.5231478744 -0.4767399189  1.0732302501
O   5.1322564447  2.3305943451 -0.3428216720
H  -1.2007369978 -0.5954997071  1.6091794988
H  -0.5858725336 -1.1615082313 -0.5905690589
H  -1.5642407612  0.2118879800 -1.1475308998
H   0.3667641694  1.7180608453 -0.9393233724
H   0.8635033940  0.3510280009 -1.9278092972
H   0.7672625848 -1.2454521317  1.0689745325
H   4.3309315382  1.7895551448 -0.1567402426
H   2.2719561924 -0.5443232277  1.8532203994
H   4.8426096198  2.8328891975 -1.1075197781
17
Image 32  Energy = -421.91943948
C  -1.0330221283  0.2329747572  0.9293461679
O  -1.3043934668  1.3468666438  1.3174395630
C  -0.7062000919 -0.0836955804 -0.5201032937
C   0.5594229185  0.6445771478 -0.9495711228
C   1.7046871608  0.4166971446  0.0297939740
O   2.7716472210  1.0616590018 -0.1697212680
C   1.4387884314 -0.4262066705  1.0944718611
O   5.1178491510  2.3317393462 -0.3351498446
H  -1.1960434256 -0.6260255247  1.6017731554
H  -0.5757403265 -1.1613490836 -0.6141169367
H  -1.5761097206  0.2245200237 -1.1048124899
H   0.3667289014  1.7188077765 -0.9738972260
H   0.8727540557  0.3478620688 -1.9539628294
H   0.7702254258 -1.2684835792  1.0249125248
H   4.3241718496  1.7821763961 -0.1428793218
H   2.1921928788 -0.4902652502  1.8744810807
H   4.8230419640  2.8181455646 -1.1080042719
17
Image 33  Energy = -421.91763244
C  -0.9403118694  0.2215891822  0.9553083540
O  -1.2195326192  1.3441865509  1.3387419903
C  -0.6871961602 -0.0861626701 -0.5195492300
C   0.5608833644  0.6457709591 -0.9792292243
C   1.6812747247  0.4185728234  0.0157360588
O   2.7645411927  1.0274168352 -0.1541209024
C   1.3503375805 -0.3906453601  1.1055732871
O   5.1064665562  2.3348704616 -0.3287157658
H  -1.1902511697 -0.6402090053  1.6001821522
H  -0.5614367520 -1.1626956860 -0.6346910734
H  -1.5801657204  0.2340714675 -1.0620908319
H   0.3632001056  1.7184031392 -0.9916224639
H   0.8749887279  0.3553925153 -1.9835738024
H   0.7973965116 -1.3044783128  0.9864550703
H   4.3229377762  1.7766373847 -0.1287491235
H   2.1012379083 -0.4282754628  1.8891348571
H   4.8056307162  2.8055555456 -1.1087895555
17
Image 34  Energy = -421.91708786
C  -0.8397832607  0.2106952002  0.9758827870
O  -1.1422032020  1.3470569249  1.3419855081
C  -0.6724061346 -0.0940578462 -0.5203537643
C   0.5583806765  0.6477693558 -1.0028967657
C   1.6633245904  0.4183461224  0.0025951622
O   2.7608343861  0.9941806460 -0.1339845949
C   1.2822640475 -0.3754528266  1.1041004768
O   5.0907978999  2.3352070167 -0.3197520875
H  -1.1666853496 -0.6454109022  1.5959987397
H  -0.5507066711 -1.1681417300 -0.6574173101
H  -1.5840756141  0.2410304176 -1.0190721301
H   0.3513662792  1.7184343996 -0.9961162619
H   0.8732077432  0.3711324114 -2.0101343936
H   0.8109302428 -1.3310475556  0.9594438769
H   4.3160121431  1.7696239904 -0.1152387648
H   2.0122220820 -0.3598259759  1.9026225188
H   4.7865209273  2.7904605825 -1.1076631615
17
Image 35  Energy = -421.91581073
C  -0.7780123350  0.2022580514  0.9797462792
O  -1.0603650218  1.3574248515  1.3429569842
C  -0.6660065476 -0.1005048624 -0.5237818494
C   0.5539177698  0.6522424344 -1.0139622382
C   1.6514799245  0.4200364389 -0.0020263966
O   2.7629826021  0.9570185173 -0.1309456678
C   1.2437981796 -0.3564109047  1.1110040592
O   5.0606256628  2.3285980550 -0.3057496521
H  -1.1415901007 -0.6553880660  1.5800636157
H  -0.5486842836 -1.1724823224 -0.6821871866
H  -1.5881855382  0.2455745254 -0.9936495438
H   0.3364873879  1.7211324548 -0.9934829777
H   0.8756353057  0.3917485205 -2.0230366685
H   0.8479180667 -1.3427509661  0.9379043048
H   4.2960675720  1.7503120601 -0.1022892750
H   1.9522475066 -0.2927787908  1.9226463893
H   4.7516847328  2.7639703362 -1.1032104389
17
Image 36  Energy = -421.91529776
C  -0.6870383147  0.1869861802  1.0017677776
O  -1.0075476661  1.3632845472  1.3477652026
C  -0.6614346194 -0.1062674698 -0.5227511428
C   0.5492808111  0.6513440449 -1.0250888001
C   1.6361648029  0.4335517702 -0.0033693637
O   2.7587039965  0.9293612545 -0.1216991433
C   1.1609652405 -0.3136460684  1.1280332208
O   5.0490083287  2.3204427966 -0.3014494953
H  -1.1253198463 -0.6714519810  1.5654427800
H  -0.5522828301 -1.1784174398 -0.6982482868
H  -1.5872277072  0.2471438357 -0.9795205713
H   0.3295444179  1.7207180393 -0.9974178844
H   0.8798511046  0.3958777310 -2.0314277400
H   0.8872175082 -1.3426034461  0.9118949437
H   4.2832083471  1.7436792863 -0.1037326133
H   1.8927359904 -0.2673009267  1.9299780349
H   4.7441713187  2.7572980926 -1.1001771655
17
Image 37  Energy = -421.91899704
C  -0.6081533473  0.1677118803  1.0161035104
O  -0.9517128812  1.3589047003  1.3607151672
C  -0.6558699165 -0.1084530518 -0.5227816551
C   0.5494485824  0.6536105480 -1.0388887818
C   1.6297212526  0.4427916675 -0.0107228726
O   2.7643458253  0.9024693980 -0.1098798500
C   1.1000374820 -0.2898311470  1.1294145210
O   5.0328510419  2.3108021579 -0.2977827857
H  -1.1025831430 -0.6835872548  1.5528052646
H  -0.5569795291 -1.1799983022 -0.7165897352
H  -1.5894253342  0.2546112306 -0.9544417686
H   0.3226927190  1.7217508621 -1.0059490168
H   0.8822995189  0.4003655368 -2.0445380886
H   0.9296922922 -1.3409062550  0.8887828362
H   4.2643782018  1.7332192343 -0.1083547126
H   1.8032451647 -0.2241278672  1.9600246113
H   4.7360129363  2.7506669921 -1.0979168647
17
Image 38  Energy = -421.92448420
C  -0.5451094435  0.1374000042  1.0206447014
O  -0.8777482117  1.3476300977  1.3814335846
C  -0.6530626542 -0.1048085704 -0.5251073768
C   0.5490760537  0.6621817083 -1.0518687037
C   1.6274147257  0.4465753257 -0.0218120148
O   2.7756623061  0.8597156079 -0.1081425456
C   1.0508881799 -0.2819131883  1.1223797771
O   5.0160496247  2.3042730635 -0.2948227889
H  -1.0750649583 -0.7015983886  1.5404741878
H  -0.5649845020 -1.1731907162 -0.7451109819
H  -1.5952902006  0.2704898577 -0.9243939350
H   0.3169344085  1.7281501678 -1.0150157613
H   0.8826585730  0.4094815208 -2.0579714878
H   0.9979509601 -1.3501130303  0.8841470173
H   4.2495962297  1.7204802342 -0.1143987915
H   1.6702579334 -0.1477293337  2.0074162913
H   4.7247718359  2.7429759856 -1.0978513220
17
Image 39  Energy = -421.92824300
C  -0.5122940937  0.1012611210  1.0112576526
O  -0.8219925674  1.3187386943  1.4028848792
C  -0.6509686602 -0.0939157917 -0.5358442164
C   0.5526181380  0.6778753220 -1.0570600236
C   1.6334190290  0.4374127866 -0.0296727363
O   2.7978242028  0.7898973725 -0.1327248891
C   1.0327919986 -0.2762698255  1.1243812506
O   4.9847590814  2.2960187496 -0.2924195254
H  -1.0538140911 -0.7386436637  1.5168760441
H  -0.5835077303 -1.1537607610 -0.8027410943
H  -1.5981583143  0.3080909390 -0.8926639298
H   0.3230664121  1.7434101114 -1.0111129313
H   0.8836255555  0.4344719396 -2.0668861674
H   1.1003540571 -1.3574147122  0.9378429305
H   4.2282237770  1.6926720682 -0.1299296954
H   1.5329818937 -0.0390464148  2.0590306804
H   4.7010724383  2.7292024873 -1.1012185497
17
Image 40  Energy = -421.92962739
C  -0.5054066955  0.0683085132  1.0009837778
O  -0.8351554637  1.2708378218  1.4298373640
C  -0.6430307986 -0.0781689759 -0.5502671789
C   0.5640861061  0.7003150713 -1.0519357042
C   1.6458654642  0.4175167666 -0.0361499050
O   2.8272526976  0.6887365774 -0.1758437609
C   1.0307735716 -0.2557900109  1.1391691892
O   4.9405069473  2.2801738418 -0.2939448678
H  -1.0385926961 -0.7950108735  1.4771425032
H  -0.5909946919 -1.1273221720 -0.8614806122
H  -1.5880350346  0.3491969796 -0.8812180328
H   0.3471689526  1.7676706821 -0.9780692368
H   0.8917409608  0.4823346922 -2.0681898538
H   1.1860353137 -1.3391815556  1.0346691812
H   4.2027828852  1.6454869933 -0.1609593717
H   1.4476169305  0.0826651226  2.0831469679
H   4.6673863575  2.7122310098 -1.1068905565
17
Image 41  Energy = -421.92994816
C  -0.5109851905  0.0445991529  0.9914244327
O  -0.8865496115  1.2230819613  1.4493850822
C  -0.6323681565 -0.0635622669 -0.5646408455
C   0.5746150511  0.7289174984 -1.0422939673
C   1.6563556606  0.4000242458 -0.0423886231
O   2.8492211425  0.5918323098 -0.2133174173
C   1.0298871890 -0.2280889422  1.1534534263
O   4.9085776742  2.2497186078 -0.2988829814
H  -1.0228858028 -0.8491664349  1.4358572949
H  -0.5757531489 -1.1041768542 -0.9028878780
H  -1.5764353644  0.3707609477 -0.8886177604
H   0.3667346826  1.7952865461 -0.9245787321
H   0.8981849647  0.5483080887 -2.0666649198
H   1.2412356645 -1.3059311720  1.1276419426
H   4.1891657954  1.5893367147 -0.1898379077
H   1.4036246082  0.1898311566  2.0847627313
H   4.6373753212  2.6892285272 -1.1084139608
17
Image 42  Energy = -421.92986294
C  -0.5216039413  0.0223760496  0.9810566428
O  -0.9454148156  1.1741588338  1.4639857637
C  -0.6233566567 -0.0504206237 -0.5790928624
C   0.5816978739  0.7603261931 -1.0294024634
C   1.6619892805  0.3905981456 -0.0440582040
O   2.8602604503  0.5241812712 -0.2344021040
C   1.0257758438 -0.2047977196  1.1642764786
O   4.9027853795  2.2073038729 -0.3118914160
H  -1.0100081589 -0.8995389015  1.3949200007
H  -0.5543449961 -1.0827620014 -0.9392835331
H  -1.5678850243  0.3833900851 -0.9022281862
H   0.3768433481  1.8217048620 -0.8637363396
H   0.9024514515  0.6210190802 -2.0607641258
H   1.2800599593 -1.2721307491  1.2044652875
H   4.1924676561  1.5355787968 -0.2134984786
H   1.3659664277  0.2758614110  2.0788015302
H   4.6223160191  2.6631508784 -1.1091473821
17
Image 43  Energy = -421.92976097
C  -0.5352657650 -0.0068729203  0.9751925470
O  -0.9764419952  1.1234470070  1.4920998561
C  -0.6173945559 -0.0268324638 -0.5876555132
C   0.5919822131  0.7987058826 -0.9974240686
C   1.6622284200  0.3966314867 -0.0137054262
O   2.8630467532  0.5266711673 -0.1900978766
C   1.0120522145 -0.2273753557  1.1729526505
O   4.9256280535  2.1849763731 -0.3788441027
H  -1.0210215915 -0.9467343548  1.3505549503
H  -0.5437234344 -1.0464884354 -0.9813124299
H  -1.5584407372  0.4174058218 -0.9068624731
H   0.3859877455  1.8542060019 -0.7988606097
H   0.9232154988  0.6923679408 -2.0293327708
H   1.2779498836 -1.2921304694  1.1989706281
H   4.2079557269  1.5265316711 -0.2505513874
H   1.3317384915  0.2387031539  2.1022101887
H   4.6205026970  2.6567876895 -1.1573341440
17
Image 44  Energy = -421.92972664
C  -0.5467701311 -0.0288742704  0.9725604593
O  -0.9894806735  1.0889093637  1.5148268438
C  -0.6120202280 -0.0062280616 -0.5907247458
C   0.6020574789  0.8291956830 -0.9647872510
C   1.6603510587  0.4092781178  0.0251538319
O   2.8622461506  0.5593029716 -0.1246701151
C   0.9977203330 -0.2591571871  1.1805259021
O   4.9531509290  2.1661631088 -0.4626159161
H  -1.0395594281 -0.9768660197  1.3172214038
H  -0.5354366862 -1.0147623918 -1.0115682459
H  -1.5490955786  0.4480467325 -0.9076355892
H   0.3916714001  1.8805238397 -0.7506067713
H   0.9482427281  0.7423061167 -1.9936440155
H   1.2610186713 -1.3248981274  1.1631513385
H   4.2234713648  1.5321918829 -0.2878591065
H   1.3078876649  0.1642405276  2.1330380938
H   4.6145442753  2.6606277588 -1.2123662856
17
Image 45  Energy = -421.92959829
C  -0.5552672983 -0.0498407938  0.9697974798
O  -0.9921618658  1.0569899362  1.5363249394
C  -0.6030047719  0.0147105228 -0.5926931421
C   0.6139209712  0.8611500775 -0.9292314633
C   1.6576311768  0.4292070568  0.0686908398
O   2.8578833070  0.6106699037 -0.0435356035
C   0.9853947671 -0.2933345934  1.1873282881
O   4.9714932294  2.1265528566 -0.5639838614
H  -1.0602860544 -1.0026388373  1.2819116080
H  -0.5211565278 -0.9815740643 -1.0410116370
H  -1.5360024724  0.4785159595 -0.9079366154
H   0.3962531019  1.9081617547 -0.7031750369
H   0.9763672297  0.7913111304 -1.9541210667
H   1.2484838559 -1.3561829258  1.1214909266
H   4.2249565930  1.5296790417 -0.3315218956
H   1.2900436946  0.0817680476  2.1646970837
H   4.5954516164  2.6648558814 -1.2630309676
17
Image 46  Energy = -421.93251666
C  -0.5712649376 -0.0672368457  0.9715504595
O  -1.0173789535  1.0258377659  1.5547282452
C  -0.5986442552  0.0254350971 -0.5885749551
C   0.6223620024  0.8756184873 -0.9009186927
C   1.6513183506  0.4621197676  0.1200084038
O   2.8445350094  0.6999245554  0.0553130008
C   0.9714304589 -0.3077441340  1.2057506768
O   5.0143018110  2.0451880823 -0.7193983110
H  -1.0729252242 -1.0286898909  1.2593634896
H  -0.5169115898 -0.9621602865 -1.0551097652
H  -1.5273548044  0.4985328763 -0.9036486620
H   0.3956297560  1.9236630492 -0.6923704180
H   1.0066946774  0.7985550652 -1.9174059572
H   1.2370808775 -1.3656147458  1.0981056885
H   4.2494965473  1.5138870634 -0.4044246600
H   1.2636418782  0.0318566227  2.1989832185
H   4.5979879103  2.7008275288 -1.2819518610
17
Image 47  Energy = -421.93140936
C  -0.5954396247 -0.0985002047  0.9737198163
O  -1.0760450079  0.9614327959  1.5895653064
C  -0.6101558972  0.0455713579 -0.5832434943
C   0.6300666731  0.8721999870 -0.8794358364
C   1.6454705151  0.4664696179  0.1607398002
O   2.8338934749  0.7311566667  0.1199587050
C   0.9482572900 -0.3199495617  1.2276531176
O   5.0710608832  2.0376303808 -0.8234397265
H  -1.0819813675 -1.0804471968  1.2168078958
H  -0.5619142356 -0.9270518076 -1.0828507680
H  -1.5260382591  0.5552733438 -0.8777715566
H   0.4214923462  1.9280083521 -0.6969459268
H   1.0337149776  0.7707582428 -1.8870254784
H   1.2311904421 -1.3737719359  1.1241189592
H   4.3068552265  1.5302371455 -0.4934838655
H   1.2166718274  0.0184898390  2.2280407035
H   4.6629009396  2.7524929443 -1.3164076253
17
Image 48  Energy = -421.92909490
C  -0.6194648230 -0.1218336672  0.9775182512
O  -1.1310834565  0.9078988203  1.6186185574
C  -0.6268662295  0.0608692232 -0.5771485308
C   0.6344541684  0.8544852827 -0.8722735015
C   1.6404448257  0.4533011771  0.1810938462
O   2.8287502532  0.7180019978  0.1398221390
C   0.9257840674 -0.3254769809  1.2476477365
O   5.1255221598  2.1004027561 -0.8220987501
H  -1.0920666271 -1.1195926909  1.1837706112
H  -0.6165615048 -0.9005584887 -1.0985143077
H  -1.5293818726  0.6043576090 -0.8520708778
H   0.4540042501  1.9195642469 -0.7221030856
H   1.0505286091  0.7170749305 -1.8711322936
H   1.2194560170 -1.3781973093  1.1663126401
H   4.3620698383  1.5500638600 -0.5911083603
H   1.1755038138  0.0263316007  2.2484436103
H   4.7489064884  2.8033074703 -1.3567775496
17
Image 49  Energy = -421.92555730
C  -0.6422367356 -0.1379875730  0.9833700104
O  -1.1766985182  0.8678497764  1.6424146292
C  -0.6403292304  0.0718720567 -0.5712725174
C   0.6350859130  0.8431419693 -0.8647545562
C   1.6305153820  0.4458110300  0.2018936885
O   2.8185077780  0.7086494349  0.1638292655
C   0.9046198606 -0.3305330676  1.2653218781
O   5.1636718788  2.1714752723 -0.7978300007
H  -1.1076567619 -1.1452768008  1.1592555044
H  -0.6522292116 -0.8825430354 -1.1044713019
H  -1.5339505741  0.6337441283 -0.8386576399
H   0.4750041307  1.9148582834 -0.7470886887
H   1.0632821552  0.6734465165 -1.8539302521
H   1.2056072130 -1.3819965668  1.1925259647
H   4.4354663067  1.5440750300 -0.7098167245
H   1.1494830883  0.0254058980  2.2662306399
H   4.8218573107  2.8480074164 -1.3870200014
17
Image 50  Energy = -421.92137086
C  -0.6607461555 -0.1494120627  0.9894848666
O  -1.2126133447  0.8367078486  1.6621800187
C  -0.6505125091  0.0801978397 -0.5671071895
C   0.6340933198  0.8364750070 -0.8585194296
C   1.6178496196  0.4438115899  0.2211337898
O   2.8038947868  0.7063983660  0.1947346638
C   0.8889630605 -0.3335318999  1.2798488924
O   5.1607238545  2.2304989916 -0.7560607188
H  -1.1227450970 -1.1624628903  1.1387929919
H  -0.6764052871 -0.8699616357 -1.1071720507
H  -1.5366334297  0.6535338577 -0.8353236165
H   0.4880904202  1.9126244609 -0.7688355279
H   1.0722537749  0.6404721541 -1.8389445910
H   1.1996902386 -1.3826468963  1.2092517119
H   4.5162656424  1.5208461775 -0.8384100799
H   1.1446496078  0.0252183738  2.2777323704
H   4.8831813553  2.8812306748 -1.4027860171
17
Image 51  Energy = -421.91666292
C  -0.6772742846 -0.1573786024  0.9947940172
O  -1.2420137682  0.8118318577  1.6781759132
C  -0.6584139478  0.0865656996 -0.5647490289
C   0.6328109206  0.8317260006 -0.8522003776
C   1.6082764197  0.4471304694  0.2365957615
O   2.7919170709  0.7174836034  0.2205359805
C   0.8826477162 -0.3339976042  1.2921007134
O   5.1101799425  2.2652834452 -0.7120280297
H  -1.1433033427 -1.1720587811  1.1195556735
H  -0.6941680491 -0.8603404948 -1.1103495558
H  -1.5356293854  0.6692359717 -0.8433290459
H   0.4966687557  1.9107988985 -0.7839039006
H   1.0778980813  0.6135169187 -1.8248300594
H   1.2070493079 -1.3795296230  1.2218398162
H   4.5955428826  1.4912285254 -0.9525818374
H   1.1637313520  0.0258235514  2.2843625832
H   4.9340801925  2.9026803923 -1.4039887126
17
Image 52  Energy = -421.91156335
C  -0.6965935866 -0.1632973564  0.9984844392
O  -1.2654487890  0.7913924852  1.6931987719
C  -0.6669076634  0.0912169903 -0.5652472326
C   0.6302086739  0.8271520849 -0.8439204283
C   1.6006984081  0.4511259561  0.2496019289
O   2.7822469639  0.7352789553  0.2378883064
C   0.8850723715 -0.3335916074  1.3058680669
O   5.0430519591  2.2790455703 -0.6871444440
H  -1.1763909925 -1.1761498862  1.0983484946
H  -0.7093943207 -0.8530479717 -1.1160919703
H  -1.5320373093  0.6826057645 -0.8674638080
H   0.4997146552  1.9078808633 -0.7883131795
H   1.0810216184  0.5902842196 -1.8086824536
H   1.2236434296 -1.3739077969  1.2350762951
H   4.6701725816  1.4667025889 -1.0343820186
H   1.2089322907  0.0284371416  2.2873229956
H   4.9720096163  2.9188720701 -1.3945436995
17
Image 53  Energy = -421.90518686
C  -0.7213417130 -0.1685800768  0.9982745463
O  -1.2778613679  0.7719288461  1.7107174474
C  -0.6769580614  0.0950735644 -0.5693010481
C   0.6274471174  0.8227809270 -0.8343888220
C   1.5960665235  0.4564093011  0.2615404814
O   2.7760165133  0.7558378077  0.2493860102
C   0.8960047903 -0.3302139803  1.3200337390
O   4.9779660444  2.2783457064 -0.6851489298
H  -1.2171707826 -1.1807579506  1.0791755820
H  -0.7241123351 -0.8464345259 -1.1260765980
H  -1.5286241126  0.6947008657 -0.9031256021
H   0.4991541970  1.9038638617 -0.7880736776
H   1.0821105852  0.5702958797 -1.7914695801
H   1.2429544972 -1.3667499484  1.2499365085
H   4.7349880251  1.4425245564 -1.0869490543
H   1.2641817419  0.0324328879  2.2922099864
H   4.9991782445  2.9385422880 -1.3767410728
