17
Image 0  Energy = -421.94768085
C  -2.0120546159  0.4930197417  0.0309124081
O  -2.0734616280  1.7035736153 -0.0068083901
C  -0.7896484985 -0.3400832559  0.0040579948
C   0.5026953770  0.4451524692 -0.0715081459
C   1.7719825112 -0.4148944237 -0.0943900870
O   1.6664255436 -1.6550513861 -0.2844562241
C   2.9542426501  0.3045827264  0.1043516738
O   4.6159654320  2.5076806456  0.1783411946
H  -2.9643731575 -0.0697233340  0.0933930243
H  -0.8104869807 -0.9782826669  0.8919216612
H  -0.8776603956 -1.0380810269 -0.8312760255
H   0.5526595624  1.1324071293  0.7713455334
H   0.4841729141  1.0517608626 -0.9775331501
H   2.8804980062  1.0463398423  0.8855541648
H   4.0162682373  1.7927080487 -0.1747863257
H   3.8866261117 -0.2426249027  0.0167427459
H   4.7461493537  3.1315164679 -0.5358619470
17
Image 1  Energy = -421.95025260
C  -2.0178822830  0.4871975322  0.0327874714
O  -2.0899494319  1.6977230739 -0.0018974899
C  -0.7890899594 -0.3348191786  0.0050305417
C   0.5033112283  0.4513115948 -0.0722814799
C   1.7653112331 -0.4194264215 -0.0977275590
O   1.6348093622 -1.6468512046 -0.3584924408
C   2.9498852163  0.2762722436  0.1582361336
O   4.6527548093  2.5244531683  0.1472261173
H  -2.9639562921 -0.0863284652  0.0942001634
H  -0.8033232445 -0.9718101245  0.8943422585
H  -0.8680649059 -1.0344526143 -0.8294390335
H   0.5567160860  1.1423690354  0.7661856350
H   0.4872139879  1.0533043457 -0.9816662076
H   2.8654073297  1.0541924207  0.9017288134
H   4.0562658803  1.7907904188 -0.1371158473
H   3.8858987008 -0.2598686917  0.0549230451
H   4.7246928275  3.1459432791 -0.5760400912
17
Image 2  Energy = -421.93606435
C  -2.0261933699  0.4848122342  0.0348631381
O  -2.1068253789  1.6895216857  0.0034741675
C  -0.7865683404 -0.3299806308  0.0057954527
C   0.5028432924  0.4576506105 -0.0734265928
C   1.7575629293 -0.4283149460 -0.1035624396
O   1.6070424845 -1.6285855623 -0.4320661175
C   2.9451843817  0.2469760657  0.2125585786
O   4.6924180364  2.5415918381  0.1161036149
H  -2.9658078307 -0.1041743140  0.0951912652
H  -0.7957163406 -0.9659026617  0.8972535787
H  -0.8585086091 -1.0312798910 -0.8275538603
H   0.5612173952  1.1531746369  0.7611185047
H   0.4906290140  1.0557262021 -0.9868664660
H   2.8488924504  1.0597073696  0.9190760520
H   4.0977059283  1.7889780676 -0.1006452411
H   3.8852171144 -0.2786557163  0.0954481960
H   4.7009074706  3.1587554153 -0.6167619317
17
Image 3  Energy = -421.93689004
C  -2.0358596221  0.4704597083  0.0414583002
O  -2.1211725593  1.6750017337  0.0132849004
C  -0.7919830144 -0.3371396068  0.0072701624
C   0.4874673179  0.4638828076 -0.0873069021
C   1.7507178014 -0.4093161974 -0.1228908041
O   1.6123582979 -1.6040740665 -0.4784725309
C   2.9315109913  0.2616629431  0.2223386876
O   4.7818736517  2.5255523404  0.1127566982
H  -2.9713921168 -0.1244203857  0.1051804785
H  -0.7899852589 -0.9640735116  0.9057961415
H  -0.8655425009 -1.0468814981 -0.8187367854
H   0.5447654384  1.1602976742  0.7472201804
H   0.4579173239  1.0584752663 -1.0032665872
H   2.8196572439  1.1094175120  0.8837004134
H   4.1847531495  1.7636163803 -0.0407391060
H   3.8703227730 -0.2700907799  0.1305746038
H   4.6845903162  3.1376312873 -0.6181680309
17
Image 4  Energy = -421.93858664
C  -2.0294193846  0.4752494250  0.0379752654
O  -2.1173980798  1.6800186474  0.0194106371
C  -0.7832004591 -0.3288769659  0.0072667619
C   0.4988619653  0.4702048465 -0.0761536141
C   1.7584171288 -0.4121455016 -0.1231605702
O   1.6124793794 -1.5874483917 -0.5348884077
C   2.9375241721  0.2328937611  0.2692568791
O   4.7463382620  2.5502884277  0.0718299484
H  -2.9633836928 -0.1236618211  0.0908666281
H  -0.7854595369 -0.9596214770  0.9033872862
H  -0.8484310961 -1.0362217540 -0.8213907808
H   0.5589190650  1.1600406377  0.7621553139
H   0.4746876988  1.0712340131 -0.9870030389
H   2.8284300238  1.0778995346  0.9347722055
H   4.1556565293  1.7754997018 -0.0322834974
H   3.8799061640 -0.2917615895  0.1696882263
H   4.6260718899  3.1164087165 -0.6917287881
17
Image 5  Energy = -421.93930025
C  -2.0325805302  0.4653768191  0.0442595554
O  -2.1339964405  1.6691101811  0.0253227028
C  -0.7780158096 -0.3244505793  0.0061183623
C   0.4956468283  0.4856806252 -0.0929313711
C   1.7573044989 -0.3930967168 -0.1408291680
O   1.6194754409 -1.5552065141 -0.5925413653
C   2.9304360026  0.2331272084  0.2943696520
O   4.7703322798  2.5266094726  0.0681186926
H  -2.9591223555 -0.1440278960  0.1047232658
H  -0.7663723068 -0.9503520191  0.9059703009
H  -0.8437098367 -1.0373385940 -0.8176192309
H   0.5537779229  1.1868570473  0.7365339712
H   0.4627946563  1.0738078417 -1.0119186327
H   2.8195159726  1.0728392790  0.9658710844
H   4.1693197060  1.7577494609 -0.0230100644
H   3.8691858480 -0.2995806644  0.2090350211
H   4.6160079750  3.1028944379 -0.6814721647
17
Image 6  Energy = -421.93915757
C  -2.0493253021  0.4499978763  0.0563115322
O  -2.1551591803  1.6532465876  0.0293469945
C  -0.7915363639 -0.3350273228  0.0082613573
C   0.4740111912  0.4841054075 -0.1164805325
C   1.7458101244 -0.3815966301 -0.1583664729
O   1.6157248378 -1.5530105872 -0.5878718098
C   2.9169727942  0.2599292115  0.2590069350
O   4.8604892807  2.5346293563  0.1164261576
H  -2.9729517023 -0.1617604926  0.1333910964
H  -0.7639868115 -0.9518768986  0.9140428270
H  -0.8665221514 -1.0557015222 -0.8079460607
H   0.5309174663  1.2000363452  0.7007455246
H   0.4257202351  1.0536404165 -1.0461434561
H   2.7967886577  1.1370659127  0.8785288614
H   4.3016536851  1.7372486321  0.0648802119
H   3.8541642864 -0.2781897472  0.1935326516
H   4.6272290761  3.0772645832 -0.6376645682
17
Image 7  Energy = -421.93875246
C  -2.0595245614  0.4432800950  0.0576354732
O  -2.1650938599  1.6465384686  0.0255124797
C  -0.8014493929 -0.3417370962  0.0106733833
C   0.4636045974  0.4778376276 -0.1192791344
C   1.7382990745 -0.3854539436 -0.1582933022
O   1.6073238143 -1.5680310397 -0.5565086686
C   2.9112948391  0.2714283889  0.2270654641
O   4.9029292990  2.5498697545  0.1518426505
H  -2.9837980357 -0.1676016631  0.1390099245
H  -0.7708280724 -0.9556008169  0.9182587143
H  -0.8782427821 -1.0651248707 -0.8030536771
H   0.5199539322  1.1970731001  0.6955179603
H   0.4138102465  1.0436765460 -1.0510943143
H   2.7853718227  1.1791092730  0.7987454296
H   4.3701127529  1.7372947352  0.1166650374
H   3.8523983083 -0.2598150215  0.1588145585
H   4.6438387160  3.0672555240 -0.6115120506
17
Image 8  Energy = -421.93858690
C  -2.0609491713  0.4400999075  0.0743600030
O  -2.1689812697  1.6430564004  0.0433915042
C  -0.8035435918 -0.3444148107  0.0063164759
C   0.4584709833  0.4766272802 -0.1367658667
C   1.7348237607 -0.3852868533 -0.1643770153
O   1.6089976360 -1.5715987684 -0.5517484339
C   2.9040408341  0.2757251303  0.2218009486
O   4.9201805284  2.5662741750  0.1700629350
H  -2.9826464081 -0.1704321344  0.1723549583
H  -0.7615150875 -0.9617031377  0.9110534520
H  -0.8955356523 -1.0648111184 -0.8086802158
H   0.5125373456  1.2069499858  0.6687784877
H   0.4058302675  1.0290167120 -1.0765934084
H   2.7726149927  1.2027590443  0.7585730005
H   4.4068421816  1.7425005644  0.1738015609
H   3.8485174787 -0.2497229522  0.1584064430
H   4.6503135482  3.0349608579 -0.6207346831
17
Image 9  Energy = -421.93895592
C  -2.0559365002  0.4431721041  0.0787528238
O  -2.1647770061  1.6461684467  0.0532227450
C  -0.7983919097 -0.3404061006  0.0020411942
C   0.4638215328  0.4812523391 -0.1393175771
C   1.7401511433 -0.3806325556 -0.1645557495
O   1.6180509578 -1.5601635000 -0.5726415343
C   2.9073098259  0.2701308515  0.2460850021
O   4.9022513041  2.5592074062  0.1470061218
H  -2.9766648325 -0.1689594533  0.1785326854
H  -0.7541556806 -0.9631522918  0.9029291202
H  -0.8952263179 -1.0561939869 -0.8164948276
H   0.5157157976  1.2135127574  0.6646490609
H   0.4124881627  1.0313624547 -1.0804181133
H   2.7731763574  1.1799130712  0.8105574577
H   4.3741923318  1.7427510337  0.1414284602
H   3.8483207561 -0.2627984055  0.1898772452
H   4.6396733569  3.0348377622 -0.6416539673
17
Image 10  Energy = -421.95530487
C  -2.0451082610  0.4427709883  0.0916586486
O  -2.1592214443  1.6505567482  0.0769704266
C  -0.7917025403 -0.3339206782 -0.0072140503
C   0.4719061452  0.4891340996 -0.1481401248
C   1.7478837678 -0.3679385387 -0.1639586619
O   1.6324898823 -1.5463506001 -0.6042840266
C   2.9070403164  0.2625144491  0.2830702537
O   4.8712888715  2.5492750865  0.1156109029
H  -2.9644878466 -0.1665223564  0.1988913761
H  -0.7378958116 -0.9689189195  0.8837365488
H  -0.8978699261 -1.0390257337 -0.8341306953
H   0.5193424606  1.2253799285  0.6515038734
H   0.4236275342  1.0324031565 -1.0922793246
H   2.7703520004  1.1496833663  0.8816324915
H   4.3202620240  1.7449767119  0.1052938325
H   3.8457559496 -0.2772337608  0.2437831630
H   4.6363372627  3.0232160185 -0.6821447875
17
Image 11  Energy = -421.95580424
C  -2.0351062973  0.4450596520  0.1113940341
O  -2.1533004861  1.6524068375  0.1138883121
C  -0.7815157167 -0.3264931096 -0.0221856357
C   0.4812091867  0.4990876423 -0.1614730956
C   1.7565862839 -0.3584757461 -0.1648617245
O   1.6518190350 -1.5259278675 -0.6346326737
C   2.9060268409  0.2580876481  0.3269983432
O   4.8321949265  2.5361836157  0.0825351212
H  -2.9503622066 -0.1681818461  0.2292462051
H  -0.7139091988 -0.9809744243  0.8534844580
H  -0.9020207718 -1.0138994074 -0.8620862497
H   0.5230537145  1.2413993109  0.6327560592
H   0.4397035004  1.0354932304 -1.1096219090
H   2.7597716634  1.1196670320  0.9592862002
H   4.2504855988  1.7491141472  0.0661227314
H   3.8400917865 -0.2909720736  0.3134627604
H   4.6452718765  2.9984250838 -0.7343129216
17
Image 12  Energy = -421.95654290
C  -2.0228002495  0.4438946251  0.1378039555
O  -2.1466027175  1.6505710956  0.1665775058
C  -0.7697097411 -0.3184127436 -0.0424902698
C   0.4898526916  0.5118285370 -0.1814586929
C   1.7646762288 -0.3455994558 -0.1633128739
O   1.6739393393 -1.5033693922 -0.6635511510
C   2.8949582109  0.2566190116  0.3817186415
O   4.7969299382  2.5203471615  0.0492445982
H  -2.9324994394 -0.1751557843  0.2660719133
H  -0.6809318519 -0.9984941732  0.8117718458
H  -0.9080882389 -0.9819348356 -0.8990267113
H   0.5223157903  1.2624910353  0.6053777308
H   0.4580545099  1.0375697868 -1.1358154560
H   2.7410007873  1.0997043065  1.0341041751
H   4.1889923676  1.7492099635  0.0345537901
H   3.8259881458 -0.2989649915  0.3870652036
H   4.6539246863  2.9596964726 -0.7886334854
17
Image 13  Energy = -421.95698348
C  -2.0095279560  0.4387400145  0.1741883034
O  -2.1411925851  1.6425332196  0.2469303214
C  -0.7580113812 -0.3080299458 -0.0701241570
C   0.4990417827  0.5272996023 -0.2095153350
C   1.7720485707 -0.3313590184 -0.1622063049
O   1.6974544361 -1.4808210416 -0.6837361924
C   2.8824304582  0.2589241390  0.4329562560
O   4.7643797911  2.5021919225  0.0214627261
H  -2.9106086018 -0.1913006728  0.3094015732
H  -0.6421175861 -1.0207529760  0.7536155656
H  -0.9223865907 -0.9386631928 -0.9469435067
H   0.5195087229  1.2905121740  0.5655124964
H   0.4818566421  1.0370206347 -1.1724954306
H   2.7135897328  1.0992956481  1.0855542265
H   4.1395352703  1.7412801131  0.0170222445
H   3.8077211417 -0.3043467920  0.4767043893
H   4.6562790589  2.9074763240 -0.8383269125
17
Image 14  Energy = -421.95721723
C  -1.9941999651  0.4286570625  0.2185095518
O  -2.1331383443  1.6264487767  0.3495983310
C  -0.7477023245 -0.2966835445 -0.1034613721
C   0.5065796589  0.5441882905 -0.2466449607
C   1.7777719365 -0.3150854359 -0.1628170886
O   1.7205438269 -1.4585065783 -0.7000328951
C   2.8644301775  0.2650830616  0.4816038121
O   4.7423503516  2.4845171110  0.0016316962
H  -2.8850486153 -0.2148187231  0.3575289786
H  -0.5998687823 -1.0457682343  0.6817836690
H  -0.9447373744 -0.8883021113 -1.0007910535
H   0.5138700098  1.3241654366  0.5116537921
H   0.5071535330  1.0311711930 -1.2210133728
H   2.6798156913  1.1108881391  1.1232823858
H   4.1091988893  1.7286991057  0.0167826024
H   3.7819529255 -0.3056118868  0.5695017616
H   4.6510286754  2.8509576930 -0.8771161795
17
Image 15  Energy = -421.93873892
C  -1.9725968726  0.4135660770  0.2693490698
O  -2.1146914533  1.6024940178  0.4616749103
C  -0.7377896789 -0.2865687851 -0.1431999470
C   0.5122729827  0.5610540619 -0.2905539784
C   1.7823664126 -0.3028091968 -0.1683030364
O   1.7365582710 -1.4324059973 -0.7125445488
C   2.8428027114  0.2763932439  0.5280383514
O   4.7282774063  2.4679837124 -0.0097193463
H  -2.8518349100 -0.2431521936  0.4189623561
H  -0.5571273929 -1.0771080807  0.5926140627
H  -0.9765045413 -0.8300692690 -1.0615869099
H   0.5068845701  1.3599181683  0.4481083891
H   0.5314172200  1.0228848101 -1.2761062163
H   2.6393303891  1.1305218024  1.1528297297
H   4.0930727942  1.7162471561  0.0331636180
H   3.7482392906 -0.3022052981  0.6640718055
H   4.6393232160  2.7932570141 -0.9067983056
17
Image 16  Energy = -421.93821605
C  -1.9492198478  0.3936911255  0.3221671346
O  -2.0909599452  1.5725897022  0.5679232013
C  -0.7364332807 -0.2767530271 -0.1883086654
C   0.5146287704  0.5726346810 -0.3350000368
C   1.7771883249 -0.2965865409 -0.1688505794
O   1.7282697330 -1.4367634756 -0.6909910326
C   2.8230476704  0.2860331249  0.5456604306
O   4.7211257615  2.4824374689  0.0054108954
H  -2.8133975830 -0.2772341808  0.4947226987
H  -0.5243247673 -1.1141830667  0.4826306700
H  -1.0203629717 -0.7600815840 -1.1281127058
H   0.5002607845  1.3892608301  0.3840268696
H   0.5532061218  1.0109659133 -1.3299495184
H   2.6041266612  1.1483551838  1.1542479829
H   4.0974481495  1.7229678683  0.0715666338
H   3.7171109324 -0.2985972905  0.7243807292
H   4.6482845178  2.7512618980 -0.9115246824
17
Image 17  Energy = -421.93769436
C  -1.9243080793  0.3763176613  0.3662318571
O  -2.0626774150  1.5476429618  0.6468690344
C  -0.7367024999 -0.2701454044 -0.2259375275
C   0.5164022242  0.5792132075 -0.3711428952
C   1.7771952864 -0.2866517911 -0.1695171126
O   1.7440377352 -1.4281209153 -0.6904308876
C   2.8019315009  0.2966889107  0.5722710581
O   4.7155363247  2.4806493826  0.0148189651
H  -2.7739096631 -0.3064936239  0.5638573818
H  -0.5031351518 -1.1466112315  0.3832041175
H  -1.0663670555 -0.6949063444 -1.1793177218
H   0.4942951645  1.4094468491  0.3317860975
H   0.5698104660  0.9968402275 -1.3738168308
H   2.5678661426  1.1648072463  1.1658462385
H   4.0931564467  1.7219255735  0.0978269189
H   3.6907890280 -0.2867385562  0.7787737745
H   4.6460798507  2.7161357437 -0.9113233144
17
Image 18  Energy = -421.93505356
C  -1.9008448955  0.3585255907  0.4046154176
O  -2.0392593322  1.5213338592  0.7076180701
C  -0.7335065931 -0.2638293818 -0.2574753992
C   0.5202092437  0.5897794745 -0.4038734525
C   1.7836133914 -0.2656946325 -0.1743720728
O   1.7699733260 -1.4139390989 -0.7098988657
C   2.7763413170  0.3069838762  0.5929641418
O   4.7193719787  2.4645593624  0.0231872713
H  -2.7347066482 -0.3390034325  0.6271543322
H  -0.4802916353 -1.1703156277  0.2965295014
H  -1.1023294189 -0.6389695937 -1.2172651416
H   0.4817959528  1.4355388812  0.2798051445
H   0.5796199114  0.9864339116 -1.4151269837
H   2.5316440140  1.1757974014  1.1862575856
H   4.0850899427  1.7164414346  0.1364915737
H   3.6641762019 -0.2716158853  0.8283154729
H   4.6291035948  2.6779747851 -0.9049278089
17
Image 19  Energy = -421.93489910
C  -1.8729379879  0.3402605140  0.4372832541
O  -2.0121930964  1.4968265702  0.7619782625
C  -0.7268834919 -0.2579365364 -0.2823907990
C   0.5231001308  0.6012949096 -0.4349203276
C   1.7880354724 -0.2448877427 -0.1842034585
O   1.8086853095 -1.3706903378 -0.7660695302
C   2.7388061491  0.3060227881  0.6463145256
O   4.7156469709  2.4480882482  0.0178860870
H  -2.6909131541 -0.3697285970  0.6784835313
H  -0.4573945816 -1.1861148822  0.2249379788
H  -1.1319937967 -0.5911808608 -1.2431886975
H   0.4767118040  1.4599745998  0.2318282734
H   0.5846035010  0.9766246915 -1.4535626610
H   2.4871064097  1.1848891463  1.2229969045
H   4.0789456312  1.7097472934  0.1633385621
H   3.6270902409 -0.2658618062  0.8948976215
H   4.6135856528  2.6326725485 -0.9156094360
17
Image 20  Energy = -421.93417921
C  -1.8480170025  0.3195694353  0.4687002224
O  -1.9903320664  1.4697088058  0.8130698104
C  -0.7245456442 -0.2515799172 -0.3083489532
C   0.5246042633  0.6105974314 -0.4658469762
C   1.7913035640 -0.2260356727 -0.1915680813
O   1.8496529547 -1.3253567788 -0.8202718582
C   2.6954519557  0.3027651426  0.7013878044
O   4.7445294484  2.4263979322 -0.0042187357
H  -2.6476935782 -0.4042798050  0.7307637370
H  -0.4432231562 -1.2019590556  0.1480499153
H  -1.1654819957 -0.5390915309 -1.2685417101
H   0.4701481282  1.4836944163  0.1810032293
H   0.5910714785  0.9635588674 -1.4920313555
H   2.4171463427  1.1577778971  1.3035478430
H   4.0858165942  1.7153640893  0.1609277600
H   3.5792123104 -0.2640035758  0.9749766174
H   4.6203567226  2.6328727747 -0.9315993437
17
Image 21  Energy = -421.93326237
C  -1.8407300307  0.3106441295  0.4804135723
O  -1.9834922271  1.4587707789  0.8309002660
C  -0.7272900780 -0.2507638329 -0.3194063448
C   0.5228594255  0.6104961173 -0.4759014565
C   1.7899495280 -0.2215845667 -0.1908177017
O   1.8771985878 -1.2968192436 -0.8579349521
C   2.6580172903  0.2869704786  0.7465948983
O   4.7809385649  2.4210402003 -0.0303525584
H  -2.6326072853 -0.4184648990  0.7513979438
H  -0.4434058537 -1.2113166925  0.1137307608
H  -1.1813713430 -0.5154502363 -1.2803041728
H   0.4634508740  1.4887589481  0.1626274306
H   0.5930977790  0.9559173217 -1.5046510432
H   2.3616062442  1.1255002943  1.3644428690
H   4.1174427637  1.7229592707  0.1444704038
H   3.5586492484 -0.2547187141  1.0134907442
H   4.6356865538  2.6580614137 -0.9487009746
17
Image 22  Energy = -421.93232852
C  -1.8308630453  0.3024457749  0.4924292658
O  -1.9707373604  1.4480008731  0.8519994470
C  -0.7289413242 -0.2497570702 -0.3307722493
C   0.5224535050  0.6107606429 -0.4862775247
C   1.7907125068 -0.2151718596 -0.1904269850
O   1.9109627166 -1.2653674867 -0.8923386323
C   2.6203346335  0.2722602407  0.7908311077
O   4.8078700986  2.4192692546 -0.0518525481
H  -2.6177107397 -0.4296395825  0.7699323075
H  -0.4446111473 -1.2207106723  0.0785943578
H  -1.1976050943 -0.4900055504 -1.2912575785
H   0.4577647971  1.4945993470  0.1435075336
H   0.5966359122  0.9464425247 -1.5181913926
H   2.2961053290  1.0862158649  1.4276760349
H   4.1514441563  1.7197451494  0.1202277113
H   3.5421594335 -0.2377014700  1.0473279565
H   4.6440255677  2.6786161635 -0.9614090863
17
Image 23  Energy = -421.93132137
C  -1.8194790175  0.3003262182  0.5050291325
O  -1.9483616946  1.4431218681  0.8771287123
C  -0.7325541972 -0.2486690249 -0.3412275504
C   0.5234739338  0.6055796461 -0.4977387916
C   1.7912223380 -0.2158621426 -0.1873953670
O   1.9371185904 -1.2508795990 -0.9072122976
C   2.5922363407  0.2637107924  0.8214119344
O   4.8169966309  2.4257922889 -0.0591716226
H  -2.6065187018 -0.4299218002  0.7864326464
H  -0.4520358759 -1.2296130944  0.0469886081
H  -1.2160198783 -0.4655412636 -1.2999225565
H   0.4563624563  1.4988929474  0.1180097925
H   0.6047229852  0.9259206691 -1.5342041464
H   2.2245736014  1.0294413187  1.4937689868
H   4.1691764861  1.7129156331  0.0753574345
H   3.5372252788 -0.2085125183  1.0659311419
H   4.6718607552  2.7132991538 -0.9631854247
17
Image 24  Energy = -421.93120964
C  -1.7975946070  0.2826864909  0.5220975513
O  -1.9362625043  1.4215736575  0.9025441281
C  -0.7260894928 -0.2414632757 -0.3590932606
C   0.5271229618  0.6182310397 -0.5147108079
C   1.7968649080 -0.1957106185 -0.1956713642
O   1.9736200403 -1.2080267927 -0.9404273270
C   2.5660306896  0.2615542108  0.8484469102
O   4.8225488324  2.4151943292 -0.0681253567
H  -2.5652961833 -0.4623984267  0.8172942127
H  -0.4369997475 -1.2342731726 -0.0093102938
H  -1.2317838216 -0.4246065663 -1.3134287477
H   0.4530214661  1.5153116081  0.0950699920
H   0.6099102550  0.9297342366 -1.5536184600
H   2.1736671259  1.0061978572  1.5302322958
H   4.1735897112  1.7110483273  0.1005251216
H   3.5061549466 -0.2128975665  1.1082286970
H   4.6414957118  2.6878447113 -0.9700528813
17
Image 25  Energy = -421.93107857
C  -1.7752907147  0.2649011654  0.5385840708
O  -1.9240402621  1.3995431797  0.9275798490
C  -0.7200457074 -0.2344037795 -0.3767735783
C   0.5307059146  0.6306149429 -0.5313883633
C   1.8026897113 -0.1757433979 -0.2034315135
O   2.0102901753 -1.1639248252 -0.9721361999
C   2.5393264590  0.2588553864  0.8745729494
O   4.8275184666  2.4045778601 -0.0775652759
H  -2.5235463262 -0.4946141282  0.8476079444
H  -0.4225858962 -1.2377449092 -0.0657196831
H  -1.2471860375 -0.3837775693 -1.3256152754
H   0.4496918434  1.5313908005  0.0724052492
H   0.6151092937  0.9334176731 -1.5727592599
H   2.1228441986  0.9823066970  1.5654529621
H   4.1784177177  1.7097028224  0.1252634091
H   3.4746381008 -0.2172452363  1.1499799118
H   4.6114633798  2.6621425064 -0.9760570537
17
Image 26  Energy = -421.93133981
C  -1.7551650173  0.2443597138  0.5498200037
O  -1.9214003323  1.3738671174  0.9463265421
C  -0.7116819461 -0.2258835134 -0.3947590728
C   0.5333398005  0.6494321416 -0.5459539080
C   1.8090553277 -0.1475155096 -0.2128355627
O   2.0459990343 -1.1150297846 -0.9983533240
C   2.5216306708  0.2663301963  0.8903948073
O   4.8258924493  2.3898987753 -0.0881964902
H  -2.4763377271 -0.5346045135  0.8740558099
H  -0.4073749151 -1.2352460798 -0.1121380218
H  -1.2536181182 -0.3521320485 -1.3387143635
H   0.4436828408  1.5484380034  0.0590603186
H   0.6173160587  0.9534858443 -1.5871878520
H   2.0934012037  0.9782452183  1.5856077610
H   4.1873185279  1.7031437809  0.1702766406
H   3.4373283086 -0.2357353355  1.1863041193
H   4.5606141166  2.6089455018 -0.9837069733
17
Image 27  Energy = -421.93331079
C  -1.7069074777  0.1831683876  0.5615794997
O  -1.9401712864  1.2947830545  0.9777284346
C  -0.6832367180 -0.1878972460 -0.4482466833
C   0.5496026392  0.7097936924 -0.5539349232
C   1.8118527812 -0.0978385073 -0.2036753093
O   2.0421056038 -1.0727044332 -0.9820384955
C   2.5229690835  0.3030228576  0.9048181053
O   4.7413363488  2.3653041107 -0.1306656796
H  -2.3404047072 -0.6539377061  0.9113058304
H  -0.3489462275 -1.2087985772 -0.2607742882
H  -1.2494458302 -0.2403980439 -1.3846257290
H   0.4412312977  1.5937327700  0.0698077133
H   0.6540819350  1.0374514421 -1.5867692040
H   2.1199392328  1.0539228265  1.5730525023
H   4.1822570605  1.7115846520  0.3250775560
H   3.3839556415 -0.2661378738  1.2429930800
H   4.3697807922  2.3449485993 -1.0156318459
