17
Image 0  Energy = -421.92084078
C  -1.9799728508  0.5151325762  0.0126894460
O  -2.0637347092  1.7207386757 -0.0070862471
C  -0.7239850416 -0.2867523233 -0.0128295945
C   0.5569896777  0.5086307554 -0.0481292415
C   1.7966994894 -0.3580587145 -0.0583149857
O   1.6976203219 -1.5765170230 -0.2297282889
C   3.0810680528  0.3473925478  0.1153661435
O   4.3705445941  2.7079879208  0.2237466966
H  -2.9106428219 -0.0870090055  0.0577059258
H  -0.7529996456 -0.9359359644  0.8677173272
H  -0.7911943646 -0.9635032384 -0.8662880061
H   0.6079035681  1.1980084052  0.7931625694
H   0.5985289940  1.1222945990 -0.9513761111
H   3.1304360706  0.8687969001  1.0702438510
H   3.2585905634  1.1831439779 -0.5577415475
H   3.9225848844 -0.3342402348  0.0538141448
H   4.7515635847  3.2398887218 -0.4629524321
17
Image 1  Energy = -421.92249813
C  -1.9695429232  0.5287023231  0.0108459071
O  -2.0593300315  1.7321058484 -0.0027581165
C  -0.7102397034 -0.2690893002 -0.0158338402
C   0.5759893844  0.5218573173 -0.0463614182
C   1.8089623697 -0.3601480713 -0.0718978729
O   1.6949364465 -1.5717444215 -0.2736199884
C   3.0946737325  0.3162517373  0.1457330510
O   4.2133859867  2.7607240708  0.1707344621
H  -2.8928090177 -0.0823131613  0.0529349547
H  -0.7438553226 -0.9239295111  0.8590454743
H  -0.7761922445 -0.9414706551 -0.8733455761
H   0.6361181738  1.2048984599  0.7989891995
H   0.6202744022  1.1338905865 -0.9457908296
H   3.1223722780  0.7956663530  1.1211421054
H   3.3127198906  1.2062142224 -0.4710047836
H   3.9267630141 -0.3697587645  0.0701753630
H   4.6957735729  3.1881419708 -0.5289882697
17
Image 2  Energy = -421.88731455
C  -1.9677893174  0.5206810691  0.0106181854
O  -2.0620577562  1.7241939921  0.0039792066
C  -0.7014028449 -0.2747506701 -0.0221676286
C   0.5777895339  0.5398991160 -0.0516613242
C   1.8188479345 -0.3488884552 -0.0920031750
O   1.6656760437 -1.5373375545 -0.3130343055
C   3.1071859611  0.3107011106  0.1706638437
O   4.1576103846  2.7264608242  0.0989180970
H  -2.8977911226 -0.0805909862  0.0542327516
H  -0.7334381136 -0.9335640703  0.8518625004
H  -0.7562107054 -0.9499506595 -0.8792550159
H   0.6335028651  1.2184619657  0.7966552546
H   0.6119476761  1.1628099909 -0.9438012264
H   3.1066996707  0.7401503076  1.1720864053
H   3.3785233836  1.2862465914 -0.3594451878
H   3.9382649318 -0.3788097253  0.0926354370
H   4.6726418980  3.1442863511 -0.5902840411
17
Image 3  Energy = -421.88901619
C  -1.9684206851  0.5147196987  0.0127859797
O  -2.0671304447  1.7125882426  0.0073750995
C  -0.6978378620 -0.2751011104 -0.0239035375
C   0.5747061552  0.5493348044 -0.0571350996
C   1.8237960270 -0.3285414415 -0.1156246195
O   1.6710529670 -1.5091470263 -0.3967118662
C   3.1058470703  0.3113086610  0.2121005534
O   4.1789531708  2.7118484577  0.0595339353
H  -2.8962458142 -0.0890873542  0.0620509706
H  -0.7243045541 -0.9310018381  0.8520656977
H  -0.7479872371 -0.9557854236 -0.8761574923
H   0.6281631427  1.2259563890  0.7898242210
H   0.5930615174  1.1724060624 -0.9461240919
H   3.0655401362  0.6967544672  1.2315983822
H   3.4335243369  1.3473413011 -0.2703148380
H   3.9328747709 -0.3874477095  0.1418315068
H   4.6444072281  3.1038531521 -0.6831952284
17
Image 4  Energy = -421.89218194
C  -1.9713161501  0.5130129420  0.0145852985
O  -2.0700151018  1.7163064207  0.0072038891
C  -0.7014222780 -0.2732126803 -0.0243303714
C   0.5730586191  0.5493601097 -0.0582433606
C   1.8248763524 -0.3301308984 -0.1120901692
O   1.6814488568 -1.5101638619 -0.4287210588
C   3.1030036693  0.2952158229  0.2315122182
O   4.1703102786  2.7168880976  0.0289421594
H  -2.8973237030 -0.0991152170  0.0616313699
H  -0.7196150570 -0.9298336262  0.8527238258
H  -0.7518544433 -0.9547215099 -0.8771797302
H   0.6206631233  1.2258631416  0.7925858595
H   0.5844889434  1.1790696063 -0.9488761679
H   3.0456021198  0.6730590392  1.2494091184
H   3.4978023660  1.4222735558 -0.2118945700
H   3.9169576414 -0.4119835333  0.1450503724
H   4.6433347407  3.0881120080 -0.7223090109
17
Image 5  Energy = -421.89618678
C  -1.9689677637  0.5123282004  0.0135818405
O  -2.0700338679  1.7160453489  0.0087378102
C  -0.6994671363 -0.2694258961 -0.0258890183
C   0.5765593247  0.5536724714 -0.0573438502
C   1.8272903799 -0.3274838447 -0.1136288931
O   1.6782783823 -1.5074779171 -0.4386811138
C   3.1077977708  0.2884774804  0.2372560713
O   4.1284286988  2.7191895822  0.0047386126
H  -2.8947645747 -0.1019465038  0.0586639735
H  -0.7146663054 -0.9305085504  0.8484497481
H  -0.7465029764 -0.9506749464 -0.8794916246
H   0.6163759292  1.2288610966  0.7947566194
H   0.5810282396  1.1872576054 -0.9459816512
H   3.0416835784  0.6577645878  1.2544251408
H   3.5521406116  1.4805730815 -0.1492660393
H   3.9089493092 -0.4361986333  0.1371539913
H   4.6258709275  3.0495464145 -0.7474820734
17
Image 6  Energy = -421.90286078
C  -1.9675849242  0.5131048177  0.0130908731
O  -2.0766268701  1.7173048474  0.0098260828
C  -0.6982330948 -0.2620691537 -0.0245696385
C   0.5837178666  0.5525569480 -0.0508541571
C   1.8241283027 -0.3518373330 -0.1100554983
O   1.6648636690 -1.5252602333 -0.4766966766
C   3.0937124408  0.2569996258  0.2603159652
O   4.0742320452  2.6601993805 -0.0142305060
H  -2.8938166949 -0.1028922266  0.0566835140
H  -0.7119498787 -0.9300171460  0.8468913160
H  -0.7408118359 -0.9452431696 -0.8790959921
H   0.6208278108  1.2270307721  0.8006577202
H   0.5874929845  1.1863174526 -0.9402332947
H   3.0332363756  0.6986552017  1.2495043978
H   3.6419403086  1.6322826750 -0.1199510738
H   3.9124948153 -0.4522332589  0.1264941405
H   4.6023772337  2.9951003689 -0.7477774865
17
Image 7  Energy = -421.91141746
C  -1.9647645563  0.5136019450  0.0132923027
O  -2.0825336243  1.7191340235  0.0137239775
C  -0.6932567789 -0.2571790438 -0.0222714008
C   0.5929853319  0.5515802211 -0.0397428078
C   1.8234374940 -0.3685222331 -0.1064092740
O   1.6520454858 -1.5266802355 -0.5307749948
C   3.0659335710  0.1981683131  0.2890869682
O   4.0327174011  2.6931633149 -0.0262089634
H  -2.8899229817 -0.1040523980  0.0521299438
H  -0.7094629274 -0.9323388279  0.8442602597
H  -0.7282555769 -0.9357722874 -0.8806786827
H   0.6315149492  1.2203410124  0.8172982235
H   0.6048945730  1.1844606799 -0.9296273238
H   3.0246663115  0.7204506294  1.2359855548
H   3.6936507641  1.7401639889 -0.1165880374
H   3.9032258929 -0.4821434432  0.1526905553
H   4.5931251674  2.9356236226 -0.7661667021
17
Image 8  Energy = -421.91731285
C  -1.9586152940  0.5157957381  0.0158146824
O  -2.0819160034  1.7204201982  0.0296071281
C  -0.6878697334 -0.2541326403 -0.0198973251
C   0.5996057051  0.5428013348 -0.0298130513
C   1.8101960173 -0.4031545025 -0.1189425897
O   1.6082628939 -1.5171194657 -0.6520257054
C   3.0243300589  0.1084283812  0.3610544645
O   4.0260130202  2.7737975807 -0.0584044253
H  -2.8817041462 -0.1043021053  0.0432874911
H  -0.6997877494 -0.9325833370  0.8426668001
H  -0.7030249413 -0.9321491687 -0.8776951976
H   0.6592590758  1.1928705266  0.8400740114
H   0.6213868343  1.1843639601 -0.9110510461
H   3.0011800387  0.7782072792  1.2111261325
H   3.7092497143  1.8390495051 -0.0796863638
H   3.9045380694 -0.5182074200  0.2248892542
H   4.5988964023  2.8759135479 -0.8210048870
17
Image 9  Energy = -421.94222554
C  -1.9642385349  0.5076837232  0.0226203269
O  -2.0916312082  1.7096213275  0.0489489812
C  -0.6969189303 -0.2596927924 -0.0142708648
C   0.5878194707  0.5353217265 -0.0344384033
C   1.8052636025 -0.3986713489 -0.1400946712
O   1.6112389679 -1.4900093873 -0.7402139713
C   2.9934231773  0.0886538503  0.4083829229
O   4.1694397182  2.7688075573 -0.0429494171
H  -2.8846435611 -0.1151505700  0.0363458377
H  -0.7054020395 -0.9335288483  0.8486988746
H  -0.7016406642 -0.9408574455 -0.8667473824
H   0.6657076824  1.1732842302  0.8417283066
H   0.5944352115  1.1871465052 -0.9069856828
H   2.9275662068  0.8237437286  1.2021196377
H   3.8120040306  1.8525850332 -0.0344023429
H   3.8966007746 -0.5087644995  0.2950919708
H   4.5309758017  2.8698267943 -0.9238345663
17
Image 10  Energy = -421.94262862
C  -1.9774943390  0.4955128070  0.0287906499
O  -2.1034399062  1.6980543218  0.0627616184
C  -0.7081681624 -0.2723954933 -0.0084889088
C   0.5728480270  0.5348511933 -0.0426372298
C   1.7986347684 -0.3797680578 -0.1519139556
O   1.6398407438 -1.4626242025 -0.7806141270
C   2.9677412539  0.1097654505  0.4293386517
O   4.3560435096  2.7094236831 -0.0460534103
H  -2.8977366688 -0.1290321642  0.0371958616
H  -0.7140683569 -0.9381551907  0.8625544482
H  -0.7161504724 -0.9607011193 -0.8585063366
H   0.6472606468  1.1736612502  0.8333190072
H   0.5620472387  1.1825356600 -0.9188472665
H   2.8774335034  0.8694957706  1.1961428870
H   3.9245179463  1.8231430198 -0.0064995937
H   3.8799816481 -0.4769658206  0.3452831631
H   4.4407085266  2.8931997086 -0.9818256101
17
Image 11  Energy = -421.94225335
C  -1.9991688138  0.4841524504  0.0367660393
O  -2.1207806541  1.6857023181  0.0614007768
C  -0.7314049459 -0.2903971973 -0.0022344326
C   0.5448506186  0.5192711891 -0.0621362677
C   1.7941527414 -0.3704568640 -0.1578574714
O   1.6671326356 -1.4629150715 -0.7678325332
C   2.9532528404  0.1610695006  0.4147020771
O   4.5416100571  2.6180282826 -0.0325706075
H  -2.9211358070 -0.1356385538  0.0539194892
H  -0.7323609904 -0.9371605587  0.8828485300
H  -0.7586611322 -0.9886843583 -0.8405641066
H   0.6138478335  1.1782744834  0.7989759666
H   0.5259671663  1.1498992579 -0.9503991726
H   2.8390100402  0.9387076036  1.1621502437
H   4.0148467634  1.7851222896 -0.0175616572
H   3.8710447803 -0.4154949981  0.3457895753
H   4.4477968511  2.9505216060 -0.9253963961
17
Image 12  Energy = -421.94065108
C  -2.0101843707  0.4819249806  0.0371104859
O  -2.1184696922  1.6823969009  0.0389863578
C  -0.7492294938 -0.3067895148  0.0033758648
C   0.5223073056  0.5020217823 -0.0732590480
C   1.7731849523 -0.3894251915 -0.1454825474
O   1.6325198996 -1.5126114391 -0.6858113484
C   2.9361623755  0.1867789689  0.3794692866
O   4.6493571752  2.5652155902  0.0207335297
H  -2.9301311420 -0.1432573863  0.0728212099
H  -0.7526321180 -0.9417803774  0.8976863894
H  -0.7887219702 -1.0127743518 -0.8288424252
H   0.5884162620  1.1812265463  0.7731540032
H   0.4940861895  1.1149841814 -0.9746650871
H   2.8285223364  1.0046351174  1.0790292330
H   4.0632840690  1.7735162199 -0.0548861832
H   3.8778402379 -0.3403146141  0.2719048630
H   4.5336884675  3.0242527596 -0.8113247271
17
Image 13  Energy = -421.93908093
C  -2.0218784240  0.4787806787  0.0363300914
O  -2.1198617215  1.6860862067  0.0207288788
C  -0.7704330516 -0.3181643580  0.0064058020
C   0.5092403779  0.4799422657 -0.0754631919
C   1.7602862999 -0.4132756205 -0.1262088825
O   1.6055251155 -1.5786766950 -0.5716667166
C   2.9337751042  0.2079324181  0.3062017018
O   4.7098369219  2.5497807732  0.0678522388
H  -2.9484221943 -0.1298265560  0.0854972312
H  -0.7746656947 -0.9500935754  0.9021262648
H  -0.8207276126 -1.0264258993 -0.8230407878
H   0.5748520326  1.1702245083  0.7629590651
H   0.4866060659  1.0818621757 -0.9854558644
H   2.8314994408  1.0465195814  0.9853647787
H   4.1078013436  1.7910459164 -0.0716680748
H   3.8788645476 -0.3068079505  0.1869152979
H   4.6077021890  3.1010961566 -0.7068776932
17
Image 14  Energy = -421.93712666
C  -2.0196296731  0.4882635554  0.0338269889
O  -2.0996327874  1.6913102977  0.0034331691
C  -0.7836362040 -0.3286314875  0.0073572046
C   0.5043876545  0.4576742471 -0.0731363770
C   1.7541362468 -0.4350285064 -0.1080532430
O   1.5981818015 -1.6339018295 -0.4470394199
C   2.9385477961  0.2290597298  0.2255382968
O   4.6789884755  2.5635606666  0.1301442124
H  -2.9578047891 -0.1011536219  0.0931249580
H  -0.7916708472 -0.9602626714  0.9010506412
H  -0.8468172058 -1.0346709900 -0.8228161049
H   0.5700580476  1.1486326431  0.7634035251
H   0.4878229433  1.0577556601 -0.9829913771
H   2.8468588531  1.0610784308  0.9105125578
H   4.0986160272  1.8086645005 -0.0993069554
H   3.8859307204 -0.2822123602  0.0977444146
H   4.6856629342  3.1398619125 -0.6327926465
17
Image 15  Energy = -421.95051185
C  -2.0152393268  0.4897143943  0.0316619234
O  -2.0859163466  1.7004036714 -0.0032642002
C  -0.7893383780 -0.3350070874  0.0059310730
C   0.5045144882  0.4455828062 -0.0699054864
C   1.7579030296 -0.4387496903 -0.0939199491
O   1.6089702493 -1.6640583866 -0.3604568809
C   2.9440432492  0.2497524066  0.1699519378
O   4.6413961760  2.5604797665  0.1611762551
H  -2.9608620603 -0.0829696559  0.0936047501
H  -0.8016476745 -0.9709472801  0.8958851568
H  -0.8629514392 -1.0382735652 -0.8265483399
H   0.5641459597  1.1374417374  0.7678882157
H   0.4894699352  1.0491429991 -0.9778358391
H   2.8669957967  1.0621836381  0.8786991788
H   4.0593611337  1.8259574252 -0.1315539172
H   3.8878414270 -0.2686649308  0.0447663756
H   4.7413129479  3.1480111701 -0.5860801944
17
Image 16  Energy = -421.93429638
C  -2.0181267289  0.4962964266  0.0326363568
O  -2.0872486222  1.7002332395 -0.0100445671
C  -0.7925320873 -0.3328038115  0.0121529080
C   0.5069415832  0.4336859840 -0.0605429682
C   1.7437585604 -0.4801579547 -0.0848378627
O   1.5510863004 -1.6888408987 -0.3805407450
C   2.9401620861  0.1961274731  0.2039004434
O   4.6447275005  2.6331797590  0.1757436238
H  -2.9612213213 -0.0835900787  0.0954635032
H  -0.8048293869 -0.9736470559  0.8984664540
H  -0.8608583378 -1.0320501107 -0.8239809327
H   0.5750341803  1.1348402600  0.7691780751
H   0.5082661675  1.0277262699 -0.9746087235
H   2.8547079512  1.0843653676  0.8254170462
H   4.0840165068  1.8774192549 -0.0814519652
H   3.8986782153 -0.2842565170  0.0155530710
H   4.7674359158  3.1614716753 -0.6125041498
17
Image 17  Energy = -421.95063527
C  -2.0149945395  0.4910546232  0.0315040132
O  -2.0870619912  1.7014346886 -0.0039690157
C  -0.7890720164 -0.3332446642  0.0073238781
C   0.5057109404  0.4447100873 -0.0673820317
C   1.7569012389 -0.4413734529 -0.0908936332
O   1.6054758644 -1.6637199807 -0.3689068942
C   2.9442319507  0.2425031085  0.1765640209
O   4.6429189230  2.5613775315  0.1610960218
H  -2.9594199153 -0.0836561922  0.0932076654
H  -0.8040880058 -0.9705648466  0.8961837263
H  -0.8617672135 -1.0356792338 -0.8258714430
H   0.5669721926  1.1372175766  0.7689918358
H   0.4944323101  1.0455137555 -0.9769096353
H   2.8679883207  1.0701067831  0.8658047363
H   4.0567136867  1.8247497855 -0.1213235795
H   3.8914884774 -0.2670682590  0.0438494447
H   4.7335694101  3.1466383144 -0.5892691398
17
Image 18  Energy = -421.95364225
C  -2.0201499074  0.4815976987  0.0341973774
O  -2.1138135826  1.6917328765  0.0079419277
C  -0.7813940341 -0.3225007106  0.0073784353
C   0.5074291523  0.4634738551 -0.0720796626
C   1.7591142773 -0.4217808995 -0.1077178194
O   1.6097047777 -1.6212838834 -0.4831960061
C   2.9391116821  0.2314648777  0.2393994291
O   4.6997317140  2.5460488040  0.1050735380
H  -2.9571304073 -0.1090224349  0.0910645675
H  -0.7939976179 -0.9585668886  0.8967091851
H  -0.8432973592 -1.0269666696 -0.8230382473
H   0.5665957460  1.1558395957  0.7624174980
H   0.4908579253  1.0613746358 -0.9830587593
H   2.8597036918  1.0542300737  0.9335391670
H   4.0852674037  1.8037092374 -0.0918318856
H   3.8814978604 -0.2907848407  0.1324446088
H   4.6607693904  3.1314347590 -0.6492433147
17
Image 19  Energy = -421.95438620
C  -2.0372109157  0.4637347191  0.0416280063
O  -2.1448271237  1.6710121110  0.0180939659
C  -0.7867730998 -0.3252602633  0.0091516143
C   0.4904678492  0.4732724925 -0.0858462221
C   1.7493179116 -0.4031082995 -0.1252716917
O   1.6119049750 -1.5941016105 -0.5257097868
C   2.9249136833  0.2433336723  0.2480699670
O   4.7987910217  2.5217823483  0.0950321877
H  -2.9688140533 -0.1302065310  0.1020935228
H  -0.7875239187 -0.9559536515  0.9018170998
H  -0.8445675998 -1.0358537761 -0.8143167080
H   0.5495957012  1.1758568155  0.7408157619
H   0.4680105895  1.0585651742 -1.0047467470
H   2.8380691542  1.0877877155  0.9122925895
H   4.1783567169  1.7765087973 -0.0546436038
H   3.8684574026 -0.2800981470  0.1731733728
H   4.6418313434  3.1227300670 -0.6316337910
17
Image 20  Energy = -421.95482219
C  -2.0333072987  0.4626491012  0.0405676255
O  -2.1405475354  1.6691873861  0.0265350373
C  -0.7845606385 -0.3241923004  0.0100303420
C   0.4943098101  0.4764457049 -0.0800744803
C   1.7548447406 -0.3954397833 -0.1306311844
O   1.6274272298 -1.5768134250 -0.5492001558
C   2.9300443458  0.2473903863  0.2576090159
O   4.7851325746  2.5342196075  0.0687738346
H  -2.9666137553 -0.1237991841  0.0904309401
H  -0.7865996003 -0.9571749897  0.9004750364
H  -0.8346125212 -1.0346424576 -0.8134706782
H   0.5542511241  1.1681735066  0.7538532141
H   0.4711408523  1.0720603102 -0.9909384433
H   2.8352444122  1.0784907356  0.9348275417
H   4.1804179509  1.7683026386 -0.0401596630
H   3.8648842475 -0.2922421919  0.2027436028
H   4.5985435149  3.0973861821 -0.6813716158
17
Image 21  Energy = -421.95598785
C  -2.0375622709  0.4515887086  0.0478605483
O  -2.1624385723  1.6610760194  0.0393096121
C  -0.7771264611 -0.3160798430  0.0086224640
C   0.4977176965  0.4990192089 -0.0994520809
C   1.7629770525 -0.3655763028 -0.1550224758
O   1.6414995377 -1.5289741090 -0.6448238981
C   2.9281088051  0.2425802594  0.2998659186
O   4.8002902604  2.5140816302  0.0443049176
H  -2.9661337234 -0.1477437720  0.1033503860
H  -0.7592510850 -0.9449683262  0.9033498570
H  -0.8176874630 -1.0353868276 -0.8099358073
H   0.5600371733  1.1991846974  0.7264652641
H   0.4631278648  1.0833665477 -1.0171225069
H   2.8205705508  1.0625866455  0.9916726606
H   4.1862063996  1.7475338784 -0.0122298149
H   3.8560532089 -0.3152775219  0.2728380067
H   4.5536110109  3.0629885773 -0.6990523102
17
Image 22  Energy = -421.95577690
C  -2.0535241574  0.4398940816  0.0581970650
O  -2.1812827110  1.6430174685  0.0422432876
C  -0.7873692782 -0.3266579358  0.0096172699
C   0.4754278313  0.4975990897 -0.1221879939
C   1.7481090467 -0.3612704463 -0.1696804572
O   1.6327751616 -1.5251514353 -0.6360441097
C   2.9129012272  0.2621757962  0.2761354221
O   4.8862730610  2.5128062596  0.0865397500
H  -2.9765787487 -0.1674292281  0.1294611103
H  -0.7556102575 -0.9445933822  0.9120202573
H  -0.8374928245 -1.0534453456 -0.8008852652
H   0.5352478864  1.2131008886  0.6916745661
H   0.4261585694  1.0651337833 -1.0504058209
H   2.8114872204  1.1282515692  0.9079449408
H   4.3003008538  1.7294970685  0.0530632366
H   3.8438896207 -0.2871018616  0.2555824950
H   4.5692877374  3.0441750824 -0.6432744240
17
Image 23  Energy = -421.95528531
C  -2.0600183053  0.4292897255  0.0592224859
O  -2.1905910181  1.6334283477  0.0372057096
C  -0.7975195499 -0.3342461262  0.0115632850
C   0.4612079546  0.4905580168 -0.1267513073
C   1.7339711277 -0.3640311782 -0.1680108747
O   1.6192495457 -1.5431677340 -0.5996886332
C   2.8999642241  0.2722459722  0.2465324394
O   4.9333481279  2.5249638575  0.1265979435
H  -2.9796492732 -0.1754302654  0.1352610678
H  -0.7650820028 -0.9457324854  0.9170194857
H  -0.8520868540 -1.0637341413 -0.7950782466
H   0.5188849955  1.2079549337  0.6847495159
H   0.4084270124  1.0523480635 -1.0574276502
H   2.8132367079  1.1778737289  0.8188560939
H   4.3712800664  1.7282243626  0.1034015084
H   3.8399109555 -0.2570301738  0.2146613863
H   4.5954669036  3.0364838100 -0.6081144987
17
Image 24  Energy = -421.95513359
C  -2.0616598680  0.4277200395  0.0758833361
O  -2.1930587275  1.6339938099  0.0524033545
C  -0.7995142501 -0.3387348039  0.0085617290
C   0.4557347930  0.4884648932 -0.1449810325
C   1.7280134379 -0.3652826264 -0.1710100125
O   1.6092535906 -1.5545787119 -0.5945767846
C   2.8872991471  0.2749290140  0.2405121672
O   4.9517653333  2.5447839831  0.1573365228
H  -2.9789994264 -0.1872036084  0.1721643694
H  -0.7533730210 -0.9504754856  0.9154561419
H  -0.8700168177 -1.0657721363 -0.8014870819
H   0.5104445133  1.2176189964  0.6572388383
H   0.4004592432  1.0336256327 -1.0865220629
H   2.8030850484  1.2106229897  0.7652946458
H   4.4108547471  1.7364314614  0.1600409329
H   3.8346165390 -0.2399956843  0.2054391382
H   4.6150935951  3.0038525726 -0.6117540133
17
Image 25  Energy = -421.95539532
C  -2.0565384594  0.4310876816  0.0769704868
O  -2.1876595984  1.6376294663  0.0573179698
C  -0.7941960750 -0.3350112822  0.0062037340
C   0.4611034882  0.4928417138 -0.1445371968
C   1.7330930024 -0.3599912480 -0.1715473650
O   1.6159119191 -1.5422433901 -0.6143529138
C   2.8907925153  0.2699442024  0.2600395382
O   4.9306037845  2.5342011790  0.1328407989
H  -2.9737983979 -0.1844002319  0.1723365741
H  -0.7481505565 -0.9508672884  0.9104540918
H  -0.8639969122 -1.0585918870 -0.8069704759
H   0.5163271649  1.2199150754  0.6589961240
H   0.4075844762  1.0383249752 -1.0856926222
H   2.8056854251  1.1886405366  0.8135884770
H   4.3782731751  1.7322757848  0.1312990977
H   3.8346282074 -0.2517778628  0.2332173462
H   4.6003358456  3.0080240941 -0.6301635549
17
Image 26  Energy = -421.95588162
C  -2.0490125434  0.4365097687  0.0872848561
O  -2.1793394938  1.6425572612  0.0749521247
C  -0.7863413638 -0.3287081523 -0.0004655968
C   0.4697807381  0.5004559913 -0.1507835799
C   1.7414894619 -0.3538262253 -0.1739801758
O   1.6275926244 -1.5203936797 -0.6482228016
C   2.8939770123  0.2608176585  0.2986979647
O   4.8951321948  2.5237345372  0.1020247921
H  -2.9619401388 -0.1834262669  0.1890605347
H  -0.7317791996 -0.9553415083  0.8970415810
H  -0.8604592833 -1.0435146584 -0.8220691675
H   0.5246142090  1.2296852813  0.6507465589
H   0.4197435659  1.0419100047 -1.0945629305
H   2.7972969234  1.1606629761  0.8826446457
H   4.3251915240  1.7321130785  0.0982469328
H   3.8337767536 -0.2707124036  0.2808411098
H   4.5902770299  2.9974768549 -0.6714569333
17
Image 27  Energy = -421.95636405
C  -2.0366160265  0.4402570024  0.1039669899
O  -2.1708921770  1.6458105574  0.1045925576
C  -0.7743978428 -0.3209667765 -0.0128413896
C   0.4805466494  0.5105114729 -0.1608487880
C   1.7515067034 -0.3432957432 -0.1757218108
O   1.6477281143 -1.4973613836 -0.6813420123
C   2.8933029565  0.2548042804  0.3412385407
O   4.8460118734  2.5090344051  0.0688456036
H  -2.9454742945 -0.1835018104  0.2155370047
H  -0.7090971300 -0.9650640439  0.8715668179
H  -0.8611564277 -1.0200274737 -0.8467441249
H   0.5326408940  1.2421006565  0.6384624418
H   0.4362663078  1.0474010196 -1.1072240433
H   2.7831230334  1.1295276343  0.9605390977
H   4.2511731046  1.7323095796  0.0660297203
H   3.8276868834 -0.2872668639  0.3427826490
H   4.5976469713  2.9757272377 -0.7288391811
17
Image 28  Energy = -421.95695924
C  -2.0239197821  0.4408223023  0.1276130404
O  -2.1641811057  1.6453208838  0.1509779386
C  -0.7617479454 -0.3122725791 -0.0316677752
C   0.4914760091  0.5242947348 -0.1759121191
C   1.7637431906 -0.3296465296 -0.1770707340
O   1.6717941363 -1.4701566452 -0.7133610199
C   2.8909186427  0.2530659242  0.3884732338
O   4.7962067588  2.4910804549  0.0335507131
H  -2.9269082269 -0.1889359111  0.2505851042
H  -0.6791087950 -0.9804980887  0.8331759125
H  -0.8671147818 -0.9896523066 -0.8815104513
H   0.5354569783  1.2628482074  0.6180633134
H   0.4573156773  1.0525188129 -1.1273377744
H   2.7602617621  1.1026237387  1.0377456227
H   4.1757350600  1.7298504645  0.0409848684
H   3.8207131756 -0.2984412117  0.4181106129
H   4.6093595984  2.9371783768 -0.7924197974
17
Image 29  Energy = -421.95771838
C  -2.0081750338  0.4368269125  0.1634811425
O  -2.1559840210  1.6389280715  0.2288811633
C  -0.7471934927 -0.3020432688 -0.0595411806
C   0.5026953868  0.5406597117 -0.2029874755
C   1.7736711507 -0.3121377098 -0.1762737764
O   1.6986698278 -1.4432828094 -0.7360760494
C   2.8779853085  0.2575856415  0.4410401910
O   4.7521051223  2.4729365323  0.0020863619
H  -2.9034560031 -0.2023092589  0.2943109459
H  -0.6360802710 -1.0035244793  0.7753814785
H  -0.8811842474 -0.9478881681 -0.9300141009
H   0.5335151951  1.2895392549  0.5817441957
H   0.4821487884  1.0543005071 -1.1622759011
H   2.7296998145  1.0967915824  1.0996620072
H   4.1190079540  1.7186545296  0.0278453497
H   3.7994789010 -0.3054068199  0.5056831442
H   4.6130964406  2.8803699481 -0.8529471332
17
Image 30  Energy = -421.93952167
C  -1.9907209946  0.4262137440  0.2115330864
O  -2.1463603627  1.6220515724  0.3414160013
C  -0.7338949958 -0.2910965932 -0.0970318598
C   0.5100242439  0.5587131174 -0.2436694499
C   1.7826702803 -0.3018222219 -0.1799499062
O   1.7117314820 -1.4171055601 -0.7470188739
C   2.8638038249  0.2687091983  0.4892533797
O   4.7214685422  2.4565045734 -0.0165118097
H  -2.8759154772 -0.2263547280  0.3454069812
H  -0.5874806596 -1.0325991021  0.6979015700
H  -0.9087468423 -0.8966865135 -0.9896889291
H   0.5296576450  1.3255739660  0.5245502657
H   0.5118472478  1.0498609717 -1.2141169116
H   2.6930664764  1.1122031790  1.1374130669
H   4.0884944293  1.7055251357  0.0363588601
H   3.7714592093 -0.3068882665  0.6030393376
H   4.6088961882  2.8171969746 -0.8988851390
17
Image 31  Energy = -421.93910484
C  -1.9705720650  0.4087354607  0.2652212635
O  -2.1281668017  1.5948900060  0.4612561641
C  -0.7281768034 -0.2795680717 -0.1400969535
C   0.5145504722  0.5768814718 -0.2888780202
C   1.7764957987 -0.2881358765 -0.1777038319
O   1.7021276353 -1.4162411148 -0.7291314848
C   2.8427202134  0.2753332423  0.5142916116
O   4.7091116815  2.4620133859 -0.0151265770
H  -2.8433547983 -0.2575936728  0.4093510783
H  -0.5408460141 -1.0682243536  0.5977953145
H  -0.9453390245 -0.8365080598 -1.0557545297
H   0.5243136826  1.3636342548  0.4584780299
H   0.5407379080  1.0396357656 -1.2724351027
H   2.6575319812  1.1299827805  1.1441829637
H   4.0858631075  1.7038822394  0.0662188180
H   3.7416469260 -0.3023424418  0.6825529411
H   4.6113563154  2.7636256705 -0.9202218313
17
Image 32  Energy = -421.93856937
C  -1.9502988506  0.3924207754  0.3164714260
O  -2.1070206574  1.5691483970  0.5624050032
C  -0.7288000047 -0.2713225080 -0.1831098581
C   0.5172302911  0.5837443043 -0.3305548889
C   1.7776847346 -0.2800852539 -0.1771273709
O   1.7147846788 -1.4165676730 -0.7135115578
C   2.8256719519  0.2873799931  0.5375867689
O   4.6981808419  2.4645085295 -0.0000541266
H  -2.8108160757 -0.2854603422  0.4808640111
H  -0.5091918397 -1.1042310938  0.4927168722
H  -0.9981835792 -0.7701331274 -1.1189134628
H   0.5132206047  1.3875012094  0.3984823345
H   0.5622294022  1.0228616722 -1.3236001502
H   2.6316278280  1.1548200453  1.1475751869
H   4.0768745595  1.7069092057  0.0965929606
H   3.7152092281 -0.2960340359  0.7341785800
H   4.6215962641  2.7245384665 -0.9200018548
17
Image 33  Energy = -421.93804606
C  -1.9260613655  0.3755843782  0.3605699426
O  -2.0778348766  1.5453651064  0.6398473147
C  -0.7296984259 -0.2660216557 -0.2208778928
C   0.5178409810  0.5895721160 -0.3663898147
C   1.7783783203 -0.2691574700 -0.1780239753
O   1.7320112143 -1.4080939203 -0.7109602198
C   2.8081618455  0.2998713665  0.5596331862
O   4.6924313736  2.4585772385  0.0095344692
H  -2.7729133850 -0.3125522760  0.5508588094
H  -0.4861734411 -1.1373885906  0.3937238070
H  -1.0454729785 -0.7071768039 -1.1713046885
H   0.5043893594  1.4077422082  0.3459221668
H   0.5789360104  1.0085693946 -1.3668488137
H   2.6000329721  1.1708864621  1.1585213692
H   4.0672931262  1.7065861031  0.1248496952
H   3.6896604709 -0.2835322576  0.7890634617
H   4.6190190394  2.6911687891 -0.9181197259
17
Image 34  Energy = -421.93541271
C  -1.9036978714  0.3574024997  0.3993882054
O  -2.0564669660  1.5195489627  0.6981808441
C  -0.7275919884 -0.2605673343 -0.2535974355
C   0.5213540176  0.5994364764 -0.4000981729
C   1.7848807230 -0.2471724610 -0.1812962020
O   1.7664308056 -1.3863717512 -0.7442349432
C   2.7741533124  0.3004159725  0.5992213567
O   4.6943683304  2.4441567158  0.0149998644
H  -2.7344948395 -0.3432908907  0.6201663013
H  -0.4608871018 -1.1603950868  0.3067349029
H  -1.0828123728 -0.6520517986 -1.2116628349
H   0.4902252245  1.4324276257  0.2937964169
H   0.5862057378  0.9974139725 -1.4097224843
H   2.5675879621  1.1866389787  1.1825186658
H   4.0621997738  1.7046913429  0.1598008796
H   3.6641503541 -0.2703113133  0.8414082626
H   4.6043950460  2.6480290764 -0.9156045880
17
Image 35  Energy = -421.93525043
C  -1.8722060004  0.3364774939  0.4360442700
O  -2.0262869809  1.4917522008  0.7582980377
C  -0.7196277948 -0.2535864401 -0.2826888442
C   0.5250034743  0.6130332975 -0.4360713546
C   1.7923212465 -0.2258562285 -0.1974737675
O   1.8043746968 -1.3471282394 -0.7858305851
C   2.7485339327  0.3155859175  0.6339655110
O   4.6907332014  2.4242309707  0.0118993754
H  -2.6850384040 -0.3782413883  0.6802343290
H  -0.4356420382 -1.1779419715  0.2252688372
H  -1.1166376713 -0.5969819355 -1.2430159161
H   0.4858467772  1.4597732425  0.2410562956
H   0.5917365813  0.9914165913 -1.4526902461
H   2.5122513762  1.1864478853  1.2284435717
H   4.0491048656  1.6976720529  0.1892041981
H   3.6176799953 -0.2667674459  0.9180242354
H   4.5878535962  2.6001144490 -0.9246677826
17
Image 36  Energy = -421.93483907
C  -1.8459851843  0.3152559960  0.4658712601
O  -2.0037611306  1.4645968348  0.8056311700
C  -0.7161304945 -0.2476762637 -0.3088693731
C   0.5269223297  0.6227317572 -0.4641290076
C   1.7954697945 -0.2084078757 -0.2012168415
O   1.8422233950 -1.3081009372 -0.8285611724
C   2.7103859877  0.3188249064  0.6839629988
O   4.7131074752  2.4000628162 -0.0015180093
H  -2.6392771969 -0.4144414307  0.7305398115
H  -0.4205355847 -1.1941348413  0.1480724604
H  -1.1507689919 -0.5421908961 -1.2694004620
H   0.4772057990  1.4828599622  0.1958983793
H   0.5964225044  0.9823605171 -1.4876623009
H   2.4460645719  1.1753576207  1.2905634831
H   4.0543940481  1.6952383799  0.1939893818
H   3.5777519118 -0.2613082528  0.9795249183
H   4.5865111204  2.5889722046 -0.9326970251
17
Image 37  Energy = -421.93376656
C  -1.8334163751  0.3022263073  0.4821333921
O  -1.9900351411  1.4483049733  0.8321245572
C  -0.7182036644 -0.2463892062 -0.3245485596
C   0.5260998752  0.6244236909 -0.4786760673
C   1.7958297968 -0.2019644209 -0.1993757159
O   1.8811545587 -1.2714191238 -0.8744039907
C   2.6640821937  0.3033579894  0.7421557356
O   4.7613986212  2.3954620454 -0.0323610721
H  -2.6169571168 -0.4348614801  0.7571193322
H  -0.4225754133 -1.2076876339  0.1001145007
H  -1.1739008243 -0.5077043690 -1.2854534679
H   0.4671455690  1.4936422535  0.1698399992
H   0.5972147663  0.9740960509 -1.5063455443
H   2.3632495204  1.1325930359  1.3708875332
H   4.0995893770  1.7016304661  0.1714553624
H   3.5528162794 -0.2494692288  1.0266493681
H   4.5965080091  2.6137602694 -0.9513154798
17
Image 38  Energy = -421.93267335
C  -1.8227888352  0.2965870396  0.4944286528
O  -1.9721534842  1.4399045343  0.8558133419
C  -0.7211995055 -0.2451939743 -0.3359364351
C   0.5265021250  0.6216764863 -0.4905843145
C   1.7952346361 -0.2024375312 -0.1976811994
O   1.9091090188 -1.2544535729 -0.8959438094
C   2.6272334911  0.2883654200  0.7820836257
O   4.7945245154  2.4033461074 -0.0529495676
H  -2.6033856687 -0.4418353464  0.7748493893
H  -0.4289843956 -1.2169137180  0.0667529639
H  -1.1921206977 -0.4827116105 -1.2958482785
H   0.4631168209  1.4987839235  0.1474614415
H   0.6007162891  0.9619299076 -1.5214181498
H   2.2883379052  1.0843333663  1.4338838843
H   4.1376090458  1.7073224436  0.1426717241
H   3.5373816115 -0.2344529234  1.0548701795
H   4.6108671282  2.6457508767 -0.9624529741
17
Image 39  Energy = -421.93228541
C  -1.8163353160  0.2920048812  0.5012482497
O  -1.9638750425  1.4336616856  0.8684033790
C  -0.7221108593 -0.2442759295 -0.3428217647
C   0.5266375710  0.6216901678 -0.4977668525
C   1.7948689609 -0.2006610893 -0.1976217123
O   1.9246684486 -1.2436381020 -0.9064743262
C   2.6096732241  0.2815367327  0.8004852096
O   4.8147608725  2.4040610128 -0.0652702989
H  -2.5933144830 -0.4487554968  0.7858065399
H  -0.4298841384 -1.2213594690  0.0468273138
H  -1.2021419988 -0.4681309547 -1.3015419360
H   0.4611393014  1.5016198868  0.1362009249
H   0.6015291323  0.9586152918 -1.5298347874
H   2.2553501237  1.0646270693  1.4592259476
H   4.1519651119  1.7176758085  0.1390980160
H   3.5242806824 -0.2339416454  1.0727527460
H   4.6127884247  2.6552710599 -0.9687159782
17
Image 40  Energy = -421.93208885
C  -1.7976761516  0.2757578787  0.5166043629
O  -1.9525753983  1.4127627025  0.8947427255
C  -0.7184944206 -0.2371483119 -0.3623999171
C   0.5297416335  0.6325170611 -0.5143887518
C   1.7997404170 -0.1833488645 -0.2033033414
O   1.9566038300 -1.2094526090 -0.9305941118
C   2.5877260771  0.2830723904  0.8243119157
O   4.8181371419  2.3971593950 -0.0746380272
H  -2.5560363860 -0.4784200518  0.8166698758
H  -0.4222950421 -1.2255759124 -0.0062721249
H  -1.2156478216 -0.4303553377 -1.3193461022
H   0.4590548664  1.5163645300  0.1134480231
H   0.6071892203  0.9634974596 -1.5484129547
H   2.2079435180  1.0388582151  1.5002433923
H   4.1629090763  1.7142007585  0.1599894284
H   3.4991632893 -0.2320216630  1.1081755706
H   4.5845163923  2.6321324308 -0.9748295366
17
Image 41  Energy = -421.93193581
C  -1.7772221110  0.2581461048  0.5323744593
O  -1.9420774414  1.3896876924  0.9221631964
C  -0.7148000488 -0.2288511824 -0.3829836520
C   0.5332538669  0.6444053990 -0.5312382543
C   1.8054002738 -0.1646353806 -0.2087305036
O   1.9930037491 -1.1712107403 -0.9555444375
C   2.5640515974  0.2844651877  0.8496264321
O   4.8197246850  2.3903238230 -0.0841729385
H  -2.5131633390 -0.5123069933  0.8480117826
H  -0.4153642856 -1.2283903782 -0.0627348829
H  -1.2305129607 -0.3890894924 -1.3367093658
H   0.4551978942  1.5326219866  0.0900006556
H   0.6139503192  0.9687619711 -1.5673952893
H   2.1595634765  1.0143317830  1.5402383712
H   4.1740787678  1.7113855077  0.1841505088
H   3.4707042848 -0.2343056061  1.1437307602
H   4.5542117129  2.6046597234 -0.9807865701
17
Image 42  Energy = -421.93219510
C  -1.7421436243  0.2218708120  0.5524675471
O  -1.9379412242  1.3441397403  0.9545683304
C  -0.7007413229 -0.2133253511 -0.4131263314
C   0.5375777863  0.6761949577 -0.5529621443
C   1.8133738788 -0.1213941493 -0.2207874652
O   2.0489808167 -1.0887877362 -1.0045961975
C   2.5288124679  0.2884047499  0.8830818517
O   4.8079700549  2.3687401559 -0.1023721193
H  -2.4316668067 -0.5800589076  0.8931178252
H  -0.3833431927 -1.2239960319 -0.1516684615
H  -1.2425084766 -0.3278462854 -1.3588457372
H   0.4441754599  1.5649476185  0.0657231893
H   0.6219444691  0.9974617278 -1.5898164476
H   2.1071631410  1.0063246542  1.5755172590
H   4.1957148316  1.7008196674  0.2556588776
H   3.4135933523 -0.2532238980  1.2034349034
H   4.4690385535  2.5097282053 -0.9893940400
17
Image 43  Energy = -421.93301513
C  -1.7237612765  0.1943412375  0.5521043727
O  -1.9485026570  1.3094655739  0.9637013312
C  -0.6867509840 -0.1931278177 -0.4376179282
C   0.5484189418  0.7013141841 -0.5430858299
C   1.8108019050 -0.1098659755 -0.2002224685
O   2.0269991321 -1.0923402418 -0.9727821623
C   2.5376415129  0.3010130846  0.8942919135
O   4.7448263243  2.3692428650 -0.1244078815
H  -2.3746800655 -0.6337058484  0.8918634957
H  -0.3568071307 -1.2114272041 -0.2286445572
H  -1.2398854018 -0.2614877535 -1.3807096074
H   0.4451424174  1.5819734756  0.0859338033
H   0.6513400251  1.0348295135 -1.5743274517
H   2.1408111303  1.0540669333  1.5640099461
H   4.1728456793  1.7088016880  0.3055604053
H   3.4074258302 -0.2602652038  1.2221523481
H   4.3941348231  2.3771713576 -1.0178191020
17
Image 44  Energy = -421.93362863
C  -1.6593742781  0.1460818242  0.5836378530
O  -1.9191631285  1.2459336959  1.0261799791
C  -0.6807871472 -0.1628984693 -0.4877401161
C   0.5626854098  0.7306895046 -0.5748045798
C   1.8133607826 -0.0768755842 -0.1870098478
O   2.0561104405 -1.0679171363 -0.9508395519
C   2.5097127609  0.3250322583  0.9294368438
O   4.6917155980  2.3546071051 -0.1585433593
H  -2.2378654579 -0.7176159705  0.9643327166
H  -0.3397791866 -1.1932142087 -0.3808036855
H  -1.2739618581 -0.1461960278 -1.4115366961
H   0.4418369497  1.6196517144  0.0390519633
H   0.6902307068  1.0509515656 -1.6112854762
H   2.0933708819  1.0809137804  1.5852035520
H   4.1553872421  1.7301404382  0.3592640723
H   3.3363726234 -0.2767776616  1.3053803011
H   4.3101474761  2.2274929721 -1.0299235591
17
Image 45  Energy = -421.91888134
C  -1.5830732053  0.1304290874  0.6302667162
O  -1.8195351507  1.2156799542  1.0962176510
C  -0.6714131247 -0.1565630304 -0.5195637841
C   0.5670152008  0.7360602684 -0.6273177306
C   1.8153050530 -0.0609353192 -0.2041962780
O   2.1151483714 -1.0188891472 -0.9675198672
C   2.4477462136  0.3371409500  0.9608928702
O   4.6670383443  2.3298194737 -0.1479747873
H  -2.1285013481 -0.7500402009  1.0278436696
H  -0.3442042018 -1.1955427438 -0.4682524681
H  -1.3170376117 -0.0835968551 -1.4024051282
H   0.4348955605  1.6452281309 -0.0435492202
H   0.6994778351  1.0172430151 -1.6713376453
H   2.0029772396  1.0823461763  1.6078463974
H   4.1217355093  1.7218646074  0.3825683781
H   3.2566861713 -0.2704873220  1.3651348938
H   4.2857390872  2.1902428633 -1.0186533327
17
Image 46  Energy = -421.91902810
C  -1.5111329592  0.1097496330  0.6680366946
O  -1.6761673600  1.1784632234  1.1970276369
C  -0.6694450254 -0.1550842717 -0.5405903579
C   0.5645132799  0.7378253717 -0.6804275461
C   1.8149548649 -0.0361028374 -0.2250669384
O   2.1767576693 -0.9650533822 -0.9969230973
C   2.3794331990  0.3472782204  0.9810166939
O   4.6657755578  2.3118624597 -0.1248007869
H  -2.0718159299 -0.7681172412  1.0503077713
H  -0.3481070612 -1.1974781840 -0.5275660609
H  -1.3569801709 -0.0540901484 -1.3883390248
H   0.4239277394  1.6646930433 -0.1266578370
H   0.6965194456  0.9825417046 -1.7335593206
H   1.8874674075  1.0664803267  1.6234783721
H   4.1180417601  1.7084502163  0.4065045639
H   3.1859010520 -0.2487218433  1.4090846061
H   4.2703563446  2.1873037919 -0.9915251532
17
Image 47  Energy = -421.91820563
C  -1.4890751953  0.0876734041  0.6826293332
O  -1.6302653311  1.1457431171  1.2394624092
C  -0.6709278103 -0.1603828876 -0.5471691008
C   0.5528464325  0.7438911228 -0.7023509515
C   1.8199068252  0.0005605814 -0.2358093288
O   2.2636915287 -0.8603836039 -1.0460386654
C   2.3132830691  0.3263976950  1.0165576304
O   4.7177180740  2.3060226419 -0.1116528228
H  -2.0539588340 -0.7921599715  1.0547123175
H  -0.3479944043 -1.2027509718 -0.5476785025
H  -1.3742756122 -0.0560963642 -1.3819326874
H   0.3947487645  1.6778875171 -0.1647238363
H   0.6835479688  0.9685648156 -1.7598445470
H   1.7844658811  1.0098687286  1.6691345807
H   4.1640560735  1.6651767504  0.3651511104
H   3.1161967792 -0.2687901498  1.4483425065
H   4.3060356419  2.2787778667 -0.9787898092
17
Image 48  Energy = -421.91660631
C  -1.4991679308  0.0862305784  0.6797169916
O  -1.6496749484  1.1461504600  1.2310333148
C  -0.6722424044 -0.1632408110 -0.5444185669
C   0.5481682980  0.7467894712 -0.6972589175
C   1.8185619267  0.0125978017 -0.2224818907
O   2.3139203822 -0.7989706444 -1.0558255728
C   2.2617451075  0.2843081894  1.0599307364
O   4.7739511807  2.3123433833 -0.1416654634
H  -2.0603611149 -0.7950511728  1.0538848471
H  -0.3445338630 -1.2043287464 -0.5347106375
H  -1.3700743488 -0.0715969156 -1.3853268426
H   0.3803682468  1.6818166129 -0.1634271962
H   0.6835533110  0.9684861249 -1.7547563515
H   1.7278278643  0.9579978579  1.7185615599
H   4.2082134105  1.6423524675  0.2781422660
H   3.0668176227 -0.3128455162  1.4853696143
H   4.3629273105  2.3769609123 -1.0067692057
17
Image 49  Energy = -421.91515419
C  -1.5033344312  0.0870206926  0.6722201165
O  -1.6606412674  1.1456806846  1.2253403494
C  -0.6702931414 -0.1639793903 -0.5390901923
C   0.5472425651  0.7471011545 -0.6899436659
C   1.8203982826  0.0302825423 -0.2091897768
O   2.3703896384 -0.7331000350 -1.0577266096
C   2.2109915316  0.2490867687  1.0970305739
O   4.8182946612  2.3029198992 -0.1879290874
H  -2.0643277925 -0.7838103102  1.0559092655
H  -0.3397656725 -1.2016464770 -0.5197147734
H  -1.3622515267 -0.0871019145 -1.3844965251
H   0.3721824366  1.6848910115 -0.1673374673
H   0.6863039503  0.9666760966 -1.7457060906
H   1.6589397440  0.9010307422  1.7594255664
H   4.2550335481  1.6121295390  0.2007863597
H   3.0210077825 -0.3386779127  1.5247462879
H   4.3898297386  2.4514963557 -1.0343258589
17
Image 50  Energy = -421.92977131
C  -1.4849030176  0.0885234848  0.6789223246
O  -1.6532091033  1.1567174287  1.2217903211
C  -0.6531235882 -0.1639297666 -0.5322154128
C   0.5496569969  0.7623144908 -0.6966815888
C   1.8281844950  0.0662867516 -0.2034383827
O   2.4360354445 -0.6371068801 -1.0757144040
C   2.1658674285  0.2335166549  1.1214488597
O   4.8102768931  2.2668379266 -0.2056628815
H  -2.0358835583 -0.7902316247  1.0577496805
H  -0.3116305096 -1.2005958711 -0.5003356770
H  -1.3551834283 -0.1025945488 -1.3720988681
H   0.3650164905  1.7050660754 -0.1825151565
H   0.6847852312  0.9642785500 -1.7571788917
H   1.5763029938  0.8466063988  1.7917441762
H   4.2597129960  1.5490433186  0.1500776610
H   3.0014298856 -0.3229857735  1.5417705318
H   4.3666641174  2.4482538741 -1.0376626003
17
Image 51  Energy = -421.92857108
C  -1.4825399081  0.0962057320  0.6771136160
O  -1.6658104270  1.1604138144  1.2179202247
C  -0.6433992963 -0.1629065296 -0.5250492490
C   0.5546628172  0.7706560686 -0.6960128628
C   1.8466704667  0.1002794114 -0.1960169222
O   2.5168169104 -0.5292897570 -1.0780726400
C   2.1346438781  0.2147968786  1.1452457889
O   4.8023955471  2.2381276989 -0.2353757708
H  -2.0344706186 -0.7866735009  1.0656619710
H  -0.2969503534 -1.1980134309 -0.4816954941
H  -1.3371198359 -0.1174554457 -1.3738639658
H   0.3601660476  1.7154637204 -0.1897955788
H   0.6881268392  0.9665117112 -1.7573957466
H   1.5151880257  0.7910471707  1.8211728031
H   4.2708042320  1.4954577387  0.0943673095
H   2.9804740172 -0.3267662176  1.5633612659
H   4.3403416984  2.4421451644 -1.0515650775
17
Image 52  Energy = -421.92841464
C  -1.4799340897  0.1012692146  0.6781070094
O  -1.6698955420  1.1682223722  1.2111246018
C  -0.6325405444 -0.1635120291 -0.5174628909
C   0.5593319505  0.7767667109 -0.6960712618
C   1.8654338598  0.1372794920 -0.1889311927
O   2.5991786249 -0.4096004005 -1.0776293951
C   2.1060836343  0.1958870816  1.1636336190
O   4.7829916096  2.2073320818 -0.2582228649
H  -2.0298384726 -0.7818693386  1.0687085440
H  -0.2831398270 -1.1969614348 -0.4636048286
H  -1.3242693081 -0.1306059849 -1.3690355096
H   0.3542927275  1.7240448858 -0.1987769368
H   0.6900829447  0.9648607688 -1.7589556959
H   1.4617095390  0.7390895221  1.8430156355
H   4.2742397846  1.4400575181  0.0495014900
H   2.9642338092 -0.3263107727  1.5806896632
H   4.3120393480  2.4240504732 -1.0660906665
17
Image 53  Energy = -421.92890890
C  -1.4793602968  0.1091574022  0.6802272950
O  -1.6693308403  1.1789652912  1.2070048853
C  -0.6224176045 -0.1653070089 -0.5066328293
C   0.5637122051  0.7802988991 -0.6986764712
C   1.8852641305  0.1758862018 -0.1854872113
O   2.6812194022 -0.2757179282 -1.0761912273
C   2.0803873915  0.1727682343  1.1740592717
O   4.7615807885  2.1816409939 -0.2752955462
H  -2.0337916185 -0.7718708971  1.0699835970
H  -0.2718578020 -1.1969912163 -0.4361843653
H  -1.3110667069 -0.1483639599 -1.3617755626
H   0.3489018808  1.7316586791 -0.2130405473
H   0.6890203926  0.9579335775 -1.7637691091
H   1.4078047903  0.6736222010  1.8577822759
H   4.2796418255  1.3917296598  0.0184255318
H   2.9542876412 -0.3217558122  1.5909927260
H   4.2860048089  2.3963458572 -1.0814233656
17
Image 54  Energy = -421.92949474
C  -1.4814548088  0.1183696497  0.6833443116
O  -1.6651006400  1.1921432853  1.2039444655
C  -0.6135438721 -0.1700681409 -0.4927675649
C   0.5647146743  0.7816840113 -0.7040805611
C   1.9000257555  0.2146171728 -0.1805782445
O   2.7518671674 -0.1409623425 -1.0651451532
C   2.0556810010  0.1499414230  1.1805135390
O   4.7566166967  2.1478280948 -0.2786357595
H  -2.0471324331 -0.7572388118  1.0704419529
H  -0.2560225912 -1.1976175499 -0.4007041640
H  -1.2986251968 -0.1759025624 -1.3514930240
H   0.3389993039  1.7390846345 -0.2351188274
H   0.6843143112  0.9433093074 -1.7720687340
H   1.3489132032  0.5927017493  1.8683643050
H   4.2788212409  1.3313563773 -0.0514574745
H   2.9479855968 -0.3083794447  1.5975731861
H   4.2839410422  2.4091334207 -1.0721326145
17
Image 55  Energy = -421.93060120
C  -1.4814201909  0.1234573371  0.6871654843
O  -1.6545868680  1.1997179781  1.2059506044
C  -0.6057971421 -0.1754815570 -0.4811438933
C   0.5648433697  0.7808110976 -0.7092262468
C   1.9124357805  0.2544459894 -0.1726564458
O   2.8141411966 -0.0041958080 -1.0453247409
C   2.0378035726  0.1350326453  1.1853048928
O   4.7510317024  2.0983915437 -0.2784040533
H  -2.0604106313 -0.7460051217  1.0695740854
H  -0.2423555370 -1.1998260346 -0.3759312596
H  -1.2895199889 -0.1965126451 -1.3411905505
H   0.3265668257  1.7445946520 -0.2595339071
H   0.6837353555  0.9241512915 -1.7798388489
H   1.3011753050  0.5241689853  1.8723773630
H   4.2543666554  1.2746262553 -0.1231245685
H   2.9473747290 -0.2864842974  1.6020563665
H   4.2906161385  2.4191081540 -1.0560544958
17
Image 56  Energy = -421.93241820
C  -1.4774834610  0.1275028598  0.6924452736
O  -1.6367769313  1.2045130007  1.2131977416
C  -0.5975746610 -0.1801979596 -0.4705898055
C   0.5648429258  0.7801468243 -0.7152582520
C   1.9200221960  0.2941371272 -0.1606333525
O   2.8620676524  0.1236474466 -1.0166508287
C   2.0157432294  0.1211646819  1.1912950365
O   4.7495736510  2.0447964897 -0.2743267720
H  -2.0708082913 -0.7355141987  1.0687350810
H  -0.2276917174 -1.2008499982 -0.3522427455
H  -1.2808128164 -0.2161972025 -1.3307823276
H   0.3129256220  1.7528725418 -0.2917425028
H   0.6878766847  0.8992997229 -1.7884155257
H   1.2478530623  0.4472320816  1.8752966994
H   4.2220099574  1.2222959054 -0.2193580365
H   2.9433189620 -0.2586048330  1.6090120593
H   4.3149143595  2.4437557289 -1.0299817873
17
Image 57  Energy = -421.93379097
C  -1.4691902804  0.1349357402  0.7051252690
O  -1.6066024278  1.2114906304  1.2324179216
C  -0.5948853603 -0.1845006400 -0.4558722412
C   0.5556121315  0.7782795485 -0.7311615412
C   1.9129822124  0.3221981753 -0.1596708734
O   2.8766659088  0.2071309917 -1.0028051105
C   1.9871374708  0.1077536697  1.1865153478
O   4.7814157872  2.0039996108 -0.2646647412
H  -2.0796838602 -0.7185235950  1.0763612126
H  -0.2120997169 -1.1980958697 -0.3155584241
H  -1.2809938079 -0.2466517899 -1.3127245670
H   0.2967051696  1.7648390536 -0.3445106795
H   0.6825397271  0.8589309906 -1.8072635706
H   1.1773286802  0.3336269286  1.8614096257
H   4.2056402836  1.2064999128 -0.3022260886
H   2.9299084325 -0.2243298880  1.6106841761
H   4.3875199456  2.5124165725 -0.9760553672
17
Image 58  Energy = -421.93501739
C  -1.4632256458  0.1460383809  0.7218006325
O  -1.5838981252  1.2253988997  1.2468318022
C  -0.5993192493 -0.1893279683 -0.4430235120
C   0.5452931610  0.7690205833 -0.7519067552
C   1.9044073654  0.3396353815 -0.1656084528
O   2.8869641975  0.2828070462 -0.9943533573
C   1.9599009701  0.0826850329  1.1734768578
O   4.8177803794  1.9840669705 -0.2471083383
H  -2.0792182785 -0.7007065793  1.0980089330
H  -0.2090604492 -1.1959306709 -0.2810829892
H  -1.2916376704 -0.2736765601 -1.2913225216
H   0.2862526858  1.7693801936 -0.4024507479
H   0.6711125958  0.8103340162 -1.8303246774
H   1.1208446453  0.2191048333  1.8353987827
H   4.1905875386  1.2262246642 -0.3572194257
H   2.9125018072 -0.2068071246  1.6061616696
H   4.4807143917  2.5817533306 -0.9172774717
17
Image 59  Energy = -421.93573253
C  -1.4529633184  0.1600196724  0.7395476195
O  -1.5709773769  1.2477876549  1.2482213043
C  -0.6098884982 -0.1924015936 -0.4348060592
C   0.5340180965  0.7531227382 -0.7752357051
C   1.8922388350  0.3525456981 -0.1681518946
O   2.8935817719  0.3697936086 -0.9775740339
C   1.9283440868  0.0408161247  1.1602628334
O   4.8612723661  1.9883437071 -0.2329981223
H  -2.0530510262 -0.6841395095  1.1440679049
H  -0.2211303754 -1.1984693626 -0.2629347725
H  -1.3148921364 -0.2862426769 -1.2719134249
H   0.2797092762  1.7694114852 -0.4706928311
H   0.6650940289  0.7504827624 -1.8540927811
H   1.0696036855  0.0924155469  1.8064861553
H   4.1921533444  1.2699251007 -0.3842905989
H   2.8885141538 -0.2095343809  1.6013707052
H   4.5683737405  2.6461234943 -0.8672656732
17
Image 60  Energy = -421.93662915
C  -1.4383509644  0.1780931162  0.7586368976
O  -1.5578705987  1.2766338299  1.2417945546
C  -0.6251990309 -0.1933859410 -0.4324637274
C   0.5240870388  0.7333184494 -0.7985545719
C   1.8772991324  0.3625242901 -0.1644541487
O   2.8929063914  0.4575688063 -0.9488193180
C   1.8953994038 -0.0063059138  1.1517989106
O   4.9184156606  2.0061981182 -0.2389043423
H  -2.0099099547 -0.6655199674  1.2037841929
H  -0.2457235142 -1.2029110498 -0.2595021170
H  -1.3465691018 -0.2820598717 -1.2562478776
H   0.2759095758  1.7655843672 -0.5451442712
H   0.6661317727  0.6823156863 -1.8754408006
H   1.0199415260 -0.0455774090  1.7764021311
H   4.2204892946  1.3157929517 -0.3937469691
H   2.8590028399 -0.2197554760  1.6048425104
H   4.6240396862  2.7074873391 -0.8239776836
17
Image 61  Energy = -421.92427198
C  -1.4307749704  0.1912732024  0.7767266561
O  -1.5467249114  1.2974823432  1.2348808476
C  -0.6370303537 -0.1988508084 -0.4348810456
C   0.5252969947  0.7120434345 -0.8152689227
C   1.8759794089  0.3724233763 -0.1495308935
O   2.9012423612  0.5486480994 -0.8917243224
C   1.8604260216 -0.0650392060  1.1532066904
O   4.9929893811  2.0423295014 -0.2908246760
H  -1.9836468752 -0.6527009477  1.2565513878
H  -0.2718295621 -1.2160715628 -0.2712060820
H  -1.3686338622 -0.2717808544 -1.2533072181
H   0.2728250001  1.7530051591 -0.6000754566
H   0.6829134486  0.6287771204 -1.8897752868
H   0.9580031083 -0.1479486844  1.7423298886
H   4.2713199036  1.3668124749 -0.4068564122
H   2.8142242807 -0.2690495486  1.6298730030
H   4.6334213502  2.7786473574 -0.7901165869
17
Image 62  Energy = -421.92467542
C  -1.4242642708  0.1934702956  0.7733370706
O  -1.5682803202  1.3025539205  1.2130890714
C  -0.6417002088 -0.1908084550 -0.4459768640
C   0.5331317545  0.7086080544 -0.8063426935
C   1.8671998972  0.3644382581 -0.1146158954
O   2.9086770677  0.5903332615 -0.8166907637
C   1.8215891344 -0.1302192525  1.1664140770
O   5.0359970373  2.1075047893 -0.3456981475
H  -1.9408542710 -0.6556819436  1.2808472649
H  -0.2940342741 -1.2150544798 -0.2985060288
H  -1.3755679053 -0.2348819385 -1.2633506919
H   0.2864607727  1.7525785625 -0.6007000237
H   0.7101371822  0.6203432994 -1.8768083646
H   0.9078135201 -0.2435138211  1.7276004964
H   4.3149952729  1.4284644870 -0.4135739682
H   2.7587183163 -0.3618228177  1.6606624463
H   4.6499821809  2.8336878413 -0.8396870029
17
Image 63  Energy = -421.92509500
C  -1.4174412789  0.1933823555  0.7730737451
O  -1.6001599696  1.3043493978  1.1930184604
C  -0.6474113438 -0.1797963969 -0.4588521791
C   0.5421438177  0.7088027540 -0.7975708148
C   1.8609972280  0.3541448793 -0.0855003080
O   2.9161992082  0.6237739645 -0.7492410818
C   1.7903271100 -0.1970241211  1.1709175866
O   5.0534876871  2.1683084271 -0.3636051397
H  -1.8871715851 -0.6652954250  1.3105783251
H  -0.3168071679 -1.2124424073 -0.3361027828
H  -1.3830218392 -0.1871954487 -1.2757000617
H   0.3020657433  1.7546848204 -0.5934124242
H   0.7358598217  0.6231781336 -1.8657519513
H   0.8670221300 -0.3472835739  1.7050303498
H   4.3295056148  1.4935012510 -0.4007627140
H   2.7193799622 -0.4355227299  1.6769446637
H   4.6850251814  2.8704336478 -0.9030643025
17
Image 64  Energy = -421.92542553
C  -1.4157622356  0.1927496920  0.7727633928
O  -1.6480978155  1.3019143494  1.1725165169
C  -0.6538689550 -0.1663397213 -0.4695472878
C   0.5486381222  0.7129356043 -0.7876963016
C   1.8575500151  0.3466800350 -0.0659907532
O   2.9195726428  0.6603292857 -0.6979226167
C   1.7754505635 -0.2593647837  1.1635063243
O   5.0539117325  2.2214794446 -0.3476556757
H  -1.8336346527 -0.6753426231  1.3375709619
H  -0.3380692292 -1.2059644448 -0.3723407212
H  -1.3895523641 -0.1374309865 -1.2853852760
H   0.3155557409  1.7596684165 -0.5791535735
H   0.7533083465  0.6349787238 -1.8548136834
H   0.8470363877 -0.4612299234  1.6695460533
H   4.3228453591  1.5554700390 -0.3706826428
H   2.7009946299 -0.4947367223  1.6774764163
H   4.7341218788  2.8842032960 -0.9621914835
17
Image 65  Energy = -421.92566713
C  -1.4160441033  0.2002284017  0.7705824318
O  -1.7095593245  1.3033152732  1.1370455176
C  -0.6639171510 -0.1557029054 -0.4691086225
C   0.5448781473  0.7098233584 -0.7806544697
C   1.8493526821  0.3425594498 -0.0596136702
O   2.9092754783  0.7023232971 -0.6575489910
C   1.7740999283 -0.3107902327  1.1447355186
O   5.0574746951  2.2601870456 -0.3253874615
H  -1.7711098427 -0.6558010833  1.3757060259
H  -0.3627255468 -1.1975518400 -0.3884057156
H  -1.3959678004 -0.1009040919 -1.2804679099
H   0.3250470094  1.7595468715 -0.5783362312
H   0.7603889481  0.6328416493 -1.8449957884
H   0.8525071295 -0.5800111533  1.6197479375
H   4.3191283051  1.6024778615 -0.3395456811
H   2.6938187983 -0.5349141523  1.6680540872
H   4.7833523877  2.8923713260 -0.9918070161
17
Image 66  Energy = -421.93956933
C  -1.4117206956  0.2151346924  0.7776919901
O  -1.7533293025  1.3229632546  1.1088588819
C  -0.6764068659 -0.1491407108 -0.4733436143
C   0.5444494501  0.7063481871 -0.7833926968
C   1.8392834339  0.3410074438 -0.0471393459
O   2.9057174897  0.7529376052 -0.6242232567
C   1.7673540246 -0.3587438647  1.1279434129
O   5.0670190908  2.2891824835 -0.3041388588
H  -1.7070452254 -0.6394700149  1.4261621999
H  -0.3849294705 -1.1967886078 -0.3995544490
H  -1.4145512714 -0.0747395400 -1.2812725976
H   0.3242333115  1.7583501967 -0.5896897934
H   0.7608741759  0.6186780145 -1.8487037433
H   0.8485799806 -0.6945114069  1.5753682602
H   4.3206521044  1.6457581098 -0.3153089068
H   2.6926227252 -0.5635350122  1.6557190070
H   4.8271964754  2.8965693747 -1.0049761967
17
Image 67  Energy = -421.92689090
C  -1.4022498388  0.2340270296  0.7937884885
O  -1.7977241958  1.3282930805  1.0851448142
C  -0.6925079293 -0.1411802842 -0.4743813221
C   0.5356718223  0.6980056515 -0.7933525851
C   1.8315685792  0.3464947795 -0.0505279189
O   2.8840986171  0.8184638592 -0.5829130026
C   1.7655139095 -0.4096592473  1.0933140595
O   5.0842189194  2.3120244484 -0.2689170325
H  -1.6186795647 -0.6011695887  1.4936834237
H  -0.4186744067 -1.1925996934 -0.4125120775
H  -1.4385370610 -0.0401671566 -1.2682532494
H   0.3206354538  1.7544929527 -0.6183871529
H   0.7558966132  0.5958360765 -1.8551467721
H   0.8556585321 -0.8148143127  1.4967708348
H   4.3220065864  1.6842631362 -0.2685222423
H   2.6879639108 -0.5982425113  1.6298252109
H   4.8751389914  2.8959325025 -0.9996136642
17
Image 68  Energy = -421.93638019
C  -1.3732474747  0.2380493129  0.8071956857
O  -1.8456163417  1.3213779899  1.0672556316
C  -0.7052012783 -0.1352951985 -0.4777684499
C   0.5373050956  0.6944433582 -0.8043204178
C   1.8166178468  0.3498754205 -0.0352323025
O   2.8886994899  0.8643988440 -0.5350235717
C   1.7383615139 -0.4326021122  1.0805553033
O   5.0912001814  2.3131014011 -0.2654411393
H  -1.4820161164 -0.5640229544  1.5708998731
H  -0.4365372934 -1.1924678619 -0.4358667735
H  -1.4601064914 -0.0123506084 -1.2640914652
H   0.3151995724  1.7526801850 -0.6466387016
H   0.7654154512  0.5789014013 -1.8688691002
H   0.8317858069 -0.8865265798  1.4430756448
H   4.3127652767  1.7153777668 -0.2648123135
H   2.6487799168 -0.6154517054  1.6443161283
H   4.9065948486  2.8805116742 -1.0152340031
17
Image 69  Energy = -421.92398601
C  -1.3478753577  0.2571849274  0.8225553481
O  -1.8760226158  1.3105559423  1.0420173138
C  -0.7155487884 -0.1289280259 -0.4894641062
C   0.5325466121  0.6875738412 -0.8112382145
C   1.8058613395  0.3535911242 -0.0221682659
O   2.8592368996  0.8944693032 -0.4736163001
C   1.7071430578 -0.4635873442  1.0764828221
O   5.1106248576  2.3282418086 -0.2755081347
H  -1.3429588685 -0.5142290313  1.6165955817
H  -0.4600534497 -1.1876379437 -0.4513155903
H  -1.4787953933  0.0206730938 -1.2580270125
H   0.3204272170  1.7506528553 -0.6659820357
H   0.7724262953  0.5540513611 -1.8670263043
H   0.8131683473 -0.9761607520  1.3834739644
H   4.3232668704  1.7337470936 -0.2504678752
H   2.6048264619 -0.6325004781  1.6601032081
H   4.9217272811  2.8823022121 -1.0364139806
17
Image 70  Energy = -421.92480580
C  -1.3276410725  0.2781555475  0.8401806996
O  -1.9121931145  1.3133192442  1.0420762931
C  -0.7301569344 -0.1146551661 -0.4866621657
C   0.5374331689  0.6736214525 -0.8219966700
C   1.7921679246  0.3564202195  0.0032566435
O   2.8459414323  0.9590377125 -0.3816527142
C   1.6840007619 -0.5098861993  1.0597268603
O   5.1449423140  2.3406871030 -0.3000622287
H  -1.2431925370 -0.4550235812  1.6646897728
H  -0.5005737587 -1.1809164311 -0.4653464339
H  -1.5019060175  0.0672672488 -1.2404477848
H   0.3296664344  1.7422476028 -0.7186231945
H   0.7886365089  0.5025017970 -1.8722344798
H   0.8076111399 -1.0979877320  1.2797710600
H   4.3469107483  1.7688998833 -0.2268696055
H   2.5572136571 -0.6578509397  1.6857428692
H   4.9311399024  2.8841617422 -1.0615485336
17
Image 71  Energy = -421.92472178
C  -1.2841460726  0.2861744917  0.8554443344
O  -1.8147946424  1.3428429676  1.0917188383
C  -0.7376693491 -0.1041625537 -0.4940194863
C   0.5431604492  0.6596091005 -0.8426703935
C   1.7717260449  0.3695206701  0.0304469257
O   2.8153857604  1.0236088572 -0.2875530650
C   1.6507883768 -0.5315679805  1.0572995782
O   5.1562281102  2.3372050425 -0.3264543081
H  -1.2100375772 -0.4665023915  1.6618383867
H  -0.5335027383 -1.1757287532 -0.4941783207
H  -1.5230288488  0.1107796099 -1.2250429627
H   0.3389436960  1.7333841796 -0.7845873142
H   0.8139322920  0.4446355435 -1.8789838007
H   0.7977394937 -1.1722148032  1.2085798706
H   4.3459819633  1.7899315603 -0.2112454175
H   2.4973878280 -0.6598254505  1.7201769266
H   4.9219057035  2.8823096196 -1.0807695375
17
Image 72  Energy = -421.92423996
C  -1.2330393759  0.2838813691  0.8705966903
O  -1.6906372905  1.3629728265  1.1513347846
C  -0.7390058075 -0.0937805403 -0.5041452937
C   0.5478144085  0.6507506624 -0.8649738170
C   1.7516867909  0.3831245804  0.0462462325
O   2.7894393365  1.0685797027 -0.2176649861
C   1.6138208641 -0.5326234831  1.0596892487
O   5.1503345985  2.3284989207 -0.3416762790
H  -1.1893679330 -0.4976062177  1.6503037939
H  -0.5600050061 -1.1691933698 -0.5275072517
H  -1.5402249827  0.1541393946 -1.2062448010
H   0.3517544400  1.7258263605 -0.8469145167
H   0.8382045594  0.3985201217 -1.8880037948
H   0.7895773748 -1.2225514016  1.1489114697
H   4.3324471319  1.7995177776 -0.1968085098
H   2.4333472465 -0.6406622265  1.7611519936
H   4.9038541423  2.8706052638 -1.0942947906
17
Image 73  Energy = -421.92335954
C  -1.1781777120  0.2741379422  0.8869907124
O  -1.5537773591  1.3709292026  1.2156284344
C  -0.7373368108 -0.0835091623 -0.5125683162
C   0.5531747712  0.6450658150 -0.8905906841
C   1.7351724398  0.3945113433  0.0519856155
O   2.7729307232  1.0902424336 -0.1782782513
C   1.5740278373 -0.5194319124  1.0648894268
O   5.1359898326  2.3240892898 -0.3437242230
H  -1.1812475484 -0.5388033763  1.6336701916
H  -0.5809791842 -1.1612393515 -0.5613293440
H  -1.5575276707  0.1939104179 -1.1809714094
H   0.3649777051  1.7208599748 -0.9051235032
H   0.8572842557  0.3621330271 -1.9019705627
H   0.7864947500 -1.2566186998  1.0983915971
H   4.3172287245  1.8016778104 -0.1793670222
H   2.3622448136 -0.6004470338  1.8049557869
H   4.8795208558  2.8524923053 -1.1025884947
17
Image 74  Energy = -421.92182719
C  -1.1146534156  0.2594879308  0.9046815913
O  -1.4112310142  1.3697687067  1.2703005511
C  -0.7305541407 -0.0790169871 -0.5186496765
C   0.5550180688  0.6421377864 -0.9186225719
C   1.7171753070  0.4058508357  0.0478746759
O   2.7632697662  1.0922985072 -0.1576656601
C   1.5216214530 -0.4902538239  1.0751903647
O   5.1214785502  2.3245590088 -0.3367402226
H  -1.1852476559 -0.5782777354  1.6185409092
H  -0.5898800043 -1.1573249343 -0.5911410384
H  -1.5744341779  0.2197359362 -1.1470674947
H   0.3705359223  1.7179665677 -0.9545466832
H   0.8681189506  0.3380173732 -1.9214212903
H   0.7861914088 -1.2807173964  1.0546914452
H   4.3071546141  1.7991128744 -0.1607171029
H   2.2889424400 -0.5482005140  1.8401801862
H   4.8564945217  2.8348561422 -1.1048879983
17
Image 75  Energy = -421.91971275
C  -1.0353161649  0.2423591828  0.9275221788
O  -1.2934776095  1.3622902861  1.3066778840
C  -0.7152911568 -0.0802810731 -0.5217048238
C   0.5557092686  0.6425698301 -0.9480252597
C   1.6947104675  0.4158357108  0.0388873787
O   2.7570629896  1.0725549585 -0.1447190608
C   1.4392266196 -0.4431421873  1.0948047603
O   5.1101816130  2.3265592057 -0.3288391048
H  -1.1915506174 -0.6087997650  1.6121994123
H  -0.5842695678 -1.1579917011 -0.6128504398
H  -1.5849548209  0.2324207389 -1.1070171280
H   0.3705777376  1.7177741312 -0.9895450455
H   0.8769483554  0.3305015178 -1.9449548905
H   0.7947370897 -1.3049569885  1.0108702622
H   4.3026974879  1.7934465168 -0.1463228672
H   2.2134153674 -0.4932637119  1.8576061246
H   4.8395938672  2.8221236149 -1.1045897019
17
Image 76  Energy = -421.91793897
C  -0.9467500325  0.2275832501  0.9531270878
O  -1.2043394238  1.3568486750  1.3297881613
C  -0.6970846061 -0.0827826775 -0.5201200557
C   0.5567383664  0.6437735654 -0.9768414536
C   1.6732968120  0.4182038380  0.0231424349
O   2.7493133041  1.0456817298 -0.1271302156
C   1.3563514974 -0.4131853341  1.0989612434
O   5.1022193757  2.3298320781 -0.3228630104
H  -1.1914860523 -0.6251836437  1.6126534732
H  -0.5719161074 -1.1592470413 -0.6323102176
H  -1.5896508761  0.2422366332 -1.0631823462
H   0.3663574267  1.7175939152 -1.0109786493
H   0.8808050890  0.3323574157 -1.9711650391
H   0.8179488758 -1.3361798664  0.9717770091
H   4.3034043381  1.7887835235 -0.1337287026
H   2.1194066894 -0.4283469324  1.8735412368
H   4.8253859995  2.8120312325 -1.1046710607
17
Image 77  Energy = -421.91740161
C  -0.8471872406  0.2131439244  0.9739325571
O  -1.1246491357  1.3558596232  1.3352052104
C  -0.6831009885 -0.0899490719 -0.5206594870
C   0.5541369948  0.6453682091 -0.9992064142
C   1.6559937157  0.4208396076  0.0097974499
O   2.7427648302  1.0214365186 -0.1105068932
C   1.2899218207 -0.3967827372  1.0968128494
O   5.0900572996  2.3294467659 -0.3156231311
H  -1.1733617743 -0.6322011622  1.6094063926
H  -0.5650218243 -1.1640629629 -0.6555322880
H  -1.5925039162  0.2505339949 -1.0236757391
H   0.3549164952  1.7175066238 -1.0173177756
H   0.8809152597  0.3408291277 -1.9932757638
H   0.8323623573 -1.3593461092  0.9465085593
H   4.2978704949  1.7834048712 -0.1220362097
H   2.0276662692 -0.3657601106  1.8894565176
H   4.8092201278  2.7997330084 -1.1032860838
17
Image 78  Energy = -421.91631439
C  -0.7756611599  0.2040676433  0.9809851143
O  -1.0311931349  1.3670287713  1.3369483525
C  -0.6724964765 -0.0981513733 -0.5226345150
C   0.5524300113  0.6491397310 -1.0117083083
C   1.6438823972  0.4298022049  0.0073906079
O   2.7423498909  0.9976681770 -0.1041328316
C   1.2504086267 -0.3737699569  1.1044296411
O   5.0497201203  2.3136393359 -0.2989537904
H  -1.1494590408 -0.6390748651  1.5960593452
H  -0.5631250588 -1.1704788918 -0.6825542620
H  -1.5913718993  0.2553565540 -0.9961435126
H   0.3408449630  1.7192277475 -1.0210391824
H   0.8879742639  0.3562894495 -2.0063230164
H   0.8669831213 -1.3635076691  0.9166795183
H   4.2594256909  1.7618746528 -0.1113490300
H   1.9689317473 -0.3088293642  1.9079060479
H   4.7703569456  2.7697181657 -1.0955605649
17
Image 79  Energy = -421.91597081
C  -0.6804855770  0.1861773613  1.0052870084
O  -0.9750700277  1.3724933742  1.3428523848
C  -0.6661487634 -0.1040195410 -0.5201082116
C   0.5488625949  0.6490022611 -1.0223568168
C   1.6285536134  0.4460395457  0.0064613370
O   2.7391985412  0.9712793317 -0.0966976755
C   1.1658260945 -0.3294634112  1.1223944383
O   5.0310180351  2.3013020285 -0.2925069238
H  -1.1374914599 -0.6540499437  1.5823072773
H  -0.5648522664 -1.1761057295 -0.6993315817
H  -1.5880646884  0.2576278909 -0.9808044928
H   0.3354497361  1.7195451061 -1.0273218710
H   0.8953214650  0.3582515428 -2.0125588854
H   0.9139709234 -1.3606120936  0.8827595994
H   4.2356566694  1.7528672072 -0.1148686146
H   1.9074006648 -0.2810543121  1.9154667404
H   4.7608551006  2.7607197161 -1.0909737559
17
Image 80  Energy = -421.92033569
C  -0.5955907069  0.1629927731  1.0206134268
O  -0.9123807247  1.3661818562  1.3577190203
C  -0.6593938023 -0.1062781960 -0.5196356712
C   0.5493509685  0.6529057022 -1.0368642726
C   1.6222149808  0.4588227872 -0.0010534843
O   2.7475033960  0.9412166678 -0.0871410040
C   1.1029898341 -0.3032133544  1.1238870948
O   5.0084478335  2.2878855025 -0.2872448002
H  -1.1133889125 -0.6671526219  1.5684744129
H  -0.5706146342 -1.1771955521 -0.7215897406
H  -1.5906119156  0.2658472958 -0.9506538797
H   0.3283930792  1.7221343860 -1.0405694969
H   0.8987410755  0.3619053470 -2.0254882136
H   0.9701889642 -1.3545044628  0.8531035858
H   4.2083284850  1.7395816060 -0.1203374839
H   1.8057207541 -0.2326405175  1.9540208378
H   4.7501020687  2.7515112823 -1.0872403458
17
Image 81  Energy = -421.92562207
C  -0.5322180465  0.1303053136  1.0239995939
O  -0.8377483822  1.3510997142  1.3800859832
C  -0.6549758799 -0.1026934668 -0.5222246607
C   0.5491325954  0.6624484016 -1.0504127840
C   1.6199994296  0.4631641130 -0.0125841625
O   2.7608153467  0.8943937252 -0.0905608304
C   1.0560862307 -0.2926167676  1.1185613095
O   4.9877106431  2.2798108839 -0.2837315899
H  -1.0840885089 -0.6881663842  1.5511975891
H  -0.5789543523 -1.1696036095 -0.7536496276
H  -1.5954130965  0.2821647372 -0.9177957857
H   0.3240194498  1.7298670293 -1.0499271618
H   0.8984289525  0.3745604504 -2.0409912291
H   1.0426300923 -1.3581198791  0.8557826308
H   4.1892307135  1.7240929359 -0.1288953073
H   1.6679416749 -0.1536867480  2.0078747637
H   4.7374041334  2.7429793814 -1.0867291728
17
Image 82  Energy = -421.92864885
C  -0.5075601251  0.0945270360  1.0134143530
O  -0.7951812169  1.3189058734  1.4034816062
C  -0.6526695281 -0.0912436731 -0.5344817434
C   0.5517075594  0.6798736141 -1.0540571187
C   1.6255381026  0.4473573781 -0.0227687447
O   2.7866630792  0.8072609739 -0.1252145575
C   1.0386757763 -0.2850693867  1.1239861674
O   4.9594271447  2.2793369240 -0.2825404065
H  -1.0740564443 -0.7263925512  1.5195666131
H  -0.5955424066 -1.1492707412 -0.8106487544
H  -1.5955640570  0.3191647480 -0.8922599471
H   0.3312780459  1.7481307288 -1.0353517013
H   0.8988390574  0.4074209380 -2.0503747897
H   1.1444009906 -1.3626236777  0.9288832608
H   4.1787141707  1.6957849005 -0.1423350007
H   1.5453419741 -0.0423650050  2.0540361276
H   4.7099887661  2.7292023635 -1.0933358072
17
Image 83  Energy = -421.92972383
C  -0.5072791001  0.0673755880  1.0031580353
O  -0.8268720667  1.2744333491  1.4273372885
C  -0.6445771847 -0.0744333619 -0.5488923085
C   0.5629734970  0.7036461903 -1.0476209186
C   1.6402594483  0.4209787783 -0.0320564616
O   2.8217916503  0.6889084785 -0.1729382786
C   1.0352387607 -0.2630465367  1.1392396060
O   4.9217732007  2.2740778129 -0.2867926968
H  -1.0623075615 -0.7809899202  1.4777455975
H  -0.5956780727 -1.1224829590 -0.8625859554
H  -1.5862155113  0.3546360782 -0.8863982295
H   0.3511836784  1.7734488455 -0.9922301661
H   0.9063173208  0.4608828036 -2.0523473341
H   1.2164781435 -1.3428431556  1.0291121676
H   4.1687751386  1.6525582209 -0.1643046296
H   1.4786957157  0.0716375225  2.0731086267
H   4.6694436282  2.7112127369 -1.1035343361
17
Image 84  Energy = -421.93003076
C  -0.5145304330  0.0473987857  0.9938925682
O  -0.8855106090  1.2294051803  1.4454675133
C  -0.6327968161 -0.0595237623 -0.5628459586
C   0.5741221025  0.7333933038 -1.0373493827
C   1.6531839909  0.4013741401 -0.0390331861
O   2.8471809648  0.5824094764 -0.2131225080
C   1.0336479801 -0.2336457509  1.1541743751
O   4.8928002285  2.2474951576 -0.2943962617
H  -1.0460679998 -0.8340749868  1.4363230180
H  -0.5746084950 -1.0992727457 -0.9012480973
H  -1.5752709395  0.3712370448 -0.8957444462
H   0.3658306628  1.8015716117 -0.9353259522
H   0.9127227053  0.5295583524 -2.0517758736
H   1.2651101287 -1.3082824549  1.1196105163
H   4.1607747844  1.5987688676 -0.1898405245
H   1.4371968603  0.1731824339  2.0786570375
H   4.6362150684  2.6890054910 -1.1074429883
17
Image 85  Energy = -421.92995320
C  -0.5250934995  0.0264086627  0.9830299238
O  -0.9469965859  1.1814178835  1.4583421445
C  -0.6223472078 -0.0472606378 -0.5777449028
C   0.5810316539  0.7665915912 -1.0243678431
C   1.6593882312  0.3929360540 -0.0407530365
O   2.8584703439  0.5119590464 -0.2358716977
C   1.0296978382 -0.2077326097  1.1660496131
O   4.8886888312  2.2008360927 -0.3082871950
H  -1.0312460921 -0.8851887550  1.3947125202
H  -0.5483630679 -1.0784820577 -0.9380990304
H  -1.5666597079  0.3795381201 -0.9105537734
H   0.3705084615  1.8291902197 -0.8727605305
H   0.9161946236  0.6065135032 -2.0474169569
H   1.3038556724 -1.2717237952  1.1965771946
H   4.1637347246  1.5427503474 -0.2133869757
H   1.3973598233  0.2601693966  2.0774695232
H   4.6217757624  2.6620764254 -1.1069383707
17
Image 86  Energy = -421.92987261
C  -0.5380549844 -0.0034711902  0.9768268890
O  -0.9764204476  1.1303253540  1.4869173625
C  -0.6149856228 -0.0235298997 -0.5867917774
C   0.5922156747  0.8064818415 -0.9914349699
C   1.6595151097  0.4005203377 -0.0083361307
O   2.8613064729  0.5191799064 -0.1855438035
C   1.0156893048 -0.2316415310  1.1746064071
O   4.9099533936  2.1744610489 -0.3777896734
H  -1.0414128834 -0.9334488450  1.3494226353
H  -0.5355394751 -1.0417372612 -0.9813794665
H  -1.5559584390  0.4134810931 -0.9158435695
H   0.3792701905  1.8629838540 -0.8050592030
H   0.9364042195  0.6822832225 -2.0164395637
H   1.2998494820 -1.2931502252  1.1885095444
H   4.1749795787  1.5322273723 -0.2523409517
H   1.3630472997  0.2205840397  2.1015830335
H   4.6201403776  2.6544510974 -1.1569067656
17
Image 87  Energy = -421.92984739
C  -0.5486330630 -0.0259479881  0.9738518700
O  -0.9875094416  1.0956049645  1.5101155266
C  -0.6085816030 -0.0028857520 -0.5901558712
C   0.6032045023  0.8373130262 -0.9586198948
C   1.6578444340  0.4141100764  0.0316885354
O   2.8608948602  0.5563331721 -0.1145855659
C   1.0013268783 -0.2642902798  1.1814652086
O   4.9353477961  2.1525272628 -0.4630852722
H  -1.0586540435 -0.9639579434  1.3160185958
H  -0.5263673449 -1.0099817101 -1.0119200303
H  -1.5454340282  0.4445516570 -0.9170241335
H   0.3863541507  1.8895907837 -0.7551811828
H   0.9597412948  0.7346427715 -1.9818376069
H   1.2815895934 -1.3265983467  1.1515583036
H   4.1879079948  1.5355723454 -0.2909070475
H   1.3384345329  0.1459465677  2.1311403727
H   4.6125328252  2.6574697062 -1.2125218737
17
Image 88  Energy = -421.92980098
C  -0.5591417117 -0.0482361141  0.9710167790
O  -0.9966083180  1.0628680736  1.5317126741
C  -0.6010195046  0.0186141224 -0.5920795650
C   0.6148139169  0.8695618180 -0.9228831495
C   1.6550339238  0.4310878657  0.0790195942
O   2.8585674296  0.6058627457 -0.0263128796
C   0.9871550682 -0.2983696464  1.1891361823
O   4.9608340153  2.1144151040 -0.5721771872
H  -1.0790247973 -0.9913040029  1.2825770808
H  -0.5141182529 -0.9763667901 -1.0410257614
H  -1.5347080970  0.4746173542 -0.9166526918
H   0.3918063245  1.9177905021 -0.7079432802
H   0.9865191904  0.7861007683 -1.9422627074
H   1.2654163335 -1.3600464660  1.1107154384
H   4.2016183116  1.5342171468 -0.3364772725
H   1.3186404849  0.0624109193  2.1593308838
H   4.5942162071  2.6667776045 -1.2656941565
17
Image 89  Energy = -421.93268263
C  -0.5708291283 -0.0641443273  0.9718364775
O  -1.0114757738  1.0336896315  1.5490127644
C  -0.5937051160  0.0269852034 -0.5887803340
C   0.6234162377  0.8840136308 -0.8963423482
C   1.6494013089  0.4685028015  0.1249127479
O   2.8430816982  0.7045116011  0.0710765198
C   0.9765955556 -0.3115079796  1.2040304196
O   4.9922760960  2.0223884599 -0.7237188219
H  -1.0879040335 -1.0155116985  1.2605758370
H  -0.5048874341 -0.9603652584 -1.0536149971
H  -1.5226438985  0.4912752848 -0.9156331818
H   0.3915446263  1.9323229644 -0.6936050081
H   1.0102693016  0.7966474424 -1.9102473429
H   1.2570564273 -1.3656027107  1.0875938939
H   4.2137633384  1.5096279745 -0.4035065717
H   1.2949305364  0.0220645322  2.1915461592
H   4.5891096203  2.6951023244 -1.2751362603
17
Image 90  Energy = -421.93154589
C  -0.5976647876 -0.0987266100  0.9734596205
O  -1.0797966970  0.9609459573  1.5872662831
C  -0.6089193990  0.0475509156 -0.5834581676
C   0.6305803622  0.8757335583 -0.8762928182
C   1.6454796176  0.4687075567  0.1621748613
O   2.8349087600  0.7305015968  0.1244279404
C   0.9522839715 -0.3212882815  1.2271801950
O   5.0601235672  2.0275185682 -0.8222537405
H  -1.0950163768 -1.0750784272  1.2131344621
H  -0.5616707586 -0.9241221694 -1.0843088656
H  -1.5231112638  0.5559621865 -0.8851344564
H   0.4212941624  1.9322924585 -0.6973902676
H   1.0342531787  0.7646328191 -1.8820595895
H   1.2496530281 -1.3720180760  1.1251086679
H   4.2879157098  1.5312947802 -0.4904431983
H   1.2395190373  0.0181845195  2.2223469084
H   4.6601679214  2.7479085844 -1.3137574634
17
Image 91  Energy = -421.92925996
C  -0.6224703087 -0.1214568674  0.9774498437
O  -1.1343834541  0.9091586501  1.6157498772
C  -0.6268914285  0.0610352464 -0.5774853896
C   0.6330408117  0.8565343696 -0.8697884373
C   1.6392087968  0.4543778826  0.1814592658
O   2.8281496160  0.7168002965  0.1415015894
C   0.9280619396 -0.3267170333  1.2472728419
O   5.1232005582  2.0961020831 -0.8221670977
H  -1.1056869269 -1.1138496904  1.1809981617
H  -0.6158894742 -0.9003324720 -1.0986396196
H  -1.5278598897  0.6032317956 -0.8596398008
H   0.4510336513  1.9216157676 -0.7199621419
H   1.0490669813  0.7132968332 -1.8671720400
H   1.2335886211 -1.3766782558  1.1667339027
H   4.3570078217  1.5527305032 -0.5837057860
H   1.1963883246  0.0256785667  2.2434109050
H   4.7444342188  2.7984720113 -1.3560162627
17
Image 92  Energy = -421.92577616
C  -0.6446351271 -0.1378502913  0.9831600743
O  -1.1792501659  0.8687839540  1.6397158219
C  -0.6406566742  0.0718453473 -0.5718507195
C   0.6335661691  0.8441067406 -0.8633376358
C   1.6288692014  0.4466470833  0.2014840521
O   2.8170886091  0.7088912755  0.1637364043
C   0.9067947989 -0.3311124093  1.2650896820
O   5.1624297051  2.1668155499 -0.7974041979
H  -1.1185873813 -1.1410012146  1.1564654660
H  -0.6512550521 -0.8828426344 -1.1044562176
H  -1.5323776534  0.6341957884 -0.8445702041
H   0.4733978720  1.9157833937 -0.7444712552
H   1.0618876047  0.6706697754 -1.8513045506
H   1.2186805049 -1.3798313587  1.1932296598
H   4.4284353295  1.5471874768 -0.7015662734
H   1.1682599809  0.0253904051  2.2620376695
H   4.8173516554  2.8423213323 -1.3859579622
17
Image 93  Energy = -421.92167681
C  -0.6636037931 -0.1490324807  0.9887257101
O  -1.2144517359  0.8392627767  1.6577349431
C  -0.6513941160  0.0796554636 -0.5678902850
C   0.6318532038  0.8367461039 -0.8564421154
C   1.6155013934  0.4431203056  0.2205195693
O   2.8018755782  0.7046655943  0.1925792549
C   0.8905757381 -0.3345478294  1.2802095212
O   5.1661676893  2.2272156382 -0.7600241455
H  -1.1343867913 -1.1580063669  1.1352326779
H  -0.6746111776 -0.8711272839 -1.1067550056
H  -1.5354284996  0.6539685763 -0.8415769050
H   0.4857553255  1.9124910543 -0.7624270634
H   1.0706987320  0.6382299378 -1.8353776823
H   1.2108642569 -1.3811161664  1.2102403242
H   4.5097558878  1.5265829342 -0.8252351161
H   1.1633991660  0.0252857466  2.2738991300
H   4.8774287028  2.8766067668 -1.4034129241
17
Image 94  Energy = -421.91706220
C  -0.6784483567 -0.1563825202  0.9939441604
O  -1.2418128283  0.8129237389  1.6768679896
C  -0.6590170193  0.0863036578 -0.5653419235
C   0.6312785153  0.8311721682 -0.8509187840
C   1.6070579374  0.4452547734  0.2350041111
O   2.7907497710  0.7159620245  0.2174548180
C   0.8840085619 -0.3342298096  1.2921110241
O   5.1213661559  2.2632039021 -0.7178118796
H  -1.1491964208 -1.1692770682  1.1136083206
H  -0.6935028797 -0.8622042296 -1.1076643723
H  -1.5346255681  0.6691723361 -0.8494474799
H   0.4928698193  1.9093143918 -0.7757346298
H   1.0777845665  0.6131825825 -1.8222838103
H   1.2077543087 -1.3798740365  1.2235769538
H   4.5878083063  1.4957646563 -0.9379562587
H   1.1791601953  0.0292610493  2.2796433933
H   4.9267647143  2.9004521603 -1.4050514189
17
Image 95  Energy = -421.91188105
C  -0.6949075375 -0.1627485434  0.9982928766
O  -1.2637217454  0.7910762696  1.6941111872
C  -0.6663517360  0.0913164720 -0.5651646897
C   0.6303356862  0.8270585330 -0.8445173974
C   1.6009907702  0.4508404691  0.2483938556
O   2.7822608800  0.7358869650  0.2367842136
C   0.8851352544 -0.3331054488  1.3048315149
O   5.0491336427  2.2771777767 -0.6886841848
H  -1.1734904474 -1.1760493655  1.0966054205
H  -0.7091395812 -0.8538737265 -1.1139915377
H  -1.5315868395  0.6822077867 -0.8678029609
H   0.4984953711  1.9073648060 -0.7864827739
H   1.0816381644  0.5914889131 -1.8092551729
H   1.2195329578 -1.3744643013  1.2351297345
H   4.6660529735  1.4670220984 -1.0299406958
H   1.2092707344  0.0305309759  2.2853883240
H   4.9663517871  2.9182700436 -1.3936980273
17
Image 96  Energy = -421.90518685
C  -0.7213417130 -0.1685800768  0.9982745463
O  -1.2778613679  0.7719288461  1.7107174474
C  -0.6769580614  0.0950735644 -0.5693010481
C   0.6274471174  0.8227809270 -0.8343888220
C   1.5960665235  0.4564093011  0.2615404814
O   2.7760165133  0.7558378077  0.2493860102
C   0.8960047903 -0.3302139803  1.3200337390
O   4.9779660444  2.2783457064 -0.6851489298
H  -1.2171707826 -1.1807579506  1.0791755820
H  -0.7241123351 -0.8464345259 -1.1260765980
H  -1.5286241126  0.6947008657 -0.9031256021
H   0.4991541970  1.9038638617 -0.7880736776
H   1.0821105852  0.5702958797 -1.7914695801
H   1.2429544972 -1.3667499484  1.2499365085
H   4.7349880251  1.4425245564 -1.0869490543
H   1.2641817419  0.0324328879  2.2922099864
H   4.9991782445  2.9385422880 -1.3767410728
