17
Image 0  Energy = -421.91122620
C  -1.9863062102  0.4986897582  0.0187025086
O  -2.0766690103  1.6976024610 -0.0041044285
C  -0.7205088860 -0.2964276789 -0.0170189829
C   0.5439108998  0.5394618701 -0.0733497824
C   1.8047993001 -0.3162745747 -0.1117061255
O   1.6818548655 -1.5236511892 -0.3345216312
C   3.0913293095  0.3430490270  0.1729169400
O   4.3636213250  2.6881984660  0.0947224959
H  -2.9173918308 -0.1080387403  0.0754010765
H  -0.7313631945 -0.9419460465  0.8658608355
H  -0.7884370101 -0.9876085287 -0.8615392261
H   0.5873612668  1.2220052350  0.7720020670
H   0.5430554812  1.1618695885 -0.9702664379
H   3.0565027152  0.7301314231  1.1922266094
H   3.4545293612  1.3281685245 -0.3159590402
H   3.9092334173 -0.3691844914  0.1098252494
H   4.7344795580  3.2039558789 -0.6131918270
17
Image 1  Energy = -421.88893379
C  -1.9872138761  0.4974002559  0.0178104552
O  -2.0781146730  1.7007990160 -0.0024232605
C  -0.7203382270 -0.2914233113 -0.0191451092
C   0.5472908764  0.5409359640 -0.0724170844
C   1.8032907064 -0.3309199109 -0.1079455306
O   1.6635722254 -1.5314650707 -0.3392899847
C   3.0905156126  0.3142997700  0.1764757351
O   4.3069851629  2.6744700711  0.0453986142
H  -2.9165141387 -0.1092843791  0.0747925544
H  -0.7278791053 -0.9399563394  0.8636517058
H  -0.7791613537 -0.9830751027 -0.8636212671
H   0.5899516075  1.2254266872  0.7730992703
H   0.5476803279  1.1651340889 -0.9681008927
H   3.0454672524  0.7023851383  1.1902284911
H   3.5343430948  1.4249833886 -0.2565815599
H   3.8960658431 -0.4036203104  0.1117794413
H   4.7340612300  3.2139133888 -0.6237105062
17
Image 2  Energy = -421.89339711
C  -1.9826141695  0.4977190458  0.0179237072
O  -2.0790161612  1.7018969367  0.0010256017
C  -0.7146828939 -0.2850898138 -0.0185812171
C   0.5559706470  0.5455900327 -0.0663714167
C   1.8120237069 -0.3273103632 -0.1184547884
O   1.6661074270 -1.5204251875 -0.3955899249
C   3.0940252904  0.3091565087  0.1937700994
O   4.2436846918  2.6717724079  0.0378972027
H  -2.9103045062 -0.1119514358  0.0722744700
H  -0.7209207677 -0.9377485051  0.8620726068
H  -0.7657150341 -0.9759600641 -0.8646894000
H   0.5944228784  1.2268339423  0.7814384273
H   0.5496654596  1.1731184353 -0.9593093119
H   3.0326830389  0.7158844904  1.1965268501
H   3.5866788463  1.4800271764 -0.1903826005
H   3.8919294968 -0.4214773757  0.1236226079
H   4.6960652875  3.1279693983 -0.6731712579
17
Image 3  Energy = -421.89676384
C  -1.9787320888  0.4983377301  0.0181230426
O  -2.0828557866  1.7020228219  0.0034597811
C  -0.7086950307 -0.2791947738 -0.0172563967
C   0.5641784492  0.5497977261 -0.0599674076
C   1.8207660269 -0.3229777759 -0.1283656641
O   1.6733149338 -1.5054406674 -0.4571883077
C   3.0933124448  0.3048158705  0.2186302822
O   4.2052245621  2.6585311953  0.0341741390
H  -2.9042854150 -0.1155296285  0.0698718678
H  -0.7163127223 -0.9356351193  0.8613049369
H  -0.7545554230 -0.9690841610 -0.8647759689
H   0.6003874909  1.2271138218  0.7906310440
H   0.5516409963  1.1799557584 -0.9508229089
H   3.0172107388  0.7335010688  1.2104870081
H   3.6225974683  1.5241302801 -0.1447800493
H   3.8964996264 -0.4238857503  0.1390852466
H   4.6503066157  3.0435460057 -0.7226091541
17
Image 4  Energy = -421.90478201
C  -1.9788163409  0.4982441695  0.0186032311
O  -2.0886593979  1.7034383973  0.0036267170
C  -0.7090332327 -0.2756629703 -0.0145234832
C   0.5670989935  0.5471122453 -0.0540483664
C   1.8177160838 -0.3442933168 -0.1244794113
O   1.6661774773 -1.5182528784 -0.4986101476
C   3.0678945549  0.2694931363  0.2408842568
O   4.1956845214  2.6171005966  0.0355684812
H  -2.9047699855 -0.1165247845  0.0692328977
H  -0.7167724759 -0.9356470881  0.8624323153
H  -0.7527233170 -0.9660577031 -0.8624596368
H   0.6062632349  1.2232412458  0.7964188542
H   0.5551706441  1.1752561842 -0.9465790838
H   2.9974675259  0.7712964605  1.1981128479
H   3.7106300435  1.6454012357 -0.1269521034
H   3.9021679090 -0.4231555836  0.1438744114
H   4.6145055464  2.9990127154 -0.7411009707
17
Image 5  Energy = -421.91243726
C  -1.9826500648  0.4993728200  0.0195774294
O  -2.0946057152  1.7039412355  0.0037767430
C  -0.7136354257 -0.2764259604 -0.0108239857
C   0.5665544846  0.5350483495 -0.0487112323
C   1.8080788475 -0.3716189027 -0.1198190476
O   1.6431221172 -1.5382056023 -0.5309371681
C   3.0346159359  0.2236265179  0.2605956024
O   4.2329828711  2.6368242966  0.0553783709
H  -2.9082859107 -0.1155618741  0.0683469708
H  -0.7215707679 -0.9393423010  0.8639248180
H  -0.7538342714 -0.9654941679 -0.8595989772
H   0.6134118075  1.2125793323  0.8019246934
H   0.5615319950  1.1604819304 -0.9429164623
H   2.9818335240  0.8122063313  1.1649870965
H   3.7862420064  1.7359287506 -0.1130695278
H   3.9013618331 -0.4216897753  0.1538251625
H   4.5948461369  2.9783267874 -0.7664609489
17
Image 6  Energy = -421.93360892
C  -1.9828576939  0.5028397578  0.0213025307
O  -2.1015294220  1.7065564730  0.0145576046
C  -0.7142386666 -0.2712463220 -0.0085163114
C   0.5737668325  0.5275631551 -0.0375650143
C   1.8014350964 -0.3942176302 -0.1187987414
O   1.6208758965 -1.5510428065 -0.5817052295
C   3.0141603123  0.1615977911  0.2946649733
O   4.1792731885  2.7228903091  0.0233568671
H  -2.9046626443 -0.1181563672  0.0587879473
H  -0.7206277404 -0.9417755357  0.8586211166
H  -0.7416399819 -0.9527739081 -0.8623801557
H   0.6293907361  1.1933276628  0.8204248119
H   0.5791445460  1.1545208578 -0.9283743973
H   2.9767936090  0.8401344250  1.1378362988
H   3.7928580361  1.8154712505 -0.0923071925
H   3.9026298224 -0.4605576849  0.1878032637
H   4.6452287088  2.9348665922 -0.7877097094
