17
Image 0  Energy = -421.95585603
C  -2.0073135049  0.4795386063  0.0352582118
O  -2.1158528013  1.6897558336  0.0307089811
C  -0.7551877012 -0.3059783097  0.0039024430
C   0.5298234242  0.4961751318 -0.0610868872
C   1.7910537480 -0.3736797096 -0.1405982787
O   1.6600219222 -1.5295765903 -0.6341364769
C   2.9655865753  0.2296616170  0.3029977006
O   4.5758262997  2.5551470015  0.0311408398
H  -2.9385219521 -0.1218554573  0.0718719768
H  -0.7637501873 -0.9495263892  0.8898073323
H  -0.8058324408 -1.0048570980 -0.8330433320
H   0.5859136713  1.1735704659  0.7863453845
H   0.5155928910  1.1084347536 -0.9617392396
H   2.8606769734  0.9814388266  1.0751149825
H   4.0080125524  1.7584641451 -0.0531218303
H   3.8865809113 -0.3454474495  0.2576272819
H   4.5573700266  3.0287352309 -0.8010491314
17
Image 1  Energy = -421.95452990
C  -2.0196590378  0.4780360764  0.0359696029
O  -2.1173688937  1.6871605205  0.0181150432
C  -0.7742117362 -0.3193285046  0.0069833289
C   0.5126699394  0.4778203302 -0.0690014746
C   1.7742172212 -0.3956542858 -0.1269735302
O   1.6378217464 -1.5808217413 -0.5395004381
C   2.9547697575  0.2475194318  0.2555966587
O   4.6660675517  2.5390364895  0.0760739971
H  -2.9550442896 -0.1158367691  0.0837126389
H  -0.7821348181 -0.9572392513  0.8967763501
H  -0.8342232239 -1.0226862067 -0.8262749533
H   0.5685531158  1.1661055967  0.7707401094
H   0.4977545532  1.0792616611 -0.9771993341
H   2.8556002383  1.0307272203  0.9893690439
H   4.0562931904  1.7716652766 -0.0743220070
H   3.8848181773 -0.3056373328  0.1852191136
H   4.6240772191  3.0898718665 -0.7052840661
17
Image 2  Energy = -421.95190553
C  -2.0237214035  0.4822615189  0.0348584286
O  -2.1094386579  1.6925049173  0.0024239039
C  -0.7877628122 -0.3288334841  0.0090311650
C   0.5042987136  0.4573898199 -0.0694164541
C   1.7625135698 -0.4189788911 -0.1078070467
O   1.6227706937 -1.6302207688 -0.4340042524
C   2.9475462821  0.2560732866  0.1994017644
O   4.6937009689  2.5305539491  0.1229613257
H  -2.9640331288 -0.1012780388  0.0932640685
H  -0.8009105284 -0.9657811395  0.8987567288
H  -0.8584703907 -1.0313359956 -0.8240380927
H   0.5607806791  1.1530645556  0.7651061805
H   0.4931369376  1.0534718775 -0.9818827136
H   2.8581499919  1.0633214670  0.9097209675
H   4.0762611711  1.7929485558 -0.1019147800
H   3.8867004783 -0.2751765691  0.0976566073
H   4.6884780944  3.1400151462 -0.6141175072
17
Image 3  Energy = -421.94939639
C  -2.0140642703  0.4937289995  0.0317053569
O  -2.0804733835  1.7041137794 -0.0078901040
C  -0.7902871047 -0.3365252611  0.0072990712
C   0.5062348441  0.4415524733 -0.0685518429
C   1.7657926725 -0.4332778937 -0.0932553712
O   1.6315346108 -1.6660308584 -0.3221749239
C   2.9521216993  0.2723303282  0.1324853036
O   4.6123135879  2.5508243821  0.1763030579
H  -2.9624800123 -0.0754578677  0.0952105744
H  -0.8097013364 -0.9737184519  0.8960476041
H  -0.8733287259 -1.0357882112 -0.8276545008
H   0.5619047544  1.1338924900  0.7690675061
H   0.4932650477  1.0434625056 -0.9772519610
H   2.8752377376  1.0616934324  0.8637837270
H   4.0436666629  1.8045153944 -0.1356968257
H   3.8906041845 -0.2578333622  0.0226110644
H   4.7476588507  3.1425182180 -0.5620379949
17
Image 4  Energy = -421.94545010
C  -2.0093611477  0.4967614928  0.0295264641
O  -2.0618565116  1.7081016637 -0.0091295168
C  -0.7912590938 -0.3444580768  0.0027584056
C   0.5034658774  0.4387946665 -0.0743817155
C   1.7791067659 -0.4134479457 -0.0928663007
O   1.6800104505 -1.6587907951 -0.2310649758
C   2.9610888613  0.3268411723  0.0626960935
O   4.5693884379  2.5094369737  0.1868257048
H  -2.9652803780 -0.0602488470  0.0941763524
H  -0.8128477604 -0.9789470153  0.8931789285
H  -0.8842665738 -1.0442397857 -0.8310329930
H   0.5517259711  1.1232275827  0.7701915451
H   0.4796165451  1.0522051975 -0.9758139149
H   2.8953000648  1.0426961402  0.8675119489
H   4.0025849919  1.7706963165 -0.1858032732
H   3.8829810305 -0.2388531999 -0.0040340362
H   4.7696021210  3.1402241423 -0.5027387647
