17
Image 0  Energy = -421.93928932
C  -1.4209056592  0.2077292742  0.7717283607
O  -1.7499978612  1.3160640594  1.1163097723
C  -0.6599390044 -0.1520152703 -0.4662358334
C   0.5523143862  0.7154545092 -0.7745959182
C   1.8459255783  0.3453946863 -0.0419431171
O   2.9145299747  0.7451438723 -0.6287739107
C   1.7683614599 -0.3479473811  1.1340187207
O   5.0501754264  2.2822894580 -0.3166129848
H  -1.7578048772 -0.6550510971  1.3916673403
H  -0.3542588839 -1.1949096531 -0.3776528370
H  -1.3876296768 -0.1010199308 -1.2858928570
H   0.3302554746  1.7640999308 -0.5700147069
H   0.7705847089  0.6397689858 -1.8408899178
H   0.8399414553 -0.6554589348  1.5785612735
H   4.2979924660  1.6456017432 -0.3380062620
H   2.6826198144 -0.5761751875  1.6698663548
H   4.8278356888  2.8910303914 -1.0215332812
17
Image 1  Energy = -421.93584880
C  -1.4085510552  0.2284679959  0.7782309600
O  -1.8226650860  1.3278910847  1.0598992281
C  -0.6771754970 -0.1466457843 -0.4707399500
C   0.5436398481  0.7057081757 -0.7777096975
C   1.8309225519  0.3446194086 -0.0342382840
O   2.8976105631  0.8098375600 -0.5669718862
C   1.7583333216 -0.4077996954  1.1028408219
O   5.0703780734  2.3133517588 -0.2924635918
H  -1.6410990383 -0.6040842056  1.4738827061
H  -0.3923272019 -1.1948765156 -0.3901691481
H  -1.4086223382 -0.0696928056 -1.2810452271
H   0.3245674392  1.7565722064 -0.5817694248
H   0.7675971463  0.6251255597 -1.8416132505
H   0.8464282035 -0.7907604138  1.5170775577
H   4.3057631652  1.6916905917 -0.3116133365
H   2.6719060406 -0.6207085495  1.6433352298
H   4.8832943024  2.9013035810 -1.0269322832
17
Image 2  Energy = -421.93647122
C  -1.3768009641  0.2473709679  0.7990101344
O  -1.8781750153  1.3210003584  1.0267984439
C  -0.6917664107 -0.1404028462 -0.4796678343
C   0.5427387085  0.7006281379 -0.7900183160
C   1.8189500283  0.3480454028 -0.0217469854
O   2.8811157146  0.8590206221 -0.5207808703
C   1.7265781354 -0.4457913024  1.0884902421
O   5.0816693457  2.3243149422 -0.2843181225
H  -1.4681071345 -0.5571148757  1.5648077631
H  -0.4152950524 -1.1953235410 -0.4151241254
H  -1.4358301864 -0.0290839907 -1.2769623463
H   0.3243233959  1.7574747923 -0.6133146332
H   0.7766479794  0.5969488787 -1.8512515222
H   0.8114788548 -0.8838870390  1.4548394723
H   4.3012362110  1.7226682897 -0.2893280768
H   2.6352096956 -0.6528776758  1.6444050678
H   4.9160273354  2.8970091084 -1.0358390309
17
Image 3  Energy = -421.93786955
C  -1.3436518117  0.2693612360  0.8182037050
O  -1.9409938871  1.3042216499  1.0064967356
C  -0.7103501094 -0.1242131019 -0.4836236476
C   0.5418206796  0.6867076914 -0.8028493568
C   1.7986389605  0.3439194654 -0.0054375908
O   2.8654977480  0.9044783272 -0.4411646506
C   1.6975912364 -0.4909119385  1.0694521199
O   5.1017590018  2.3386434247 -0.2891890404
H  -1.2898534163 -0.4644368618  1.6417406311
H  -0.4572401119 -1.1840601474 -0.4372343628
H  -1.4650744101  0.0229914840 -1.2604656636
H   0.3360851652  1.7500718538 -0.6567094477
H   0.7886965665  0.5525326194 -1.8577490845
H   0.8023783235 -1.0152633831  1.3511647892
H   4.3087688456  1.7563248756 -0.2712221591
H   2.5792624804 -0.6809943989  1.6671733812
H   4.9366647678  2.9006271110 -1.0485865058
17
Image 4  Energy = -421.92512982
C  -1.2985837468  0.2960959287  0.8434889855
O  -1.8769918791  1.3331758583  1.0515914946
C  -0.7252566465 -0.1055882151 -0.4911988613
C   0.5510908105  0.6647300393 -0.8250697367
C   1.7799552994  0.3596708240  0.0370965385
O   2.8278598600  1.0057881791 -0.2838282393
C   1.6571711088 -0.5457600158  1.0579115474
O   5.1360886492  2.3401008491 -0.3391867469
H  -1.2063584497 -0.4337788143  1.6665063350
H  -0.5136176865 -1.1750675009 -0.4735693941
H  -1.4975913978  0.0899990346 -1.2385246727
H   0.3513250225  1.7362414333 -0.7494856814
H   0.8278612294  0.4668645701 -1.8632260185
H   0.7880989059 -1.1563110935  1.2266815245
H   4.3176389869  1.7989169788 -0.2489270472
H   2.5010221828 -0.7127428103  1.7144485515
H   4.9302882918  2.9076646254 -1.0847087982
17
Image 5  Energy = -421.92459129
C  -1.2246141916  0.2959608841  0.8667557240
O  -1.7154696456  1.3637706622  1.1340162560
C  -0.7298782211 -0.0892154579 -0.5058814701
C   0.5605961852  0.6499668001 -0.8570700185
C   1.7496947980  0.3833080147  0.0700282787
O   2.7817521713  1.0896261299 -0.1570427207
C   1.6038239546 -0.5541050274  1.0602002015
O   5.1379221744  2.3160394723 -0.3783756269
H  -1.1536015535 -0.4713656691  1.6554586453
H  -0.5563217333 -1.1651392321 -0.5274102117
H  -1.5247544214  0.1590181906 -1.2126063580
H   0.3687831411  1.7247206580 -0.8446094325
H   0.8666439581  0.3916370837 -1.8739747350
H   0.7773769510 -1.2398454069  1.1264079937
H   4.3055735785  1.8105984691 -0.2270405156
H   2.4015199221 -0.6873437357  1.7790073570
H   4.9009532770  2.8923679114 -1.1078640170
17
Image 6  Energy = -421.92316157
C  -1.1490119942  0.2775591464  0.8896763888
O  -1.5297942313  1.3723157172  1.2198041525
C  -0.7249562183 -0.0779874769 -0.5166911781
C   0.5669323484  0.6452588406 -0.8917604208
C   1.7252508627  0.4042530177  0.0778224002
O   2.7564683336  1.1234319406 -0.1002134982
C   1.5460900127 -0.5286865503  1.0695255679
O   5.1238265702  2.2978654445 -0.3875115850
H  -1.1467170316 -0.5355503644  1.6328913765
H  -0.5773484463 -1.1559125047 -0.5756476413
H  -1.5468230750  0.2088214583 -1.1762639713
H   0.3813912448  1.7203291274 -0.9205904880
H   0.8909192569  0.3478183821 -1.8923762395
H   0.7743920935 -1.2794713560  1.0565068574
H   4.2891889407  1.8052169934 -0.2073747528
H   2.3001478611 -0.6210138281  1.8400221879
H   4.8700429933  2.8657519165 -1.1178200806
17
Image 7  Energy = -421.92093430
C  -1.0691279505  0.2562221473  0.9125774895
O  -1.3584576919  1.3705585396  1.2783300542
C  -0.7116216469 -0.0788665996 -0.5216672642
C   0.5666682742  0.6454127263 -0.9255710671
C   1.7008387428  0.4211557637  0.0705649751
O   2.7430083656  1.1229309287 -0.0803533813
C   1.4727608091 -0.4840889364  1.0849720944
O   5.1115072431  2.2944675604 -0.3793203394
H  -1.1716285352 -0.5852297572  1.6157475506
H  -0.5734216916 -1.1558104667 -0.6031232507
H  -1.5647587702  0.2225141673 -1.1329904934
H   0.3795734355  1.7195122496 -0.9726234814
H   0.9024186328  0.3313318402 -1.9170918057
H   0.7764501268 -1.3024235795  1.0061452101
H   4.2803768803  1.7988025713 -0.1911565448
H   2.2144122856 -0.5558579708  1.8726433556
H   4.8510008362  2.8493685401 -1.1170844011
17
Image 8  Energy = -421.91877198
C  -0.9774367419  0.2378981243  0.9406541721
O  -1.2410923580  1.3636622104  1.3139142002
C  -0.6925750468 -0.0827328237 -0.5213508657
C   0.5679024865  0.6442660670 -0.9579114411
C   1.6769568385  0.4301096436  0.0570436338
O   2.7312700018  1.1060128634 -0.0651513909
C   1.3795965373 -0.4374520563  1.1008318344
O   5.1040651630  2.2949081553 -0.3723141485
H  -1.1841857393 -0.6135526036  1.6109220711
H  -0.5625967465 -1.1588612491 -0.6224926269
H  -1.5721793512  0.2306039569 -1.0882644460
H   0.3762981989  1.7168411619 -1.0044911056
H   0.9072870726  0.3261990914 -1.9455264237
H   0.7966963147 -1.3296000657  0.9584689866
H   4.2767752925  1.7950804851 -0.1803584273
H   2.1224780734 -0.4955759013  1.8907274190
H   4.8407391272  2.8421923286 -1.1147025942
17
Image 9  Energy = -421.91775039
C  -0.8749196344  0.2204094948  0.9685035968
O  -1.1592283971  1.3571980320  1.3294618860
C  -0.6763121442 -0.0894578492 -0.5199750381
C   0.5675776359  0.6432752443 -0.9847639827
C   1.6578385737  0.4346678921  0.0414391220
O   2.7218946091  1.0850530978 -0.0434630160
C   1.3003761020 -0.4145573606  1.0994226255
O   5.0996823560  2.2957300639 -0.3681860311
H  -1.1752668073 -0.6271879009  1.6107445501
H  -0.5533542588 -1.1639623008 -0.6430581768
H  -1.5758477784  0.2392655829 -1.0453143349
H   0.3667100223  1.7137950114 -1.0209612191
H   0.9078766613  0.3288556322 -1.9714486464
H   0.8107423450 -1.3547576253  0.9255335037
H   4.2773502912  1.7935634729 -0.1714837379
H   2.0216007681 -0.4297585551  1.9067249083
H   4.8332790066  2.8378675131 -1.1131769859
17
Image 10  Energy = -421.91710480
C  -0.7869918308  0.2125182052  0.9759131746
O  -1.0428865837  1.3732074399  1.3249553201
C  -0.6627954615 -0.0990371007 -0.5252000157
C   0.5659341850  0.6496877243 -1.0002302537
C   1.6442708978  0.4424464036  0.0365297700
O   2.7163751854  1.0694193357 -0.0258278958
C   1.2593920726 -0.3983497243  1.1022755157
O   5.0497151718  2.2758311899 -0.3491389276
H  -1.1525033496 -0.6245187631  1.6007482588
H  -0.5419824618 -1.1709391824 -0.6724590068
H  -1.5761764105  0.2410611085 -1.0174747213
H   0.3482024898  1.7174695481 -1.0188904998
H   0.9168818776  0.3532431120 -1.9883692062
H   0.8399071044 -1.3667706473  0.8962041178
H   4.2287239140  1.7701253627 -0.1512217945
H   1.9630046621 -0.3719783358  1.9204383546
H   4.7809282443  2.7965842682 -1.1082535938
17
Image 11  Energy = -421.91633555
C  -0.6764428793  0.1916703885  1.0029978228
O  -0.9598873541  1.3819460715  1.3325328867
C  -0.6551852746 -0.1084045248 -0.5231369969
C   0.5618272212  0.6481367918 -1.0145317546
C   1.6240437662  0.4616097041  0.0367229970
O   2.7090617723  1.0452500012 -0.0147458292
C   1.1647321395 -0.3483178001  1.1229069134
O   5.0237988663  2.2599526823 -0.3402909032
H  -1.1352321314 -0.6436782611  1.5829890344
H  -0.5438691436 -1.1804213656 -0.6946787003
H  -1.5740020694  0.2445475256 -0.9950543390
H   0.3407104167  1.7165569682 -1.0283803773
H   0.9278729088  0.3548134096 -1.9972073619
H   0.8837095963 -1.3621462754  0.8564930145
H   4.1958802462  1.7588641807 -0.1535070980
H   1.8926926348 -0.3364533050  1.9285278364
H   4.7702888082  2.7860739429 -1.1016385704
17
Image 12  Energy = -421.92079481
C  -0.5886807985  0.1666903904  1.0189412651
O  -0.8878952240  1.3761148349  1.3485184985
C  -0.6472502639 -0.1113805587 -0.5220342118
C   0.5613879674  0.6538860220 -1.0305047434
C   1.6163918102  0.4748198011  0.0270871425
O   2.7184619639  1.0127965023 -0.0085376073
C   1.0980624572 -0.3225142053  1.1223635910
O   5.0027724132  2.2503903075 -0.3340459384
H  -1.1112495288 -0.6573663858  1.5695735549
H  -0.5496999887 -1.1822538641 -0.7185510051
H  -1.5765793971  0.2521424365 -0.9596599618
H   0.3289722466  1.7202866733 -1.0429376287
H   0.9328539408  0.3578779467 -2.0096394728
H   0.9423004226 -1.3604435529  0.8243403930
H   4.1729660298  1.7466637930 -0.1548682306
H   1.7807032775 -0.2831680588  1.9684177969
H   4.7564824355  2.7754578292 -1.0984648113
17
Image 13  Energy = -421.92495776
C  -0.5393063481  0.1398993984  1.0201961308
O  -0.8169297272  1.3667712173  1.3655610632
C  -0.6431077638 -0.1098726065 -0.5231663001
C   0.5590779130  0.6629980065 -1.0411560937
C   1.6114359354  0.4802726871  0.0179103533
O   2.7306559207  0.9701186839 -0.0113818252
C   1.0568000264 -0.3127939379  1.1171814531
O   4.9866952256  2.2468124453 -0.3295904680
H  -1.0872842067 -0.6736251906  1.5594978472
H  -0.5547394059 -1.1769507259 -0.7444263688
H  -1.5803613992  0.2601731322 -0.9301806864
H   0.3197007401  1.7268818455 -1.0527956670
H   0.9331682745  0.3678726207 -2.0199755229
H   1.0076712446 -1.3630022911  0.8140936359
H   4.1605526905  1.7346001139 -0.1549712709
H   1.6651044859 -0.2155822412  2.0118568408
H   4.7408662942  2.7654269405 -1.0986544995
17
Image 14  Energy = -421.92777410
C  -0.5100597724  0.1076364578  1.0113539284
O  -0.7596210331  1.3460219913  1.3777567341
C  -0.6429276413 -0.1030808043 -0.5333023136
C   0.5579989805  0.6770488153 -1.0446552749
C   1.6146851642  0.4691661880  0.0085361890
O   2.7556090614  0.8969242653 -0.0429075159
C   1.0345082806 -0.3076717590  1.1222389320
O   4.9672519995  2.2504219661 -0.3249616596
H  -1.0815649567 -0.6992576351  1.5358267265
H  -0.5628801856 -1.1636424661 -0.7896796952
H  -1.5882053753  0.2838584726 -0.9056311023
H   0.3169444189  1.7395999811 -1.0432463447
H   0.9275374315  0.3981072581 -2.0296699176
H   1.0983384648 -1.3739016007  0.8634336502
H   4.1554781403  1.7123811185 -0.1616200955
H   1.5487495874 -0.1174252809  2.0596559645
H   4.7181571668  2.7538134794 -1.1031293320
17
Image 15  Energy = -421.92919320
C  -0.4999983012  0.0764460837  1.0010638803
O  -0.7576561356  1.3094829461  1.3967370058
C  -0.6397059259 -0.0898310501 -0.5482232131
C   0.5645110139  0.6960766789 -1.0418501732
C   1.6279371228  0.4418296203 -0.0040440656
O   2.7941373750  0.7822369929 -0.1015933590
C   1.0281679423 -0.2939510791  1.1367763821
O   4.9363821125  2.2558273109 -0.3201128961
H  -1.0773315729 -0.7444466716  1.4980715215
H  -0.5796913340 -1.1402863485 -0.8529247561
H  -1.5850380360  0.3259074851 -0.8893725352
H   0.3299916281  1.7603450512 -1.0072496920
H   0.9262836095  0.4467563624 -2.0375339479
H   1.1884339474 -1.3703495187  0.9690178680
H   4.1506846492  1.6760708538 -0.1760066901
H   1.4612978110  0.0003570684  2.0873558877
H   4.6815939210  2.7375284927 -1.1101126263
17
Image 16  Energy = -421.92982876
C  -0.5040621150  0.0574766110  0.9951394748
O  -0.8168877796  1.2674365133  1.4222442548
C  -0.6309435683 -0.0736158437 -0.5593844095
C   0.5742930479  0.7199820359 -1.0366635268
C   1.6448016923  0.4149846915 -0.0207661865
O   2.8311729879  0.6558355680 -0.1647493537
C   1.0289074188 -0.2628954026  1.1499783168
O   4.8981888709  2.2501334065 -0.3090382047
H  -1.0579347919 -0.7992789122  1.4594462990
H  -0.5717842779 -1.1166470723 -0.8906452829
H  -1.5755020794  0.3527740212 -0.8899577696
H   0.3498509549  1.7855385667 -0.9596011948
H   0.9242279655  0.5051940429 -2.0443376420
H   1.2403263152 -1.3398624589  1.0634735766
H   4.1397268968  1.6298035719 -0.1941138918
H   1.4247001737  0.1083565360  2.0905461281
H   4.6509181064  2.7147837661 -1.1115715969
17
Image 17  Energy = -421.93002734
C  -0.5118760866  0.0431035122  0.9875998467
O  -0.8817960170  1.2274888903  1.4379089127
C  -0.6201365366 -0.0604299248 -0.5712522616
C   0.5824359754  0.7477434030 -1.0298092599
C   1.6560669764  0.3980605782 -0.0331891697
O   2.8522304142  0.5555349159 -0.2122222707
C   1.0289355774 -0.2294525791  1.1607261567
O   4.8705279778  2.2223720051 -0.3006323052
H  -1.0380542785 -0.8467024886  1.4232812146
H  -0.5472399317 -1.0975473682 -0.9184080858
H  -1.5657572180  0.3634195734 -0.9022752715
H   0.3641480005  1.8112902345 -0.9071120113
H   0.9231369211  0.5708916937 -2.0477001066
H   1.2771236474 -1.3008059163  1.1440087296
H   4.1309819441  1.5758976099 -0.2096393322
H   1.3990472050  0.2046055277  2.0855444127
H   4.6302257372  2.6845304005 -1.1068298636
17
Image 18  Energy = -421.92995652
C  -0.5229319344  0.0201089301  0.9783069283
O  -0.9307683377  1.1807546901  1.4571269395
C  -0.6091836484 -0.0410151690 -0.5835227260
C   0.5921582282  0.7858574841 -1.0089543242
C   1.6606109449  0.3931142277 -0.0236001107
O   2.8611716984  0.5047041332 -0.2111900779
C   1.0217384278 -0.2235019342  1.1701809336
O   4.8661395138  2.1880880681 -0.3278762935
H  -1.0333181072 -0.8952379423  1.3804789560
H  -0.5221650363 -1.0685450698 -0.9563508092
H  -1.5546957694  0.3842748261 -0.9153076621
H   0.3754730382  1.8438842542 -0.8404280782
H   0.9332185456  0.6505592392 -2.0330246301
H   1.2951734153 -1.2876178487  1.1843476679
H   4.1298884030  1.5383919061 -0.2331232123
H   1.3683578022  0.2383188765  2.0909031376
H   4.6191332272  2.6578613649 -1.1279666411
17
Image 19  Energy = -421.93044909
C  -0.5330158086 -0.0043753439  0.9747238973
O  -0.9500312479  1.1392872827  1.4830321961
C  -0.6032403586 -0.0185936660 -0.5907596131
C   0.6036657548  0.8202840925 -0.9787395398
C   1.6612166737  0.3994137503  0.0068246428
O   2.8637465646  0.5144821920 -0.1619608074
C   1.0097717705 -0.2492978634  1.1757232326
O   4.8813442618  2.1698527256 -0.3917310180
H  -1.0451804024 -0.9330144705  1.3420494234
H  -0.5116572011 -1.0339566745 -0.9922175887
H  -1.5442627747  0.4170467344 -0.9186201796
H   0.3858395363  1.8734286259 -0.7836702572
H   0.9520920167  0.7125796793 -2.0035406176
H   1.2875305507 -1.3124921531  1.1669337065
H   4.1362971556  1.5348207105 -0.2638984203
H   1.3436200621  0.1891027967  2.1124453908
H   4.6122633828  2.6514317718 -1.1765944017
17
Image 20  Energy = -421.92986569
C  -0.5432440164 -0.0228653846  0.9731478941
O  -0.9583991103  1.1115939177  1.5033192163
C  -0.5974788314 -0.0010882767 -0.5925036856
C   0.6133237686  0.8464349924 -0.9487097897
C   1.6582345706  0.4160898790  0.0473366678
O   2.8614360286  0.5618048332 -0.0854754734
C   0.9958944628 -0.2792123166  1.1823395278
O   4.9121789341  2.1406548805 -0.4834711788
H  -1.0633151117 -0.9568132509  1.3149181336
H  -0.5022772953 -1.0070754446 -1.0161111428
H  -1.5347740939  0.4427060765 -0.9203174825
H   0.3901545675  1.8965643247 -0.7449081339
H   0.9749390406  0.7527800420 -1.9704059031
H   1.2682721195 -1.3425825582  1.1265747836
H   4.1527412442  1.5368034766 -0.3001591904
H   1.3242144988  0.1142534763  2.1404247442
H   4.5980995418  2.6599507401 -1.2259987863
17
Image 21  Energy = -421.92967343
C  -0.5527551386 -0.0412639425  0.9713911431
O  -0.9680906737  1.0827733886  1.5239158584
C  -0.5906092685  0.0156132563 -0.5937765146
C   0.6226837394  0.8723362611 -0.9181726146
C   1.6544311217  0.4377841772  0.0919148446
O   2.8547839786  0.6283072609  0.0039671400
C   0.9832548313 -0.3068374267  1.1881988877
O   4.9419161355  2.0912598511 -0.5947181723
H  -1.0788142194 -0.9809254168  1.2875521860
H  -0.4918477432 -0.9804435137 -1.0395486663
H  -1.5243647422  0.4673782376 -0.9200595441
H   0.3918007766  1.9193040666 -0.7066551503
H   0.9993164626  0.7911496769 -1.9357689097
H   1.2516837724 -1.3679327150  1.0848110114
H   4.1694198297  1.5301389801 -0.3430618861
H   1.3070422173  0.0395704836  2.1663621383
H   4.5801502570  2.6717859640 -1.2663517136
17
Image 22  Energy = -421.93323798
C  -0.5601868584 -0.0546321875  0.9724167505
O  -0.9781011245  1.0622269222  1.5364829387
C  -0.5833420857  0.0237233608 -0.5914829202
C   0.6291707731  0.8902738273 -0.8946097952
C   1.6469777946  0.4722652654  0.1351435708
O   2.8399850833  0.7204521576  0.1002406494
C   0.9752475245 -0.3190499866  1.1975132049
O   4.9612823028  2.0011574837 -0.7344422082
H  -1.0883161209 -0.9985242617  1.2712371177
H  -0.4769849378 -0.9657741357 -1.0490765417
H  -1.5163703459  0.4755019221 -0.9209443548
H   0.3868809494  1.9364351452 -0.6955658241
H   1.0212996692  0.8101082194 -1.9063233370
H   1.2499455309 -1.3745116197  1.0604049741
H   4.1779154418  1.5018032242 -0.3990398054
H   1.2964088008 -0.0017979560  2.1898773984
H   4.5681874087  2.6903426465 -1.2718310225
17
Image 23  Energy = -421.93236800
C  -0.5781788005 -0.0908285924  0.9725601761
O  -1.0430545352  0.9792181443  1.5835600555
C  -0.5934463483  0.0480009556 -0.5857814100
C   0.6397377626  0.8865151206 -0.8796501673
C   1.6499434595  0.4812554875  0.1605874250
O   2.8358425537  0.7585689234  0.1367313822
C   0.9668217573 -0.3201715976  1.2189711405
O   4.9928681472  1.9674616459 -0.8288154752
H  -1.0748269613 -1.0666961468  1.2193611658
H  -0.5372768190 -0.9245686320 -1.0855958832
H  -1.5120263575  0.5481745868 -0.8861051925
H   0.4222039482  1.9409308352 -0.6986543771
H   1.0410342944  0.7843815363 -1.8864475779
H   1.2614329461 -1.3697106300  1.1008667001
H   4.1987972254  1.5080555430 -0.4680910833
H   1.2495958228  0.0134039381  2.2161760341
H   4.6305313536  2.7260087636 -1.2896733095
17
Image 24  Energy = -421.93062796
C  -0.6059369175 -0.1109929431  0.9750624765
O  -1.1004034469  0.9348582291  1.6045101357
C  -0.6158803940  0.0559691017 -0.5806592233
C   0.6358681683  0.8644310061 -0.8744375625
C   1.6448196738  0.4591332311  0.1704342733
O   2.8335131302  0.7235692928  0.1321354977
C   0.9408463309 -0.3241608872  1.2363632427
O   5.0799848512  2.0557459585 -0.8221180100
H  -1.0889817517 -1.1011173691  1.1934168289
H  -0.5938840449 -0.9081230248 -1.0977790544
H  -1.5222212607  0.5868533669 -0.8638700601
H   0.4414296888  1.9258557743 -0.7123253388
H   1.0454254136  0.7394377770 -1.8761990541
H   1.2432764937 -1.3743688595  1.1496077643
H   4.3063235042  1.5447965201 -0.5260550062
H   1.2043534488  0.0289520708  2.2324294624
H   4.7014669916  2.7691610130 -1.3405161980
17
Image 25  Energy = -421.92811541
C  -0.6291584165 -0.1278711524  0.9792677464
O  -1.1471106248  0.8951615458  1.6265989283
C  -0.6308576591  0.0657387481 -0.5743172895
C   0.6361420104  0.8495923239 -0.8677602423
C   1.6380576921  0.4492881177  0.1890118637
O   2.8262056883  0.7167236630  0.1501636260
C   0.9180966740 -0.3301946759  1.2531221397
O   5.1393728501  2.1222937726 -0.8215254926
H  -1.1022955824 -1.1290975045  1.1702320699
H  -0.6342053673 -0.8916325827 -1.1026921736
H  -1.5281012103  0.6182356984 -0.8445923867
H   0.4630258781  1.9176190287 -0.7331008676
H   1.0564209326  0.6972883946 -1.8618239599
H   1.2209470724 -1.3811066079  1.1780332871
H   4.3828119884  1.5533534786 -0.6184815276
H   1.1673409341  0.0270463064  2.2514005530
H   4.7733072793  2.8175614253 -1.3735360675
17
Image 26  Energy = -421.92490711
C  -0.6496379794 -0.1395956302  0.9833658590
O  -1.1844308836  0.8696316949  1.6386487234
C  -0.6418651343  0.0719077103 -0.5692252008
C   0.6342943876  0.8417757078 -0.8594211133
C   1.6262447026  0.4419754602  0.2090517503
O   2.8148611404  0.7017049411  0.1738781761
C   0.8964828481 -0.3357214957  1.2689445389
O   5.1808677866  2.1884501451 -0.8090349366
H  -1.1162641919 -1.1472004899  1.1562478134
H  -0.6579572376 -0.8797482181 -1.1066881632
H  -1.5346431583  0.6341788655 -0.8329413374
H   0.4782876054  1.9147051508 -0.7485130527
H   1.0617582026  0.6645963185 -1.8466091186
H   1.2046646873 -1.3853059748  1.1930967642
H   4.4622718163  1.5505892752 -0.7175967668
H   1.1387641843  0.0192682572  2.2702286265
H   4.8363017776  2.8587884046 -1.4034325706
17
Image 27  Energy = -421.92270754
C  -0.6646957077 -0.1441470347  0.9888570632
O  -1.2080502097  0.8523675475  1.6542403711
C  -0.6499621183  0.0751709023 -0.5671346044
C   0.6316274006  0.8366221952 -0.8526994402
C   1.6163755385  0.4350037658  0.2205692167
O   2.8067971989  0.6813958231  0.1879721824
C   0.8851610794 -0.3368862581  1.2799134673
O   5.1864423584  2.2365406607 -0.7790850434
H  -1.1316496099 -1.1536938302  1.1429083109
H  -0.6745532097 -0.8724438934 -1.1112334931
H  -1.5375353967  0.6395268756 -0.8434002028
H   0.4777395798  1.9107490582 -0.7516699067
H   1.0695563403  0.6435737525 -1.8322947112
H   1.1962682797 -1.3855315117  1.2006467861
H   4.5008160396  1.5580205774 -0.7764609372
H   1.1499169534  0.0218292101  2.2751966723
H   4.8957457615  2.8719021596 -1.4363255629
17
Image 28  Energy = -421.92177537
C  -0.6662363034 -0.1457480631  0.9919615135
O  -1.2133026929  0.8372194866  1.6723001571
C  -0.6508375156  0.0787773099 -0.5666047742
C   0.6340808370  0.8341600766 -0.8564763981
C   1.6176465880  0.4349658633  0.2185012327
O   2.8053697995  0.6940437374  0.1937104583
C   0.8872585091 -0.3369532080  1.2784756060
O   5.1707424187  2.2366165973 -0.7602949204
H  -1.1314043035 -1.1582352796  1.1332277216
H  -0.6822889782 -0.8725030236 -1.1039039551
H  -1.5341345372  0.6463039733 -0.8497930601
H   0.4795346629  1.9086840232 -0.7595277210
H   1.0760663404  0.6445878076 -1.8358068149
H   1.1910720473 -1.3886647083  1.2130616706
H   4.5005034971  1.5467369218 -0.8120697181
H   1.1622082144  0.0337347813  2.2663452217
H   4.9037212108  2.8762736413 -1.4231062052
17
Image 29  Energy = -421.91869276
C  -0.6713597461 -0.1539707002  0.9921174902
O  -1.2327798868  0.8193604413  1.6748760430
C  -0.6525382456  0.0837873843 -0.5639728835
C   0.6357730038  0.8342722271 -0.8570675732
C   1.6151603241  0.4458875277  0.2277978665
O   2.7982568705  0.7198030934  0.2121909747
C   0.8840202757 -0.3347660940  1.2825625029
O   5.1366480258  2.2470881220 -0.7334353268
H  -1.1293061113 -1.1722368888  1.1259670340
H  -0.6888963875 -0.8677841918 -1.1016160266
H  -1.5320049228  0.6643361845 -0.8320308926
H   0.4973147212  1.9131209883 -0.7841761573
H   1.0739860494  0.6302822253 -1.8358372265
H   1.1974801076 -1.3835058398  1.2227127924
H   4.5627812460  1.4984062306 -0.9103218411
H   1.1490904329  0.0268921389  2.2759462684
H   4.9063739925  2.8990270411 -1.3957133524
17
Image 30  Energy = -421.91251547
C  -0.6929251657 -0.1637122487  0.9959432207
O  -1.2575309400  0.7978298097  1.6872037059
C  -0.6636039197  0.0871268609 -0.5656647299
C   0.6303255118  0.8303706257 -0.8457712084
C   1.6007780188  0.4541347946  0.2484150615
O   2.7832276695  0.7332558701  0.2331930565
C   0.8811154287 -0.3305272359  1.3033898709
O   5.0595706725  2.2751320662 -0.6928968794
H  -1.1672445618 -1.1799348394  1.1019664032
H  -0.7053082092 -0.8587735903 -1.1164980317
H  -1.5294344631  0.6816005547 -0.8531682955
H   0.5044897317  1.9126085336 -0.7895209228
H   1.0758712244  0.5935387953 -1.8132691253
H   1.2173012248 -1.3700172428  1.2328705483
H   4.6609269010  1.4676215261 -1.0229849380
H   1.1931456508  0.0216397327  2.2909780561
H   4.9592953070  2.9181060260 -1.3941857265
17
Image 31  Energy = -421.90446847
C  -0.7210982382 -0.1698987012  0.9989656667
O  -1.2692365933  0.7695950373  1.7195779539
C  -0.6788251082  0.0938484600 -0.5723341935
C   0.6263600043  0.8225319370 -0.8328398013
C   1.5924617651  0.4576265130  0.2641353567
O   2.7746664163  0.7560440220  0.2489911705
C   0.8930099434 -0.3272354120  1.3240589801
O   4.9797938628  2.2769761272 -0.6853917549
H  -1.2208894822 -1.1804010053  1.0746860980
H  -0.7274284257 -0.8461926929 -1.1336130812
H  -1.5269892920  0.6941611263 -0.9134835257
H   0.4963288618  1.9040539472 -0.7830133047
H   1.0845297078  0.5644013593 -1.7871951912
H   1.2409155446 -1.3628364712  1.2502275846
H   4.7351943905  1.4429204912 -1.0891132441
H   1.2751158395  0.0359029662  2.2914495495
H   4.9960905854  2.9385019578 -1.3751083709
17
Image 32  Energy = -421.89157877
C  -0.7629466712 -0.1826039364  0.9813346011
O  -1.2662720574  0.7414850396  1.7363123121
C  -0.6980114486  0.0999132056 -0.5824128883
C   0.6232355862  0.8155123843 -0.8159353776
C   1.5982781856  0.4673274620  0.2824050387
O   2.7809277465  0.7838713104  0.2586731512
C   0.9066073916 -0.3162534320  1.3436692564
O   4.9038242722  2.2659077399 -0.7221916501
H  -1.2813890325 -1.1915391953  1.0617402131
H  -0.7430199280 -0.8388274579 -1.1454147587
H  -1.5297783670  0.7120864543 -0.9624295433
H   0.4950635048  1.8959047260 -0.7845014203
H   1.0794351122  0.5456489625 -1.7643508969
H   1.2639511008 -1.3475208229  1.2695222309
H   4.8068180738  1.3986889150 -1.1191865509
H   1.3468400160  0.0377981897  2.3035888174
H   5.0264363160  2.9826004890 -1.3408224214
17
Image 33  Energy = -421.86866071
C  -0.8045035068 -0.1979170362  0.9441148863
O  -1.2261351557  0.7151174524  1.7537217695
C  -0.7206776331  0.1016621243 -0.5986148858
C   0.6178702852  0.8080646882 -0.7976074149
C   1.6197272961  0.4808532536  0.2940296320
O   2.8009156311  0.7996140871  0.2566918494
C   0.8841527557 -0.2920146442  1.3583325688
O   4.8761699588  2.2567972829 -0.7780673457
H  -1.3306520963 -1.2055636301  1.0593343209
H  -0.7534708084 -0.8379584868 -1.1607961678
H  -1.5357461947  0.7240744369 -1.0051115476
H   0.4920514498  1.8885486768 -0.7781315391
H   1.0723530557  0.5325190439 -1.7434843661
H   1.2732771389 -1.3292466836  1.2822548129
H   4.8284055963  1.3485082010 -1.1051192115
H   1.4181857760  0.0429705216  2.3269030147
H   5.0380763544  3.0339709627 -1.3084503619
17
Image 34  Energy = -421.81720765
C  -0.8339269239 -0.2104484450  0.8968942657
O  -1.1804453561  0.6894132964  1.7687737386
C  -0.7426522576  0.1077990493 -0.6147265837
C   0.6104279794  0.7961223065 -0.7740531842
C   1.6637018793  0.4972807078  0.2895763539
O   2.8244624899  0.8157077496  0.2543764928
C   0.8009465345 -0.2612074322  1.3601569345
O   4.8661516776  2.2605014252 -0.8276938369
H  -1.3584181862 -1.2170443547  1.0669756144
H  -0.7584088281 -0.8386240763 -1.1655759166
H  -1.5412949675  0.7317977066 -1.0296910325
H   0.4889010040  1.8845287205 -0.7756869336
H   1.0680996860  0.5247673950 -1.7312904184
H   1.2856009968 -1.3353328598  1.2885594473
H   4.8386913148  1.2960794822 -1.0906315517
H   1.4771144220  0.0522902834  2.3631405844
H   5.0410485352  3.0763690455 -1.2791039741
