17
Image 0  Energy = -421.90257518
C  -2.0150775566  0.5009897769  0.0316565824
O  -2.0506408628  1.7089936247 -0.0104071186
C  -0.7880651377 -0.3575777744  0.0056814417
C   0.5087753019  0.4337802411 -0.0838284580
C   1.8020427676 -0.3600233435 -0.1295952173
O   1.7993078797 -1.5948530644 -0.1110490481
C   3.0249797750  0.4550723753 -0.0322643789
O   4.5760355212  2.5795878110  0.2678823358
H  -2.9851434398 -0.0356154708  0.0951596727
H  -0.8280243488 -0.9851876381  0.9024931392
H  -0.8986208975 -1.0497299083 -0.8336803000
H   0.5463670654  1.1099186714  0.7721534016
H   0.5010408898  1.0580994296 -0.9766317284
H   2.8767857555  1.0160970132  0.8869514490
H   3.8029742091  1.4285385760 -0.2950747108
H   3.8589531601 -0.2238264156 -0.0538871735
H   4.8183099438  3.1857360922 -0.4355598727
17
Image 1  Energy = -421.90365182
C  -1.9939714279  0.4953463823  0.0245839666
O  -2.0551745824  1.6992679121 -0.0083347575
C  -0.7619396843 -0.3225088856 -0.0069965226
C   0.5195074627  0.4924520661 -0.0830347710
C   1.7933472068 -0.3500689478 -0.1227969618
O   1.7316699269 -1.5772874107 -0.2976791083
C   3.0420627907  0.3748261858  0.1188415031
O   4.4646069537  2.5262230650  0.1106210644
H  -2.9405179438 -0.0758362383  0.0867766433
H  -0.7765121257 -0.9605525793  0.8821324532
H  -0.8419074416 -1.0238671425 -0.8416823151
H   0.5633523897  1.1661058948  0.7755257175
H   0.4884251141  1.1121271085 -0.9798097022
H   2.9709259808  0.8685049408  1.0651689733
H   3.7229183767  1.5996797532 -0.2451362631
H   3.8939788342 -0.2948011378  0.0959963406
H   4.7292280918  3.1403898529 -0.5741760469
17
Image 2  Energy = -421.92567455
C  -2.0001410241  0.4916809196  0.0265521597
O  -2.0786018868  1.7057584509 -0.0033620663
C  -0.7540032827 -0.3145952699 -0.0022204319
C   0.5308346516  0.4839578177 -0.0602126616
C   1.7996380023 -0.3773151197 -0.1202962075
O   1.6704081580 -1.5819528909 -0.4339342800
C   2.9950314184  0.2855435919  0.1807617451
O   4.4460297352  2.5351790616  0.0862476559
H  -2.9391714245 -0.0912873559  0.0842766870
H  -0.7712211463 -0.9576887275  0.8839670920
H  -0.8268659387 -1.0102074603 -0.8411776959
H   0.5769129484  1.1666875391  0.7818544369
H   0.5133723507  1.0928231880 -0.9652005580
H   2.9176801583  0.9332539659  1.0646667284
H   3.8938937310  1.7446554096 -0.1431232713
H   3.8982570130 -0.3203170804  0.1289229841
H   4.6779465777  3.0838248423 -0.6677221526
17
Image 3  Energy = -421.95544071
C  -2.0117452903  0.4792722857  0.0348397731
O  -2.1165215280  1.6915064500  0.0240716599
C  -0.7667614996 -0.3093467049  0.0068912562
C   0.5221201536  0.4834925002 -0.0686427577
C   1.7718518506 -0.4024528451 -0.1338279134
O   1.6229803448 -1.5749198555 -0.5924156030
C   2.9516069798  0.2022044852  0.2927003925
O   4.6204002066  2.6089806817  0.0640455199
H  -2.9438369886 -0.1150610556  0.0757748366
H  -0.7743833157 -0.9465043110  0.8963686635
H  -0.8135610468 -1.0151469642 -0.8246605071
H   0.5923947295  1.1624253273  0.7752668794
H   0.5040137811  1.0931300059 -0.9700074213
H   2.8586582860  0.9844393810  1.0330271953
H   4.0577012684  1.8095308196 -0.0530061271
H   3.8796417639 -0.3548681894  0.2119741863
H   4.5954407288  3.0733191823 -0.7723989018
17
Image 4  Energy = -421.91332019
C  -1.9760481581  0.5090722776  0.0154802079
O  -2.0724356745  1.7143249696  0.0029569131
C  -0.7080750181 -0.2763470643 -0.0215854459
C   0.5675037666  0.5393879543 -0.0639463173
C   1.8163012740 -0.3244720273 -0.1133636937
O   1.6966808941 -1.5189722022 -0.4090741498
C   3.0935012859  0.3143302320  0.2217401115
O   4.2708719353  2.7510389330  0.0647307907
H  -2.9008801247 -0.1005366984  0.0662236744
H  -0.7262022587 -0.9267690047  0.8590662065
H  -0.7719881510 -0.9592044658 -0.8714044506
H   0.6148737970  1.2193722242  0.7850658266
H   0.5837708120  1.1683258928 -0.9563429372
H   3.0553355344  0.6982822478  1.2381340642
H   3.4099426004  1.2867196180 -0.2571790232
H   3.9219578609 -0.3769733240  0.1370452846
H   4.6748896774  3.1524197994 -0.6975475229
17
Image 5  Energy = -421.95585603
C  -2.0073135049  0.4795386063  0.0352582118
O  -2.1158528013  1.6897558336  0.0307089811
C  -0.7551877012 -0.3059783097  0.0039024430
C   0.5298234242  0.4961751318 -0.0610868872
C   1.7910537480 -0.3736797096 -0.1405982787
O   1.6600219222 -1.5295765903 -0.6341364769
C   2.9655865753  0.2296616170  0.3029977006
O   4.5758262997  2.5551470015  0.0311408398
H  -2.9385219521 -0.1218554573  0.0718719768
H  -0.7637501873 -0.9495263892  0.8898073323
H  -0.8058324408 -1.0048570980 -0.8330433320
H   0.5859136713  1.1735704659  0.7863453845
H   0.5155928910  1.1084347536 -0.9617392396
H   2.8606769734  0.9814388266  1.0751149825
H   4.0080125524  1.7584641451 -0.0531218303
H   3.8865809113 -0.3454474495  0.2576272819
H   4.5573700266  3.0287352309 -0.8010491314
17
Image 6  Energy = -421.92777663
C  -1.8171014470  0.3194504378  0.5175976965
O  -1.9069728624  1.4571655979  0.9123532660
C  -0.7558775627 -0.2555090159 -0.3502286963
C   0.5213704239  0.5693956944 -0.5159051842
C   1.7930855803 -0.2340802854 -0.1697443893
O   1.9875299162 -1.2669449218 -0.8816108523
C   2.5676114358  0.2657749879  0.8497566312
O   4.7754711007  2.4695727148 -0.0455322521
H  -2.6210876838 -0.3928536732  0.7979990838
H  -0.5299492570 -1.2493706260  0.0419935809
H  -1.2501164108 -0.4524932653 -1.3080948541
H   0.4545483570  1.4831160653  0.0676049535
H   0.6207132871  0.8717345453 -1.5581481729
H   2.1455197801  0.9119429698  1.6100278902
H   4.2174221396  1.6793164161 -0.0839989621
H   3.5517135329 -0.1451327937  1.0448439552
H   4.7961201046  2.8389150818 -0.9289136378
