17
Image 0  Energy = -421.93114433
C  -0.5487565885  0.0628755165  1.0180817583
O  -0.9101773142  1.2580396643  1.4275983231
C  -0.6365898848 -0.0761363934 -0.5392853280
C   0.5612246491  0.7463445088 -0.9864830708
C   1.6379722666  0.4291914823  0.0156519904
O   2.8280931745  0.6783778591 -0.1102291206
C   1.0007376820 -0.2644045961  1.1863927702
O   5.0564416496  2.1587852191 -0.5922929764
H  -1.1157345078 -0.7887405889  1.4685995356
H  -0.5281830956 -1.1207393872 -0.8491801772
H  -1.5817203391  0.3103280263 -0.9236131613
H   0.3221766544  1.8050320546 -0.8572806621
H   0.9065413888  0.5830178543 -2.0076551186
H   1.1751599383 -1.3391528649  1.0585422167
H   4.3296506604  1.5477729373 -0.3598655303
H   1.4772147232  0.0339930502  2.1096058105
H   4.5759488486  2.8454159736 -1.0585870090
17
Image 1  Energy = -421.92929517
C  -0.5464570193  0.0408117416  1.0022624235
O  -0.9404583756  1.2181984616  1.4468592775
C  -0.6251384179 -0.0617967607 -0.5566104752
C   0.5723049424  0.7722151424 -0.9854639124
C   1.6485653318  0.4054774694  0.0052433503
O   2.8479836694  0.5630144762 -0.1615794691
C   1.0094630976 -0.2317166931  1.1884626118
O   5.0184764056  2.1237020812 -0.5820357742
H  -1.0843445055 -0.8466055246  1.4312643827
H  -0.5223572116 -1.0980690312 -0.8976858004
H  -1.5715537835  0.3400168160 -0.9142525416
H   0.3386081117  1.8275994777 -0.8172377197
H   0.9121507350  0.6372663361 -2.0102756511
H   1.2445775948 -1.3060937665  1.1594205747
H   4.2945826809  1.4983429558 -0.3866050918
H   1.4022553995  0.1653079636  2.1240372527
H   4.5513414208  2.8223290532 -1.0458034034
17
Image 2  Energy = -421.92926675
C  -0.5495388960  0.0267172475  0.9923687798
O  -0.9871832143  1.1806009312  1.4564557811
C  -0.6165761245 -0.0493094965 -0.5691955253
C   0.5805846186  0.7935043996 -0.9807329835
C   1.6586083407  0.3830291565 -0.0103465779
O   2.8609915294  0.4642457077 -0.2102296400
C   1.0120896567 -0.2026352665  1.1965033594
O   4.9949759920  2.0963073333 -0.5677744191
H  -1.0623401730 -0.8865133249  1.3980991904
H  -0.5087353191 -1.0791999738 -0.9274649916
H  -1.5630191441  0.3553479864 -0.9232630824
H   0.3552299416  1.8434384687 -0.7684439359
H   0.9104238572  0.6936522821 -2.0123781953
H   1.2872157915 -1.2655971621  1.2496324554
H   4.2822114257  1.4495328876 -0.4039588109
H   1.3697148076  0.2720614712  2.1100650472
H   4.5253478056  2.7948170817 -1.0293370076
17
Image 3  Energy = -421.92919038
C  -0.5602632348 -0.0029259752  0.9857772497
O  -1.0310335592  1.1193915028  1.4918181868
C  -0.6124717358 -0.0230828333 -0.5787527227
C   0.5924531325  0.8219450041 -0.9608883969
C   1.6621667854  0.3808218930  0.0054637270
O   2.8661333925  0.4443229027 -0.1914150313
C   1.0036404335 -0.2097783575  1.2038672407
O   4.9979701279  2.0805036799 -0.5972471405
H  -1.0558326811 -0.9437292873  1.3480211920
H  -0.5114356903 -1.0410137118 -0.9708509134
H  -1.5541946421  0.4004013895 -0.9231735465
H   0.3769711538  1.8692282412 -0.7269841172
H   0.9259756855  0.7428318541 -1.9931845885
H   1.2995800912 -1.2655984185  1.2740025023
H   4.2845278229  1.4385254577 -0.4201369500
H   1.3349252527  0.2814481685  2.1185093488
H   4.5308879306  2.7767092276 -1.0648261480
17
Image 4  Energy = -421.92920290
C  -0.5708241672 -0.0280889657  0.9813435940
O  -1.0443757664  1.0748345796  1.5200419988
C  -0.6115841837 -0.0021724929 -0.5825965373
C   0.6005505518  0.8437432327 -0.9388623913
C   1.6605428493  0.3952693126  0.0322722169
O   2.8664867478  0.4838990725 -0.1399681281
C   0.9939735687 -0.2365951219  1.2091595345
O   5.0105359077  2.0743596036 -0.6382947721
H  -1.0632655398 -0.9831700358  1.3108309552
H  -0.5169538539 -1.0088113668 -1.0033239344
H  -1.5485565751  0.4387817257 -0.9184373707
H   0.3866030250  1.8905524478 -0.7032665245
H   0.9440449419  0.7716010145 -1.9691719204
H   1.2910806729 -1.2923982726  1.2433501128
H   4.2864178605  1.4534134422 -0.4266156410
H   1.3141183736  0.2271200121  2.1400633728
H   4.5512046746  2.7676628190 -1.1165253623
17
Image 5  Energy = -421.93216017
C  -0.5788250398 -0.0469454946  0.9779237750
O  -1.0441911357  1.0500298207  1.5354943934
C  -0.6086036224  0.0105165720 -0.5847090083
C   0.6069419445  0.8604491476 -0.9183548240
C   1.6563292060  0.4175306645  0.0671127953
O   2.8607751227  0.5511105039 -0.0672437576
C   0.9816267075 -0.2662489542  1.2111623374
O   5.0254724541  2.0655306242 -0.6915524964
H  -1.0800414216 -1.0039310522  1.2838477215
H  -0.5162675412 -0.9874878494 -1.0262615297
H  -1.5418965220  0.4625190103 -0.9171819208
H   0.3876634634  1.9072931742 -0.6901548734
H   0.9651611500  0.7881305164 -1.9434235722
H   1.2768522361 -1.3221593412  1.2007531244
H   4.2938541634  1.4721331497 -0.4325132019
H   1.2983267890  0.1540844053  2.1675832932
H   4.5668217726  2.7574460756 -1.1724823606
17
Image 6  Energy = -421.93213466
C  -0.5871442246 -0.0654026994  0.9756495495
O  -1.0498293434  1.0230196093  1.5520521012
C  -0.6065460861  0.0224262699 -0.5856984128
C   0.6131964584  0.8743921147 -0.8976694802
C   1.6493200674  0.4452067498  0.1087958900
O   2.8497173536  0.6393568665  0.0208112941
C   0.9693989629 -0.2940005290  1.2141531167
O   5.0443079874  2.0463709189 -0.7555279579
H  -1.0938208717 -1.0262859594  1.2591128751
H  -0.5187045906 -0.9669024039 -1.0468869519
H  -1.5357430512  0.4866145561 -0.9132947039
H   0.3885516350  1.9224585587 -0.6837517624
H   0.9902695457  0.7967218639 -1.9159391721
H   1.2602177536 -1.3494951319  1.1499322618
H   4.3038565683  1.4938368974 -0.4397204342
H   1.2821630358  0.0780333406  2.1911387097
H   4.5907886428  2.7436495666 -1.2331568025
17
Image 7  Energy = -421.93172212
C  -0.5996254295 -0.0881020479  0.9745011530
O  -1.0716901672  0.9827348371  1.5756206962
C  -0.6090537598  0.0378578332 -0.5846112685
C   0.6223364459  0.8786542056 -0.8787956769
C   1.6431705861  0.4643916893  0.1510602758
O   2.8353091283  0.7134268823  0.1057863951
C   0.9544735723 -0.3171973094  1.2227209902
O   5.0702145583  2.0326163793 -0.8255508998
H  -1.1042823017 -1.0586460907  1.2271313968
H  -0.5414179592 -0.9405686711 -1.0709645952
H  -1.5296524180  0.5273992418 -0.8992203252
H   0.4038765763  1.9314234411 -0.6863850624
H   1.0192227567  0.7847638706 -1.8887258810
H   1.2466722232 -1.3697131738  1.1240510681
H   4.3226895750  1.5222599507 -0.4671273386
H   1.2554459867  0.0225855496  2.2145088840
H   4.6323105155  2.7461134088 -1.2939998237
17
Image 8  Energy = -421.93059840
C  -0.6145606033 -0.1078582767  0.9757426922
O  -1.1075460658  0.9405559853  1.5990556420
C  -0.6199224950  0.0509280497 -0.5812665263
C   0.6283060068  0.8666720322 -0.8724413609
C   1.6405536096  0.4573640790  0.1691797747
O   2.8304806660  0.7171029342  0.1308387813
C   0.9393363698 -0.3254133098  1.2355128532
O   5.1057703725  2.0647682164 -0.8353893412
H  -1.1082678000 -1.0915182152  1.1992441600
H  -0.5849822700 -0.9178995400 -1.0887717445
H  -1.5296484413  0.5714058635 -0.8770598886
H   0.4302710692  1.9262163995 -0.6999221457
H   1.0350351418  0.7495817518 -1.8765593191
H   1.2378233728 -1.3767835829  1.1472333943
H   4.3462113509  1.5536607850 -0.5140444569
H   1.2231407654  0.0202449534  2.2301852365
H   4.6979984037  2.7709720074 -1.3415379274
17
Image 9  Energy = -421.92901122
C  -0.6283608405 -0.1214540050  0.9786048875
O  -1.1396855458  0.9084234181  1.6175387616
C  -0.6295004133  0.0601559068 -0.5772241413
C   0.6314378930  0.8555180889 -0.8687915303
C   1.6372732076  0.4513251901  0.1825026486
O   2.8265756251  0.7140694291  0.1436565030
C   0.9256925471 -0.3283100270  1.2479092329
O   5.1382595689  2.1073860513 -0.8284041153
H  -1.1124793798 -1.1150312127  1.1799365394
H  -0.6179121952 -0.9019838576 -1.0975707168
H  -1.5311525965  0.6013300739 -0.8603199480
H   0.4505676999  1.9207625108 -0.7179373651
H   1.0466949911  0.7147910635 -1.8668091836
H   1.2279365908 -1.3791794854  1.1692028255
H   4.3797486853  1.5598033390 -0.5790655637
H   1.1959684602  0.0225255266  2.2444844556
H   4.7489358422  2.7998678721 -1.3677133941
17
Image 10  Energy = -421.92689446
C  -0.6420782829 -0.1318749919  0.9820121686
O  -1.1684510671  0.8828947881  1.6323303743
C  -0.6376017654  0.0670973280 -0.5737614165
C   0.6328367985  0.8470817667 -0.8647417691
C   1.6316809946  0.4443105441  0.1948863871
O   2.8212248179  0.7033609362  0.1556016533
C   0.9116782238 -0.3309744160  1.2599757574
O   5.1649995593  2.1509660434 -0.8171201492
H  -1.1194307183 -1.1325288391  1.1645981753
H  -0.6409754413 -0.8904618549 -1.1021523073
H  -1.5331599374  0.6217228311 -0.8501285623
H   0.4662228506  1.9166765879 -0.7326436353
H   1.0558782178  0.6871077322 -1.8570049539
H   1.2178403922 -1.3812023788  1.1889700357
H   4.4205842605  1.5560707666 -0.6581730812
H   1.1744189017  0.0245773753  2.2570628978
H   4.7943326509  2.8351758931 -1.3797113485
17
Image 11  Energy = -421.92429202
C  -0.6556065534 -0.1412478808  0.9860118088
O  -1.1947232243  0.8597614700  1.6463144815
C  -0.6456250900  0.0731587259 -0.5706238906
C   0.6323660169  0.8407810741 -0.8603604993
C   1.6226932118  0.4399051141  0.2084620303
O   2.8113529581  0.6966938895  0.1742360017
C   0.8982350689 -0.3343475572  1.2711230226
O   5.1784943694  2.1993111247 -0.7889181688
H  -1.1281278280 -1.1473172731  1.1504412703
H  -0.6604562721 -0.8806573078 -1.1053207241
H  -1.5356376985  0.6382901895 -0.8435815597
H   0.4777225704  1.9139929899 -0.7469681247
H   1.0632406518  0.6627236566 -1.8466257793
H   1.2097975970 -1.3832476230  1.2026998109
H   4.4675197644  1.5502279733 -0.7418872896
H   1.1616391271  0.0235423277  2.2675668769
H   4.8471153328  2.8584285932 -1.4025690485
17
Image 12  Energy = -421.92121381
C  -0.6678474334 -0.1491359057  0.9902255342
O  -1.2195362362  0.8374235081  1.6603392841
C  -0.6524428432  0.0793015556 -0.5677984632
C   0.6318873202  0.8362253548 -0.8562314281
C   1.6143512448  0.4402658262  0.2218179841
O   2.8012620539  0.6990116985  0.1954140875
C   0.8888584742 -0.3354664313  1.2814333653
O   5.1663308094  2.2387456986 -0.7546998557
H  -1.1369648054 -1.1597572111  1.1356671379
H  -0.6770675290 -0.8714263883 -1.1076044199
H  -1.5366682658  0.6533773331 -0.8414390408
H   0.4870625255  1.9125106443 -0.7626569782
H   1.0698787449  0.6390597677 -1.8360795049
H   1.2074762044 -1.3824890133  1.2132364252
H   4.5225487399  1.5285844012 -0.8358612073
H   1.1605736734  0.0239510343  2.2757894859
H   4.8902969075  2.8798183810 -1.4115524294
17
Image 13  Energy = -421.91745552
C  -0.6803764421 -0.1553818439  0.9941792589
O  -1.2418957108  0.8170286199  1.6740220471
C  -0.6585634571  0.0849449917 -0.5659560220
C   0.6315658546  0.8323024028 -0.8517093055
C   1.6078313875  0.4435976983  0.2341414035
O   2.7926263935  0.7097479712  0.2158858715
C   0.8846675614 -0.3352792755  1.2912986071
O   5.1251485973  2.2656710534 -0.7194523156
H  -1.1501570567 -1.1688954055  1.1202728418
H  -0.6914342528 -0.8632415875 -1.1100753104
H  -1.5360260394  0.6667840497 -0.8468827362
H   0.4941663330  1.9109172465 -0.7760235453
H   1.0754041693  0.6172688213 -1.8252536224
H   1.2112493621 -1.3801764241  1.2226757901
H   4.5833590993  1.5006888001 -0.9285519163
H   1.1732187598  0.0254830874  2.2819496856
H   4.9292153714  2.8985396056 -1.4105207268
17
Image 14  Energy = -421.91285416
C  -0.6984778302 -0.1598358440  0.9970181458
O  -1.2614653968  0.7990937566  1.6876969772
C  -0.6651797689  0.0897096047 -0.5663695377
C   0.6308356949  0.8285103405 -0.8459881472
C   1.6029153365  0.4478120699  0.2455779586
O   2.7856314608  0.7251927383  0.2334764654
C   0.8890773424 -0.3345864578  1.3018452854
O   5.0640710860  2.2804170357 -0.6939723459
H  -1.1738462571 -1.1757494862  1.1057577419
H  -0.7047577703 -0.8558811383 -1.1153289295
H  -1.5348487507  0.6783437351 -0.8629497914
H   0.4985211637  1.9085695426 -0.7850859322
H   1.0784097547  0.5983981809 -1.8135582535
H   1.2233144191 -1.3765953205  1.2325669360
H   4.6477588901  1.4741518066 -1.0055944520
H   1.2017110090  0.0270948615  2.2881845039
H   4.9663295707  2.9153545027 -1.4032764966
17
Image 15  Energy = -421.90644519
C  -0.7365713582 -0.1579519775  0.9967508186
O  -1.2728009530  0.7833063516  1.7010410605
C  -0.6695255678  0.0926564742 -0.5717101364
C   0.6302444821  0.8260002998 -0.8411893282
C   1.5978680746  0.4511872609  0.2572977769
O   2.7778106167  0.7387211075  0.2479943504
C   0.9201446294 -0.3338558113  1.3110465040
O   5.0060619895  2.2813326896 -0.6885021492
H  -1.2097916962 -1.1857858781  1.0944093428
H  -0.7173391328 -0.8499662090 -1.1250438327
H  -1.5358223886  0.6889146251 -0.8891520752
H   0.5001687511  1.9047583071 -0.7888372026
H   1.0775214807  0.5831955958 -1.7992797228
H   1.2409653890 -1.3683523313  1.2432251187
H   4.7045032981  1.4491635950 -1.0534736227
H   1.2422568283  0.0293044783  2.2972227880
H   4.9943054029  2.9373714695 -1.3917995161
