17
Image 0  Energy = -421.89005602
C  -1.9833668563  0.4871113304  0.0664318630
O  -2.0326186838  1.6924575404  0.1415841690
C  -0.7449190061 -0.3295558535 -0.0602771451
C   0.5294828045  0.4821949335 -0.0685771891
C   1.7935648203 -0.3486020385  0.0036184291
O   1.7615578282 -1.5733387413 -0.0215140670
C   3.0134170740  0.4412686724  0.1038083144
O   4.6389902793  2.3762162573 -0.1259816884
H  -2.9235156588 -0.0925412048  0.0947547805
H  -0.7451924199 -1.0443594394  0.7686491303
H  -0.8411398074 -0.9350018995 -0.9665537827
H   0.5361180763  1.1801421997  0.7701672445
H   0.5930748381  1.0897309821 -0.9736373793
H   2.9722351890  1.1176103751  0.9600289385
H   3.1779166870  1.1649695935 -0.7649491543
H   3.9207682501 -0.1329023761  0.1811729237
H   4.8836260626  3.2945968341 -0.1087261383
17
Image 1  Energy = -421.87973248
C  -1.9836290742  0.4965898259  0.0524346933
O  -2.0310623706  1.6982497955  0.1128033229
C  -0.7385528178 -0.3295135025 -0.0492039696
C   0.5314343647  0.4859236562 -0.0558343690
C   1.7884735620 -0.3630978040 -0.0001301508
O   1.7117905667 -1.5801589539 -0.0262316181
C   3.0284719173  0.4201626148  0.0845542677
O   4.6172159760  2.4315280398 -0.1684364208
H  -2.9272770381 -0.0847810945  0.0746507059
H  -0.7455711858 -1.0341087425  0.7865673153
H  -0.8243344104 -0.9482167941 -0.9466127454
H   0.5408946021  1.1741434116  0.7901565961
H   0.5885183554  1.1032002442 -0.9544023798
H   3.0078411291  1.0829416202  0.9478095793
H   3.1837107846  1.1384450990 -0.7327616496
H   3.9340075346 -0.1634956841  0.1471716857
H   4.8680687068  3.3421857972 -0.0625349225
17
Image 2  Energy = -421.88088330
C  -1.9777468730  0.5048916755  0.0334198378
O  -2.0215989336  1.7079963410  0.0745209794
C  -0.7336434983 -0.3246630598 -0.0338703901
C   0.5375969203  0.4890437081 -0.0378532734
C   1.7867294883 -0.3726468598 -0.0019970046
O   1.6843513794 -1.5888824394 -0.0304547536
C   3.0399306735  0.3931602949  0.0683007054
O   4.5584806985  2.4818925972 -0.2112177666
H  -2.9240044279 -0.0722982863  0.0472634783
H  -0.7511232607 -1.0161313818  0.8129516897
H  -0.8034987982 -0.9608557529 -0.9202600867
H   0.5569166042  1.1649574927  0.8180783810
H   0.5889631848  1.1186943470 -0.9277375936
H   3.0442207863  1.0431809963  0.9415860106
H   3.1884189727  1.1336917012 -0.7312534028
H   3.9424036633 -0.1993360758  0.0989011644
H   4.8336055556  3.3673027399 -0.0003772553
17
Image 3  Energy = -421.90761431
C  -1.9933067940  0.4966749086  0.0461505351
O  -2.0546689134  1.6969829922  0.1023565789
C  -0.7399506930 -0.3170348139 -0.0488893660
C   0.5335037770  0.4948651230 -0.0515674268
C   1.7835574611 -0.3623924132 -0.0003431136
O   1.6896609627 -1.5832021066 -0.0535372340
C   3.0430338485  0.3911535345  0.1078031374
O   4.5693359994  2.5052546420 -0.2533321413
H  -2.9298958332 -0.0970374567  0.0681482106
H  -0.7474099640 -1.0206912076  0.7878630460
H  -0.8187532510 -0.9402878726 -0.9433535707
H   0.5442290285  1.1818930766  0.7950526539
H   0.5955291864  1.1115899292 -0.9492787460
H   3.0356086197  1.0390182147  0.9816238777
H   3.2381520098  1.1286473712 -0.6853171019
H   3.9205094128 -0.2377793621  0.1642659905
H   4.8808653232  3.3823429551 -0.0676456464
17
Image 4  Energy = -421.91945728
C  -2.0069646406  0.4847123982  0.0609568364
O  -2.0920141903  1.6850894830  0.1352444901
C  -0.7479956444 -0.3082821186 -0.0655932403
C   0.5288201661  0.4992208714 -0.0669413022
C   1.7830229398 -0.3507006545  0.0009359266
O   1.6999388856 -1.5777578429 -0.0793738375
C   3.0439112132  0.3907667182  0.1509031140
O   4.5852805977  2.5244151258 -0.2887949948
H  -2.9322667936 -0.1235006752  0.0925434830
H  -0.7460971906 -1.0244491459  0.7592360171
H  -0.8389573736 -0.9145821258 -0.9696089459
H   0.5315319678  1.1985342718  0.7681108440
H   0.6027933648  1.0996447519 -0.9737911932
H   3.0235925095  1.0418355283  1.0210082126
H   3.2876220506  1.1212756947 -0.6387102402
H   3.8941815718 -0.2715766890  0.2374333702
H   4.9335987036  3.3953512178 -0.1435601682
17
Image 5  Energy = -421.91981657
C  -2.0085524971  0.4862508041  0.0581981698
O  -2.0950845594  1.6865246691  0.1305235135
C  -0.7489719576 -0.3065321646 -0.0634967724
C   0.5295994223  0.4988908204 -0.0636576274
C   1.7840072747 -0.3514309723  0.0000161605
O   1.6988491516 -1.5781997214 -0.0879524680
C   3.0474250409  0.3856956546  0.1548422073
O   4.5678508599  2.5422501016 -0.3121643041
H  -2.9334557578 -0.1230768612  0.0874857919
H  -0.7508636199 -1.0214811035  0.7623337054
H  -0.8394469066 -0.9139023180 -0.9667209947
H   0.5342137985  1.1967568015  0.7725191137
H   0.6060116222  1.0987079618 -0.9704822340
H   3.0280602304  1.0326806594  1.0279643689
H   3.3012962358  1.1210463493 -0.6289073039
H   3.8917393821 -0.2844596877  0.2418799590
H   4.9373203417  3.4002760033 -0.1423827581
17
Image 6  Energy = -421.91009306
C  -2.0036104973  0.4935910530  0.0630322330
O  -2.0811403112  1.6904592493  0.1429450456
C  -0.7425685740 -0.3044276148 -0.0720771811
C   0.5353187085  0.5069689550 -0.0712225246
C   1.7889461642 -0.3517764198 -0.0091483659
O   1.6878731991 -1.5735271980 -0.1168917321
C   3.0583267833  0.3662586642  0.1813263303
O   4.4727388945  2.5909342283 -0.4005680601
H  -2.9332965462 -0.1138487954  0.0950306543
H  -0.7360753371 -1.0271425297  0.7476723851
H  -0.8333995549 -0.9085762934 -0.9779356311
H   0.5376477995  1.2040956068  0.7667064701
H   0.6112750761  1.1119462942 -0.9749378036
H   3.0174079024  0.9919586151  1.0696897127
H   3.3539933618  1.1278309476 -0.5695061228
H   3.8870494728 -0.3229210416  0.2766454176
H   4.9295115399  3.3881718317 -0.1507626184
17
Image 7  Energy = -421.92162252
C  -1.9925660824  0.5062452113  0.0426305800
O  -2.0726672953  1.7114808717  0.0973351895
C  -0.7374334176 -0.2933851588 -0.0505258173
C   0.5489752077  0.5010816140 -0.0512406350
C   1.7926432162 -0.3702293404 -0.0100261478
O   1.6803670795 -1.5908806288 -0.1092675617
C   3.0724902578  0.3406160617  0.1474588744
O   4.3758034180  2.6430569077 -0.3558719394
H  -2.9218791148 -0.0954002775  0.0662108932
H  -0.7532376573 -0.9966462985  0.7855974006
H  -0.8223413578 -0.9148633247 -0.9449400724
H   0.5709466967  1.1883441950  0.7934354668
H   0.6191937763  1.1136562532 -0.9491442349
H   3.0655962707  0.9577250613  1.0428760852
H   3.3329874397  1.1125037041 -0.6042912207
H   3.9047866920 -0.3483703350  0.2063260192
H   4.8863349697  3.4050545707 -0.1065639213
17
Image 8  Energy = -421.91205292
C  -1.9782985508  0.5323829562  0.0155227746
O  -2.0544110460  1.7315706273  0.0451265285
C  -0.7233404906 -0.2846227587 -0.0287894281
C   0.5689287210  0.5050416379 -0.0306187109
C   1.8070693715 -0.3783758971 -0.0224956884
O   1.6647996305 -1.5944176729 -0.1659161222
C   3.0964549948  0.3054843975  0.1597384207
O   4.2508207483  2.6887824124 -0.4406205987
H  -2.9117840698 -0.0682356357  0.0231396377
H  -0.7747556413 -0.9641766675  0.8280564601
H  -0.7985234429 -0.9282027682 -0.9087289973
H   0.6061827206  1.1730715689  0.8294567253
H   0.6348778301  1.1364270893 -0.9175913919
H   3.0979222194  0.9021534231  1.0696190365
H   3.3473339687  1.1112351746 -0.5641368174
H   3.9294105212 -0.3860875361  0.1805839962
H   4.7873120801  3.3879776155 -0.0723446150
17
Image 9  Energy = -421.88823910
C  -1.9755933797  0.5257228715  0.0117871981
O  -2.0577531109  1.7272977801  0.0452625611
C  -0.7147195182 -0.2803589053 -0.0354007990
C   0.5696303327  0.5256625475 -0.0324860566
C   1.8108588402 -0.3621586895 -0.0263975733
O   1.6564583156 -1.5705030557 -0.1568223857
C   3.1026505876  0.3047024222  0.1712768299
O   4.2211146458  2.6746965856 -0.5545694228
H  -2.9087470831 -0.0772700805  0.0198165538
H  -0.7508176921 -0.9647652135  0.8178918953
H  -0.7745273087 -0.9278191354 -0.9137146656
H   0.5985505819  1.1891167820  0.8317763364
H   0.6315412765  1.1652908663 -0.9131397687
H   3.0892594034  0.8395322717  1.1163575233
H   3.3939084856  1.1814861599 -0.4916224397
H   3.9208054193 -0.4015070950  0.1784755312
H   4.7373791896  3.3208842820 -0.0684901243
17
Image 10  Energy = -421.89100544
C  -1.9734440093  0.5218509670  0.0124235881
O  -2.0563443874  1.7249645423  0.0499377457
C  -0.7116539667 -0.2790856890 -0.0397852921
C   0.5687580806  0.5331093883 -0.0337968692
C   1.8137316085 -0.3532356570 -0.0282924420
O   1.6529052531 -1.5617131763 -0.1706408227
C   3.1095022639  0.3045031648  0.1905471877
O   4.1933679007  2.6680261838 -0.6464029841
H  -2.9065674908 -0.0810844480  0.0207771900
H  -0.7396564738 -0.9689400281  0.8095624554
H  -0.7661754789 -0.9252681162 -0.9197970776
H   0.5924744859  1.1949908344  0.8310499247
H   0.6244325052  1.1770619308 -0.9111105148
H   3.0710245359  0.8154094583  1.1490256826
H   3.4608464305  1.2714026841 -0.4428396551
H   3.9147028960 -0.4191782710  0.1976420638
H   4.7020947341  3.2471975311 -0.0682990711
17
Image 11  Energy = -421.89406676
C  -1.9719536620  0.5207023058  0.0130601921
O  -2.0551655166  1.7236424279  0.0522819897
C  -0.7111278293 -0.2783841511 -0.0410993229
C   0.5690660481  0.5347740025 -0.0326073826
C   1.8153857424 -0.3511599076 -0.0264195810
O   1.6556793818 -1.5611436019 -0.1811046106
C   3.1090707784  0.3029199046  0.1989177146
O   4.1723854450  2.6432668672 -0.6877493958
H  -2.9057049884 -0.0822419374  0.0214444090
H  -0.7354242772 -0.9713798095  0.8063767646
H  -0.7633688285 -0.9241854490 -0.9221284176
H   0.5884155244  1.1974597340  0.8312626447
H   0.6190054716  1.1794718966 -0.9096553181
H   3.0598636437  0.8177482284  1.1539904820
H   3.5213671617  1.3575505968 -0.4135514017
H   3.9080530189 -0.4287229492  0.2038035206
H   4.6744518574  3.1896936532 -0.0668211700
17
Image 12  Energy = -421.89836553
C  -1.9704544562  0.5191592168  0.0139138468
O  -2.0554738127  1.7233005620  0.0546699288
C  -0.7096594535 -0.2772234157 -0.0419367576
C   0.5715780009  0.5365904955 -0.0314450641
C   1.8213882274 -0.3453130725 -0.0274628089
O   1.6631957490 -1.5562737660 -0.1961038240
C   3.1111464672  0.3097083903  0.2098394310
O   4.1521602373  2.6187092389 -0.7247997648
H  -2.9044268108 -0.0834344765  0.0221157148
H  -0.7320463029 -0.9734089749  0.8035153777
H  -0.7609890180 -0.9222379375 -0.9241145518
H   0.5846823089  1.1994186974  0.8322745605
H   0.6146386965  1.1819343774 -0.9085025448
H   3.0496716625  0.8282643613  1.1600051333
H   3.5665105702  1.4182652535 -0.3847209085
H   3.9049819872 -0.4318484799  0.2071778727
H   4.6430948905  3.1244013000 -0.0644246262
17
Image 13  Energy = -421.90245265
C  -1.9686557973  0.5175938403  0.0148926213
O  -2.0587053266  1.7225354309  0.0569624594
C  -0.7065784438 -0.2740920820 -0.0419741051
C   0.5757921871  0.5398666765 -0.0285266374
C   1.8288464517 -0.3399858104 -0.0285514578
O   1.6718985359 -1.5518299304 -0.2231769963
C   3.1104876642  0.3139132664  0.2320005126
O   4.1264655028  2.5803504710 -0.7531241362
H  -2.9024086965 -0.0859981856  0.0222965441
H  -0.7282565129 -0.9751509793  0.8007028994
H  -0.7571005632 -0.9184746524 -0.9257715121
H   0.5815373419  1.2019490155  0.8353759722
H   0.6124469292  1.1851236579 -0.9062981390
H   3.0366147360  0.8471318166  1.1737542175
H   3.6108030857  1.4833503719 -0.3768262720
H   3.9066940179 -0.4309924219  0.2141071594
H   4.6101179456  3.0547213016 -0.0658423833
17
Image 14  Energy = -421.90849576
C  -1.9675230470  0.5171795220  0.0155729543
O  -2.0637075947  1.7210398815  0.0581564157
C  -0.7035319446 -0.2704032423 -0.0407220526
C   0.5790652988  0.5420898301 -0.0226195742
C   1.8321478074 -0.3466077684 -0.0236895602
O   1.6737300709 -1.5545017294 -0.2598206564
C   3.1038407960  0.3090330000  0.2572654322
O   4.1011083572  2.5275833791 -0.7629733877
H  -2.9006786277 -0.0895580227  0.0215362178
H  -0.7244632722 -0.9757039905  0.7995186345
H  -0.7528466736 -0.9140817086 -0.9258137666
H   0.5791474503  1.2041461080  0.8404501171
H   0.6139160941  1.1859906548 -0.9025762290
H   3.0250411782  0.8803522859  1.1781647511
H   3.6648370682  1.5664893332 -0.3872589796
H   3.9082130839 -0.4291009009  0.2247915805
H   4.5817038656  2.9960647578 -0.0699813628
17
Image 15  Energy = -421.91570530
C  -1.9689785034  0.5127561904  0.0255694745
O  -2.0742530951  1.7169286858  0.0792134514
C  -0.7035933992 -0.2682380911 -0.0440588125
C   0.5823712300  0.5372371123 -0.0189287687
C   1.8243250764 -0.3733980691 -0.0077385518
O   1.6521284814 -1.5698875643 -0.3173549210
C   3.0588859617  0.2508879180  0.3160951827
O   4.0996407396  2.5425327488 -0.7915090184
H  -2.8988350051 -0.0984565359  0.0301629296
H  -0.7122212380 -0.9853203630  0.7854903044
H  -0.7514967229 -0.9008430171 -0.9360607961
H   0.5843827951  1.2041961471  0.8401987490
H   0.6269859495  1.1734920364 -0.9043567768
H   3.0100792536  0.9479670135  1.1476547157
H   3.7298134146  1.6811363765 -0.4248289188
H   3.8995050368 -0.4405667404  0.2903879167
H   4.5912588275  2.9395846507 -0.0699362031
17
Image 16  Energy = -421.91836222
C  -1.9801665680  0.5010932827  0.0422483248
O  -2.0994200911  1.7028217477  0.1083609083
C  -0.7099743541 -0.2694741735 -0.0455140693
C   0.5742340761  0.5341644913 -0.0203787906
C   1.8107129803 -0.3870867296 -0.0078766877
O   1.6305493028 -1.5643308197 -0.3917803343
C   3.0170827302  0.2099972217  0.3939940428
O   4.1698986387  2.5538145426 -0.8226321543
H  -2.9024959879 -0.1208305898  0.0479919711
H  -0.7073250703 -1.0000359915  0.7713265621
H  -0.7522203948 -0.8873495547 -0.9463084238
H   0.5860206998  1.2062900539  0.8345578962
H   0.6264521834  1.1592738774 -0.9118127817
H   2.9730874144  1.0311753719  1.1032061849
H   3.7933802452  1.7089019988 -0.4801080727
H   3.8946246240 -0.4336899412  0.3904302630
H   4.6255588361  2.9252673371 -0.0657060100
17
Image 17  Energy = -421.92508327
C  -1.9824447353  0.4849785332  0.0714252402
O  -2.1151388013  1.6823552335  0.1742850537
C  -0.7100752523 -0.2695406793 -0.0602660486
C   0.5674188300  0.5415340505 -0.0428358450
C   1.8068331397 -0.3753559969 -0.0143879131
O   1.6432721356 -1.5309591173 -0.4611770676
C   2.9830276693  0.2080522124  0.4799115208
O   4.2637926560  2.4996146274 -0.8624291226
H  -2.8985895519 -0.1472227305  0.0758156867
H  -0.6822318570 -1.0178827417  0.7392097605
H  -0.7597475859 -0.8690460863 -0.9718401856
H   0.5753181285  1.2238736842  0.8037722970
H   0.6213595715  1.1532766259 -0.9424855716
H   2.9175894053  1.1096915436  1.0779410955
H   3.8446534619  1.6773220849 -0.5270158586
H   3.8747231042 -0.4104611724  0.5246354349
H   4.6002371400  2.9097667755 -0.0645606023
17
Image 18  Energy = -421.92478942
C  -1.9902852560  0.4691149659  0.1038489930
O  -2.1316426732  1.6610228579  0.2421036619
C  -0.7157842924 -0.2703434321 -0.0818929412
C   0.5568112037  0.5502865343 -0.0753067866
C   1.8016072976 -0.3590894207 -0.0239855692
O   1.6569538646 -1.5071352745 -0.4898260898
C   2.9568465280  0.2265928623  0.5165471362
O   4.4035135865  2.4158804262 -0.8666451638
H  -2.9003087780 -0.1719531562  0.1169597766
H  -0.6598090107 -1.0370903986  0.6991739143
H  -0.7884410340 -0.8499498173 -1.0055621070
H   0.5559260842  1.2463564024  0.7601026349
H   0.6137494641  1.1469167277 -0.9846916124
H   2.8721377814  1.1531692243  1.0728174724
H   3.9284964496  1.6321103635 -0.5133504241
H   3.8434902090 -0.3868635172  0.6144178219
H   4.5467337546  2.9509755393 -0.0847098941
17
Image 19  Energy = -421.92470927
C  -2.0016517658  0.4567189934  0.1183950824
O  -2.1472508754  1.6476856545  0.2658988157
C  -0.7252140183 -0.2744682938 -0.0858463790
C   0.5423093758  0.5551376430 -0.0971353609
C   1.7946310819 -0.3427663936 -0.0340228886
O   1.6590191741 -1.5005460627 -0.4822792375
C   2.9444097156  0.2588615336  0.4984844846
O   4.5726567276  2.3326449628 -0.8024511750
H  -2.9078914344 -0.1888752565  0.1383310954
H  -0.6535105049 -1.0378223111  0.6974462512
H  -0.8101240443 -0.8580282295 -1.0061367716
H   0.5392872003  1.2621674448  0.7286911308
H   0.5957867355  1.1399321916 -1.0145051174
H   2.8431370746  1.1830200362  1.0574713544
H   4.0229253542  1.5858498791 -0.4753960997
H   3.8310709630 -0.3530006512  0.6221994529
H   4.4504099252  3.0034871489 -0.1291431565
17
Image 20  Energy = -421.92444027
C  -2.0012190278  0.4383382125  0.1573714677
O  -2.1550770603  1.6218463637  0.3483574725
C  -0.7250253296 -0.2717308431 -0.1106531511
C   0.5369375137  0.5678857478 -0.1404713228
C   1.7913558790 -0.3248185630 -0.0415358453
O   1.6701834071 -1.4818585605 -0.4976612863
C   2.9199746468  0.2783524492  0.5283500326
O   4.6705912272  2.2663952288 -0.7292234931
H  -2.8990888223 -0.2181151794  0.1852836043
H  -0.6179407755 -1.0541863557  0.6492573700
H  -0.8401083688 -0.8339267757 -1.0412487373
H   0.5231407942  1.3002937828  0.6626467914
H   0.5984108386  1.1219046014 -1.0765375345
H   2.8054315741  1.2162415269  1.0608277806
H   4.0795756242  1.5447053370 -0.4189074957
H   3.8096561074 -0.3221600221  0.6771438002
H   4.3832016637  3.0208329623 -0.2129989657
17
Image 21  Energy = -421.92421821
C  -1.9913917072  0.4176085384  0.2068675475
O  -2.1471403744  1.5904727114  0.4538670876
C  -0.7236033980 -0.2681323801 -0.1486272776
C   0.5348193893  0.5790913914 -0.1894493169
C   1.7927870746 -0.3056347904 -0.0514910999
O   1.6894509998 -1.4616871176 -0.5177881326
C   2.8969568930  0.2990145021  0.5580659124
O   4.7175806589  2.2288503050 -0.6773455207
H  -2.8812730835 -0.2486077097  0.2485876449
H  -0.5799242403 -1.0837637333  0.5683926931
H  -0.8807010181 -0.7890368818 -1.0975807914
H   0.5065838110  1.3335706399  0.5924323860
H   0.6080814851  1.1041500015 -1.1412915220
H   2.7650138923  1.2360597331  1.0848422404
H   4.1049709756  1.5235840248 -0.3690406641
H   3.7755234106 -0.3061963690  0.7502840408
H   4.3622645487  3.0206558115 -0.2707240972
17
Image 22  Energy = -421.92366975
C  -1.9769579448  0.3983061272  0.2528532894
O  -2.1303250747  1.5610691233  0.5438104895
C  -0.7230831201 -0.2639288403 -0.1858683250
C   0.5340696809  0.5875450564 -0.2329278612
C   1.7926346432 -0.2918952838 -0.0600386320
O   1.7066898571 -1.4463034612 -0.5343290017
C   2.8746952287  0.3131856358  0.5858847490
O   4.7496141509  2.2051040029 -0.6278858403
H  -2.8581930058 -0.2774067165  0.3159256572
H  -0.5482133322 -1.1125423842  0.4829402466
H  -0.9222674833 -0.7393835104 -1.1510321451
H   0.4940580403  1.3603054218  0.5302504684
H   0.6192088881  1.0880386808 -1.1967903547
H   2.7262227864  1.2518757734  1.1056255676
H   4.1225054219  1.5107500459 -0.3234539428
H   3.7446052268 -0.2919615859  0.8140554184
H   4.3447352799  3.0172412339 -0.3190178032
17
Image 23  Energy = -421.92311014
C  -1.9593170873  0.3799154174  0.2944183910
O  -2.1087836603  1.5344954653  0.6172362164
C  -0.7230467193 -0.2595201968 -0.2206650316
C   0.5341139756  0.5944830647 -0.2713785974
C   1.7925944823 -0.2798142712 -0.0667230007
O   1.7234249222 -1.4328567037 -0.5484262818
C   2.8531260305  0.3253364965  0.6118933321
O   4.7732487949  2.1884974956 -0.5799264514
H  -2.8305818200 -0.3055388976  0.3840680518
H  -0.5213701477 -1.1388065978  0.3974018548
H  -0.9645729661 -0.6875444105 -1.1985801249
H   0.4842673577  1.3829559253  0.4748930812
H   0.6298082891  1.0734100032 -1.2448947946
H   2.6886880473  1.2637309960  1.1276869990
H   4.1370553397  1.5008827960 -0.2788315057
H   3.7156276799 -0.2788394898  0.8688818570
H   4.3257171354  3.0092126888 -0.3670522775
17
Image 24  Energy = -421.92258497
C  -1.9405532222  0.3605448863  0.3324935529
O  -2.0885413874  1.5085438566  0.6778923360
C  -0.7231993798 -0.2546858423 -0.2521314892
C   0.5337856465  0.6021511736 -0.3061136489
C   1.7925544909 -0.2662668346 -0.0741178329
O   1.7411094409 -1.4164755663 -0.5652289707
C   2.8313080920  0.3386916060  0.6359785003
O   4.7955841774  2.1732572046 -0.5308045889
H  -2.7987797511 -0.3367962302  0.4516559253
H  -0.4975212749 -1.1608154314  0.3152308741
H  -1.0061199431 -0.6357405403 -1.2385793432
H   0.4758831932  1.4043382501  0.4247568476
H   0.6375454432  1.0617226142 -1.2877993748
H   2.6478546024  1.2723310533  1.1542603114
H   4.1525141501  1.4909441232 -0.2321429831
H   3.6870288494 -0.2644283877  0.9169749612
H   4.3095467957  2.9926836739 -0.4223252215
17
Image 25  Energy = -421.92210907
C  -1.9215484010  0.3385435780  0.3677746940
O  -2.0733739825  1.4810843631  0.7284364863
C  -0.7223632403 -0.2493377180 -0.2792320271
C   0.5319424848  0.6134750771 -0.3381959173
C   1.7924073146 -0.2474241781 -0.0851586422
O   1.7617692214 -1.3910939454 -0.5936178922
C   2.8066162930  0.3543526520  0.6604177758
O   4.8193553789  2.1557886577 -0.4803623665
H  -2.7622765628 -0.3741604939  0.5179467185
H  -0.4732077476 -1.1767389114  0.2407092534
H  -1.0429066964 -0.5881345687 -1.2697395980
H   0.4666368339  1.4274529193  0.3789463550
H   0.6395039960  1.0557970735 -1.3271186138
H   2.5990739490  1.2770946010  1.1892917946
H   4.1715468205  1.4786199855 -0.1805391834
H   3.6578897117 -0.2466822796  0.9588189989
H   4.2989350627  2.9613634838 -0.4883801566
17
Image 26  Energy = -421.91883136
C  -1.9041807143  0.3214455388  0.3996246786
O  -2.0591935331  1.4568868030  0.7723801405
C  -0.7170180152 -0.2433842454 -0.2985695464
C   0.5344003434  0.6288635089 -0.3658681783
C   1.7984833802 -0.2220875385 -0.0974250039
O   1.8010517291 -1.3525172972 -0.6529879977
C   2.7680210515  0.3579324833  0.7022963839
O   4.8346379029  2.1381756477 -0.4558144460
H  -2.7304407829 -0.4070741193  0.5721303249
H  -0.4474098746 -1.1846481236  0.1858921072
H  -1.0655685066 -0.5521528099 -1.2896555721
H   0.4545910223  1.4546145781  0.3365710648
H   0.6386442048  1.0541507775 -1.3637655635
H   2.5381287968  1.2680782184  1.2474868061
H   4.1907683177  1.4625817069 -0.1416763014
H   3.6289285276 -0.2282308842  1.0093329391
H   4.2861578672  2.9173657746 -0.5599550616
17
Image 27  Energy = -421.91837899
C  -1.8810473153  0.3041548549  0.4252429336
O  -2.0417641523  1.4347349851  0.8097505910
C  -0.7079399075 -0.2364790509 -0.3147334358
C   0.5365628044  0.6457339649 -0.3919840555
C   1.8040005925 -0.1963937651 -0.1160109772
O   1.8390612840 -1.3055543944 -0.7119312611
C   2.7375709781  0.3679935717  0.7351368462
O   4.8423606190  2.1216774819 -0.4362573431
H  -2.6915997850 -0.4371873288  0.6167743255
H  -0.4209904767 -1.1872026152  0.1400064069
H  -1.0822457124 -0.5212517707 -1.3035978421
H   0.4517907294  1.4782307654  0.3019981511
H   0.6361908260  1.0599212155 -1.3948852371
H   2.4585863385  1.2380727270  1.3216722968
H   4.2009120188  1.4537906188 -0.1013782837
H   3.5934506674 -0.2186352424  1.0566584115
H   4.2751035826  2.8683924947 -0.6364635942
17
Image 28  Energy = -421.91781260
C  -1.8519474252  0.2861695963  0.4561554365
O  -2.0112108023  1.4105255995  0.8586900114
C  -0.7047602991 -0.2282950566 -0.3413543815
C   0.5399287379  0.6547465108 -0.4226183911
C   1.8057285892 -0.1818705360 -0.1242445735
O   1.8696639098 -1.2765644081 -0.7440402836
C   2.7047869297  0.3727804783  0.7688337729
O   4.8465146640  2.1153315525 -0.4151928185
H  -2.6456301278 -0.4668800260  0.6709722210
H  -0.4052698035 -1.1972405324  0.0634143720
H  -1.1170781834 -0.4673787440 -1.3273659944
H   0.4497672740  1.5003234984  0.2548869927
H   0.6456875398  1.0494855003 -1.4325275576
H   2.3828045136  1.2067745247  1.3847772240
H   4.2004847653  1.4569805110 -0.0723396422
H   3.5619501032 -0.2068684333  1.0999207339
H   4.2785811413  2.8419788647 -0.6779666734
17
Image 29  Energy = -421.91714716
C  -1.8246589339  0.2712211125  0.4805272103
O  -1.9829244610  1.3904987679  0.8971353336
C  -0.7011780734 -0.2210519877 -0.3638947965
C   0.5432620414  0.6627007138 -0.4485164755
C   1.8068634513 -0.1686005868 -0.1287513084
O   1.9086088109 -1.2407426191 -0.7823410300
C   2.6588174003  0.3660558971  0.8206699762
O   4.8576425799  2.1113261540 -0.4224505389
H  -2.6031648210 -0.4918124203  0.7141465247
H  -0.3947251767 -1.2042113704 -0.0009374796
H  -1.1444804398 -0.4213002735 -1.3452901285
H   0.4463692420  1.5209116968  0.2122866001
H   0.6548121892  1.0382858419 -1.4649084015
H   2.2898588980  1.1537865279  1.4698333591
H   4.2092298471  1.4632422017 -0.0743426680
H   3.5307660327 -0.1922629365  1.1487199488
H   4.2949006462  2.8319531209 -0.7118847428
17
Image 30  Energy = -421.93140883
C  -1.8168622614  0.2767825953  0.4755592892
O  -1.9706713111  1.3990000782  0.8962500438
C  -0.6981692731 -0.2241151248 -0.3564638611
C   0.5463066178  0.6543409119 -0.4494741376
C   1.8037081977 -0.1707502995 -0.1164660358
O   1.9392302724 -1.2261720991 -0.8054344696
C   2.6092609844  0.3328404843  0.8808023016
O   4.8657770337  2.0926734537 -0.5121440629
H  -2.6030159986 -0.4745120155  0.6998130493
H  -0.4012140936 -1.2068839164  0.0153171011
H  -1.1453148310 -0.4287713200 -1.3343297348
H   0.4499089505  1.5226007105  0.1968011665
H   0.6589335790  1.0138111372 -1.4707103541
H   2.2279228310  1.1016690334  1.5433491233
H   4.1925808526  1.4784185830 -0.1673839618
H   3.5285949146 -0.1650582121  1.1711006256
H   4.3630234265  2.8941256474 -0.6665862889
17
Image 31  Energy = -421.93211993
C  -1.8297328119  0.2725792360  0.4662939216
O  -2.0023380000  1.3966220313  0.8755365744
C  -0.7005888241 -0.2199359072 -0.3550683454
C   0.5416049227  0.6623250164 -0.4370460925
C   1.7976226212 -0.1708853044 -0.1155183825
O   1.9151851157 -1.2310305950 -0.8013258230
C   2.6178432734  0.3248790680  0.8723748786
O   4.8877331954  2.1345715777 -0.4809847268
H  -2.6048264785 -0.4891581883  0.6940128935
H  -0.3995319722 -1.2002297717  0.0194676691
H  -1.1365836180 -0.4292980739 -1.3371145413
H   0.4453535953  1.5201492139  0.2231260490
H   0.6527581610  1.0372963937 -1.4529960966
H   2.2631780450  1.1194712779  1.5190134660
H   4.2646704222  1.4681866173 -0.1399749804
H   3.5281301737 -0.1894981718  1.1620124991
H   4.3095223771  2.8639552390 -0.7118090982
17
Image 32  Energy = -421.93263078
C  -1.8434012772  0.2682781685  0.4563352425
O  -2.0351483135  1.3937329180  0.8534781750
C  -0.7034410895 -0.2161077389 -0.3535853543
C   0.5366569514  0.6698941476 -0.4234359310
C   1.7924907596 -0.1702145307 -0.1145423628
O   1.8941602589 -1.2336221593 -0.7987181460
C   2.6279134892  0.3185311347  0.8630004053
O   4.9040878820  2.1791909581 -0.4510753693
H  -2.6068960392 -0.5037169778  0.6881688801
H  -0.4001933743 -1.1945654908  0.0233983672
H  -1.1275635398 -0.4286155506 -1.3401747710
H   0.4399407776  1.5165130407  0.2511588949
H   0.6468174669  1.0617135158 -1.4334342305
H   2.2990812440  1.1351980904  1.4955928930
H   4.3365451482  1.4655615581 -0.1116396666
H   3.5283562447 -0.2134208345  1.1522537088
H   4.2605939152  2.8216494842 -0.7567809223
17
Image 33  Energy = -421.93274521
C  -1.8365815341  0.2457442399  0.4643453441
O  -2.0489516895  1.3658903814  0.8661647327
C  -0.7011573593 -0.2079072872 -0.3694413376
C   0.5330845863  0.6878817198 -0.4257318124
C   1.7922054923 -0.1496564606 -0.1219457903
O   1.9077701368 -1.1969198352 -0.8287357014
C   2.6143391547  0.3196758927  0.8762300970
O   4.9109383504  2.1918763200 -0.4271483460
H  -2.5758373373 -0.5456052006  0.7088544928
H  -0.3875350450 -1.1946417617 -0.0244960789
H  -1.1353458729 -0.3928306591 -1.3573244189
H   0.4287639252  1.5271048174  0.2571583697
H   0.6436618002  1.0901069424 -1.4317237317
H   2.2806621978  1.1272985827  1.5180405616
H   4.3779506096  1.4622375957 -0.0680864633
H   3.5086851797 -0.2216297233  1.1684779477
H   4.2373472432  2.7613746680 -0.8046382296
17
Image 34  Energy = -421.93281342
C  -1.8277863725  0.2223445614  0.4730756600
O  -2.0604188715  1.3363557365  0.8808682038
C  -0.6986586638 -0.1995179554 -0.3859494833
C   0.5296222540  0.7058495693 -0.4289680844
C   1.7923695586 -0.1279453644 -0.1293597580
O   1.9241929754 -1.1572344317 -0.8594747316
C   2.5992324887  0.3213125479  0.8904200130
O   4.9141202843  2.2029693040 -0.4065921797
H  -2.5418062949 -0.5878693545  0.7301426863
H  -0.3746865783 -1.1939301551 -0.0749780387
H  -1.1445407919 -0.3555132927 -1.3736975826
H   0.4174093998  1.5383305293  0.2610380936
H   0.6408332089  1.1173994249 -1.4311870996
H   2.2585304836  1.1177995440  1.5425199283
H   4.4143319870  1.4615611883 -0.0259537105
H   3.4878383736 -0.2285790761  1.1856651833
H   4.2194157827  2.6966678818 -0.8475696769
17
Image 35  Energy = -421.93267540
C  -1.8053277314  0.2013552059  0.4906807263
O  -2.0471889582  1.3080366591  0.9128641328
C  -0.6930117860 -0.1915585848 -0.4040417492
C   0.5301220118  0.7214716079 -0.4463395945
C   1.7946108423 -0.1048273503 -0.1360876218
O   1.9513196817 -1.1181436343 -0.8833148972
C   2.5760793490  0.3291349501  0.9102131564
O   4.9077593809  2.1849049730 -0.4013894677
H  -2.4975351461 -0.6235689944  0.7599895616
H  -0.3576048098 -1.1926421843 -0.1288300244
H  -1.1613127923 -0.3188801708 -1.3855253434
H   0.4091503565  1.5585598924  0.2367757008
H   0.6433510669  1.1252227203 -1.4515171342
H   2.2201979072  1.1134336517  1.5690236579
H   4.4168142519  1.4429132815 -0.0107114671
H   3.4578275941 -0.2263638169  1.2167437672
H   4.2047486345  2.6609519782 -0.8485337351
17
Image 36  Energy = -421.93253961
C  -1.7795465774  0.1784987104  0.5094015301
O  -2.0316790571  1.2770221082  0.9467576925
C  -0.6869582150 -0.1826942022 -0.4231899902
C   0.5306411903  0.7383819853 -0.4649158080
C   1.7971001742 -0.0790925452 -0.1425340115
O   1.9822116572 -1.0744974301 -0.9071993694
C   2.5503441030  0.3376286722  0.9315492611
O   4.8996156127  2.1637749136 -0.3966671601
H  -2.4469634631 -0.6622360266  0.7915911369
H  -0.3401191671 -1.1898104499 -0.1872984134
H  -1.1797037231 -0.2791405425 -1.3961833946
H   0.3998680900  1.5806051913  0.2101849053
H   0.6463053769  1.1328854701 -1.4734889449
H   2.1790831818  1.1099121479  1.5958577989
H   4.4182508157  1.4208431409  0.0035839657
H   3.4244703768 -0.2240027569  1.2499544887
H   4.1870799570  2.6219212087 -0.8474037836
17
Image 37  Energy = -421.93251540
C  -1.7359335776  0.1451322410  0.5402559400
O  -1.9995741692  1.2349868294  0.9953672151
C  -0.6766374182 -0.1696064643 -0.4498470099
C   0.5328614612  0.7622148152 -0.4938208785
C   1.8015437650 -0.0395447100 -0.1476578436
O   2.0340195503 -1.0095131395 -0.9331328951
C   2.5105839786  0.3544184200  0.9653469777
O   4.8784629082  2.1170720874 -0.4033066381
H  -2.3608783815 -0.7173366166  0.8408056349
H  -0.3144208294 -1.1833004450 -0.2735056113
H  -1.2090928476 -0.2196213641 -1.4051960404
H   0.3862712140  1.6154581026  0.1642127798
H   0.6541580036  1.1368156536 -1.5094361716
H   2.1198751610  1.1172005715  1.6291815641
H   4.4098838529  1.3686746885  0.0011379822
H   3.3718451202 -0.2163295571  1.3045757659
H   4.1470319982  2.5732783558 -0.8249812232
17
Image 38  Energy = -421.91705399
C  -1.6848713198  0.1211910380  0.5784062122
O  -1.9515260537  1.1996780252  1.0470492455
C  -0.6697085949 -0.1588569637 -0.4790173575
C   0.5385042891  0.7780872266 -0.5297550146
C   1.8091175391 -0.0127719582 -0.1499593812
O   2.0907860875 -0.9579700862 -0.9391820178
C   2.4731889344  0.3741047867  0.9994054825
O   4.8513506298  2.0628362029 -0.4147592881
H  -2.2725741238 -0.7625401006  0.9040022397
H  -0.3011153509 -1.1792430832 -0.3620863925
H  -1.2439475014 -0.1592879922 -1.4124778331
H   0.3755591893  1.6462196740  0.1066726486
H   0.6697652884  1.1252768211 -1.5546514543
H   2.0614393257  1.1349151535  1.6524729837
H   4.3730613338  1.3075070391 -0.0336293814
H   3.3167178367 -0.2088445076  1.3650312114
H   4.1142524621  2.5596988087 -0.7775218196
17
Image 39  Energy = -421.91681355
C  -1.6247383287  0.1024623392  0.6108489653
O  -1.8790056710  1.1708358759  1.1074845203
C  -0.6632341471 -0.1488577643 -0.5041883676
C   0.5460355968  0.7852954057 -0.5673764345
C   1.8076767605  0.0047729808 -0.1466811977
O   2.1384109608 -0.9274378826 -0.9329429032
C   2.4149133017  0.3768815296  1.0392060623
O   4.8297313697  2.0371014965 -0.4416526337
H  -2.1865155967 -0.7911138027  0.9527759911
H  -0.2986590713 -1.1751421105 -0.4380111687
H  -1.2782038938 -0.1057860416 -1.4103125945
H   0.3717777394  1.6720305004  0.0401607238
H   0.6897341883  1.0998225014 -1.6008608537
H   2.0037800767  1.1551086002  1.6692515727
H   4.3591723549  1.2561569137 -0.1038322961
H   3.2375496839 -0.2177477809  1.4370780005
H   4.0815744108  2.5756177985 -0.7109469473
17
Image 40  Energy = -421.91631691
C  -1.5861532575  0.0904208803  0.6300227843
O  -1.8141856361  1.1497286547  1.1567073437
C  -0.6576764327 -0.1452547244 -0.5178126411
C   0.5511466649  0.7891414876 -0.5898177571
C   1.8101743660  0.0254977818 -0.1362775110
O   2.2032785800 -0.8771264003 -0.9301282623
C   2.3494013112  0.3691937622  1.0892940451
O   4.8280118825  2.0277513337 -0.4921796909
H  -2.1490838178 -0.8045839147  0.9664037417
H  -0.2986633987 -1.1749934050 -0.4783466392
H  -1.2954189532 -0.0793802969 -1.4069872844
H   0.3636667584  1.6884175389 -0.0043223047
H   0.7038184074  1.0803923620 -1.6289051831
H   1.9316766225  1.1553423016  1.7041485683
H   4.3800479392  1.2102301837 -0.2170567349
H   3.1671746267 -0.2224259658  1.5009914223
H   4.0627842576  2.5876482661 -0.6457333859
17
Image 41  Energy = -421.91596348
C  -1.5637974591  0.0839737478  0.6407818263
O  -1.7601305197  1.1353808579  1.1948309094
C  -0.6526886325 -0.1454194646 -0.5241171915
C   0.5553126590  0.7906221252 -0.6014091606
C   1.8187315288  0.0488764656 -0.1257433018
O   2.2755037051 -0.8140055386 -0.9305400458
C   2.2981488771  0.3655558390  1.1309852994
O   4.8309549672  2.0130124689 -0.5454330188
H  -2.1421819269 -0.8065999338  0.9634403913
H  -0.2985237468 -1.1775811999 -0.4963257278
H  -1.3012075133 -0.0699318080 -1.4050467581
H   0.3562834955  1.6968111311 -0.0300632884
H   0.7128463195  1.0682495947 -1.6436041205
H   1.8423621655  1.1292903818  1.7482020893
H   4.3921492281  1.1744269895 -0.3287622554
H   3.1233929835 -0.2101790384  1.5500243517
H   4.0628441509  2.5875168661 -0.5972195830
17
Image 42  Energy = -421.91619750
C  -1.5476100551  0.0769645504  0.6472320944
O  -1.7175536468  1.1198310654  1.2261209180
C  -0.6450581140 -0.1459959563 -0.5266209877
C   0.5587616422  0.7951584099 -0.6077751977
C   1.8312226169  0.0788714620 -0.1136798947
O   2.3491528024 -0.7376877051 -0.9333405010
C   2.2579562610  0.3651911541  1.1675030450
O   4.8294664290  1.9838683547 -0.5949783422
H  -2.1435837684 -0.8082371579  0.9527152862
H  -0.2914690887 -1.1789405960 -0.5057770940
H  -1.3009811176 -0.0669984177 -1.4018148721
H   0.3476895195  1.7059678380 -0.0481199146
H   0.7195623269  1.0611339017 -1.6524214437
H   1.7548221334  1.0952335080  1.7916812292
H   4.3803382166  1.1389009778 -0.4330458759
H   3.0934935020 -0.1893011721  1.5915295671
H   4.0737899860  2.5760393983 -0.5592081085
17
Image 43  Energy = -421.91691155
C  -1.5356028623  0.0693664852  0.6499829005
O  -1.6997693016  1.1051694932  1.2433145993
C  -0.6314957279 -0.1441649316 -0.5254290904
C   0.5629882412  0.8089914642 -0.6093917559
C   1.8469004910  0.1191018005 -0.1050430817
O   2.4244035915 -0.6401367328 -0.9427801014
C   2.2237531350  0.3645837069  1.1993828624
O   4.8090556267  1.9395083700 -0.6385735181
H  -2.1364014111 -0.8180411074  0.9409437093
H  -0.2708634412 -1.1754098182 -0.5032647228
H  -1.2878540995 -0.0726399921 -1.4011196282
H   0.3383019141  1.7217347076 -0.0577382294
H   0.7239827547  1.0673863140 -1.6560850240
H   1.6925565928  1.0708469201  1.8280677902
H   4.3558164705  1.0896441520 -0.5191862832
H   3.0686092709 -0.1740499316  1.6263684985
H   4.0656183554  2.5381089553 -0.5294485251
17
Image 44  Energy = -421.93241078
C  -1.5187380256  0.0639544869  0.6431045376
O  -1.6948163546  1.0939833093  1.2487072113
C  -0.6133238492 -0.1433086246 -0.5206220736
C   0.5670431879  0.8251591338 -0.6070264963
C   1.8607065450  0.1688915970 -0.0948397879
O   2.5034583207 -0.5229661805 -0.9553994940
C   2.1897750709  0.3609914342  1.2256523957
O   4.7797562181  1.8808099612 -0.6712746742
H  -2.1227670511 -0.8231701499  0.9342307856
H  -0.2423241614 -1.1705376186 -0.4901530445
H  -1.2679160193 -0.0867771752 -1.3983370865
H   0.3263531106  1.7400358711 -0.0672220462
H   0.7257141757  1.0760089189 -1.6545673309
H   1.6319392879  1.0307191891  1.8690005306
H   4.3120128746  1.0306424562 -0.5980154694
H   3.0513496378 -0.1523507143  1.6493383063
H   4.0617765844  2.4979139379 -0.5125761160
17
Image 45  Energy = -421.93279025
C  -1.5135386627  0.0656800808  0.6467293165
O  -1.6936439749  1.0997979935  1.2447838189
C  -0.6057285552 -0.1461447438 -0.5143516293
C   0.5667601112  0.8308972444 -0.6112871488
C   1.8707462610  0.1992646366 -0.0956344250
O   2.5599328058 -0.4313838404 -0.9703110015
C   2.1683416801  0.3501946207  1.2360884223
O   4.7773384336  1.8484579562 -0.6718026477
H  -2.1147736042 -0.8211743247  0.9433663518
H  -0.2289340495 -1.1715035817 -0.4752252966
H  -1.2603329728 -0.1036655015 -1.3929815019
H   0.3165030669  1.7490106225 -0.0805520937
H   0.7216474202  1.0721995079 -1.6612887410
H   1.5780611279  0.9759548398  1.8946582878
H   4.2846023190  1.0071360869 -0.6320221999
H   3.0486164884 -0.1367793410  1.6510519305
H   4.0744017641  2.4820574084 -0.5112214455
17
Image 46  Energy = -421.93312566
C  -1.5099720642  0.0686396802  0.6519709821
O  -1.6926063223  1.1079399954  1.2401477236
C  -0.5998004289 -0.1494102768 -0.5080358256
C   0.5661425690  0.8345276244 -0.6162271520
C   1.8794916099  0.2267315912 -0.0969598453
O   2.6119296004 -0.3418148702 -0.9818770469
C   2.1490598527  0.3378245573  1.2424085449
O   4.7776749099  1.8182426837 -0.6671794173
H  -2.1079896549 -0.8178034904  0.9545630566
H  -0.2185514576 -1.1733989884 -0.4606511022
H  -1.2542935925 -0.1203162100 -1.3863539184
H   0.3076255783  1.7559057484 -0.0943801998
H   0.7176516922  1.0657099429 -1.6686387225
H   1.5265146269  0.9169370143  1.9133699721
H   4.2588853933  0.9902409482 -0.6570621166
H   3.0473763550 -0.1211524618  1.6490379929
H   4.0908610741  2.4711959814 -0.5141327781
17
Image 47  Energy = -421.93429173
C  -1.5064714689  0.0738887845  0.6563024391
O  -1.6899155847  1.1195888779  1.2327327420
C  -0.5906153161 -0.1543469365 -0.4971684909
C   0.5674912889  0.8358323795 -0.6200753031
C   1.8967910633  0.2641418018 -0.0975556530
O   2.6916353583 -0.2098352823 -0.9890100723
C   2.1264322458  0.3210373353  1.2496801345
O   4.7683089445  1.7670699812 -0.6555245145
H  -2.1055188091 -0.8102359725  0.9642723046
H  -0.2068829213 -1.1767270727 -0.4383177432
H  -1.2447482204 -0.1405420391 -1.3771779795
H   0.2988635479  1.7626084754 -0.1103154087
H   0.7141737422  1.0543486576 -1.6755843678
H   1.4685299094  0.8432075493  1.9328341843
H   4.2047799936  0.9647024080 -0.6959826271
H   3.0474724637 -0.0977669470  1.6471362457
H   4.1096740711  2.4530275389 -0.5262462035
17
Image 48  Energy = -421.93525736
C  -1.5055574134  0.0878439256  0.6636015706
O  -1.6924019456  1.1437384782  1.2200625468
C  -0.5789666762 -0.1615606332 -0.4755861627
C   0.5618002241  0.8430915610 -0.6288934927
C   1.9051033717  0.3035104197 -0.1080016786
O   2.7414698064 -0.0818291653 -1.0079306604
C   2.0999388204  0.2960349836  1.2434135134
O   4.7858780417  1.7316239981 -0.6239205759
H  -2.1057298417 -0.7915179419  0.9813101244
H  -0.1780800789 -1.1746466804 -0.3832020217
H  -1.2282797627 -0.1888726777 -1.3591439843
H   0.2852526544  1.7795807253 -0.1389854666
H   0.6975588477  1.0380084155 -1.6895166942
H   1.3814906044  0.7024419383  1.9434150093
H   4.1797429733  0.9600320516 -0.7386169964
H   3.0414522353 -0.0709974179  1.6413953978
H   4.1593284004  2.4535173650 -0.5394007797
17
Image 49  Energy = -421.93511241
C  -1.5082566531  0.0967153332  0.6720572339
O  -1.6897219545  1.1573671672  1.2211970664
C  -0.5819726713 -0.1668088461 -0.4638409090
C   0.5516991951  0.8416596389 -0.6418733810
C   1.9022427893  0.3165649078 -0.1234470006
O   2.7593379029 -0.0149444387 -1.0252509309
C   2.0783921237  0.2623586825  1.2293987692
O   4.8221336058  1.7426594685 -0.5862428637
H  -2.1096793024 -0.7791185415  0.9974590969
H  -0.1725880279 -1.1744125147 -0.3512935711
H  -1.2322190042 -0.2181051110 -1.3458041305
H   0.2746993066  1.7847162133 -0.1646678881
H   0.6793698689  1.0203860606 -1.7060473206
H   1.3301613463  0.5968777341  1.9359758652
H   4.1928437516  0.9909371023 -0.7176789686
H   3.0298595865 -0.0789661739  1.6258145391
H   4.2236984741  2.4921128215 -0.5557560628
17
Image 50  Energy = -421.93495883
C  -1.5106365140  0.1041856207  0.6795418673
O  -1.6864354099  1.1688251674  1.2228040339
C  -0.5853670648 -0.1714587294 -0.4536796348
C   0.5422663955  0.8393269191 -0.6536561691
C   1.8988426277  0.3276298861 -0.1361997131
O   2.7738394005  0.0441888183 -1.0368147043
C   2.0589359062  0.2319304393  1.2166379051
O   4.8528334761  1.7546990783 -0.5527969727
H  -2.1136992490 -0.7683942738  1.0114163056
H  -0.1689393852 -1.1740802443 -0.3240794518
H  -1.2364135208 -0.2427353600 -1.3336092713
H   0.2659006064  1.7883632774 -0.1882278806
H   0.6631924821  1.0039266180 -1.7206022964
H   1.2882567974  0.5026200394  1.9260079037
H   4.2048239607  1.0202909955 -0.6969485696
H   3.0184437512 -0.0865250585  1.6121493835
H   4.2841562521  2.5272065110 -0.5719432334
17
Image 51  Energy = -421.93489512
C  -1.5091212629  0.1109553916  0.6893235828
O  -1.6709122407  1.1769686043  1.2340861062
C  -0.5901989637 -0.1754093837 -0.4456356518
C   0.5351877291  0.8324999209 -0.6687162310
C   1.8973659920  0.3354072157 -0.1496367177
O   2.7914858168  0.1027208380 -1.0453356989
C   2.0398242978  0.1994905572  1.2022605355
O   4.8768130729  1.7770113451 -0.5138002962
H  -2.1192070099 -0.7565498363  1.0231115476
H  -0.1721276739 -1.1757254205 -0.3047025649
H  -1.2459920667 -0.2587246221 -1.3209092993
H   0.2616348424  1.7888518908 -0.2171763827
H   0.6501837559  0.9809517309 -1.7385550889
H   1.2512529765  0.4192200243  1.9092911946
H   4.2188853647  1.0528540773 -0.6677932333
H   3.0035743757 -0.1033715910  1.5995426727
H   4.3313516128  2.5628492101 -0.5853543482
17
Image 52  Energy = -421.93493508
C  -1.5061473157  0.1183669315  0.7000618884
O  -1.6529390945  1.1851171257  1.2468603373
C  -0.5948624647 -0.1793913184 -0.4369659060
C   0.5275949059  0.8248908719 -0.6849966290
C   1.8953105202  0.3440482448 -0.1630731680
O   2.8086553247  0.1661064245 -1.0509093396
C   2.0195211841  0.1650414987  1.1860447150
O   4.9007276932  1.8024373078 -0.4731020967
H  -2.1243579084 -0.7430301561  1.0354004977
H  -0.1752670076 -1.1771089368 -0.2836397284
H  -1.2560592886 -0.2754752004 -1.3066717426
H   0.2577459176  1.7893548055 -0.2493854624
H   0.6369529987  0.9554476813 -1.7575990655
H   1.2122510444  0.3289488593  1.8864083018
H   4.2331754856  1.0887136852 -0.6364346598
H   2.9861621725 -0.1221956743  1.5874555821
H   4.3815366117  2.5987280654 -0.5994529871
17
Image 53  Energy = -421.93505993
C  -1.4900011532  0.1298038068  0.7184713102
O  -1.6032203901  1.1938689578  1.2783200656
C  -0.5980962774 -0.1823237152 -0.4275357552
C   0.5225870811  0.8120008777 -0.7108299974
C   1.8929406217  0.3503832851 -0.1772516065
O   2.8307879706  0.2352202019 -1.0488091845
C   1.9875223051  0.1216380777  1.1673149815
O   4.9199379759  1.8449071338 -0.4298348181
H  -2.1273979579 -0.7190085458  1.0511208511
H  -0.1791994789 -1.1776049467 -0.2614260196
H  -1.2713260208 -0.2911250062 -1.2865541961
H   0.2584866246  1.7895684466 -0.3024234995
H   0.6282219432  0.9129976963 -1.7869967790
H   1.1562518591  0.2273718180  1.8497202637
H   4.2500351514  1.1346334568 -0.5992642388
H   2.9509668751 -0.1547077685  1.5830902228
H   4.4215027740  2.6423765385 -0.6171107833
17
Image 54  Energy = -421.93538091
C  -1.4739989391  0.1378088162  0.7352249785
O  -1.5746074878  1.2028934751  1.2950412457
C  -0.6038766824 -0.1811462592 -0.4253748013
C   0.5220066933  0.7988438747 -0.7287273904
C   1.8868059312  0.3532013315 -0.1682436605
O   2.8541666058  0.3053649432 -1.0120833435
C   1.9417627329  0.0667328062  1.1682764468
O   4.9554983024  1.8943617340 -0.4411138170
H  -2.1067686203 -0.7088601099  1.0801063280
H  -0.1919973749 -1.1798206531 -0.2631246288
H  -1.2914165305 -0.2839612224 -1.2733916783
H   0.2618885680  1.7910282836 -0.3549971902
H   0.6370784287  0.8666912905 -1.8066964994
H   1.0905105842  0.1259074840  1.8303208756
H   4.2735801503  1.1902473346 -0.5903951333
H   2.8982853906 -0.2054304273  1.6017363503
H   4.4710819998  2.6961372387 -0.6465583394
17
Image 55  Energy = -421.93603480
C  -1.4608355964  0.1487077236  0.7476101872
O  -1.5755370168  1.2206432354  1.2833211781
C  -0.6122177313 -0.1775143850 -0.4297779138
C   0.5256131873  0.7854378696 -0.7386880916
C   1.8774183827  0.3509135615 -0.1420685392
O   2.8748604888  0.3683897026 -0.9541583142
C   1.8935146722  0.0049287151  1.1806586272
O   4.9980180616  1.9472351157 -0.4911902701
H  -2.0587406741 -0.7074030217  1.1297613717
H  -0.2134484102 -1.1827754732 -0.2795413797
H  -1.3125369402 -0.2610263921 -1.2693638315
H   0.2697789579  1.7914607786 -0.4005849033
H   0.6594789487  0.8224640381 -1.8163007810
H   1.0255779236  0.0185383406  1.8208071600
H   4.3044915338  1.2483941225 -0.6031056580
H   2.8446490673 -0.2625739106  1.6292163226
H   4.5099151816  2.7541799650 -0.6665961181
17
Image 56  Energy = -421.93676116
C  -1.4453620858  0.1564645034  0.7562145046
O  -1.5680894861  1.2355678016  1.2775068069
C  -0.6194745526 -0.1716864498 -0.4359804891
C   0.5346293468  0.7717729465 -0.7443290493
C   1.8715357311  0.3456336292 -0.1134823018
O   2.8933948290  0.4151030697 -0.8829833503
C   1.8474437333 -0.0546852400  1.1994666421
O   5.0367631268  2.0108617569 -0.5649298686
H  -2.0173194345 -0.7025437885  1.1691103843
H  -0.2369780384 -1.1855596965 -0.3032123124
H  -1.3303594910 -0.2290250474 -1.2689800417
H   0.2842073190  1.7895550139 -0.4396486519
H   0.6901913859  0.7820505354 -1.8211850315
H   0.9584961893 -0.0724210732  1.8119914357
H   4.3527967675  1.3007371466 -0.6303570053
H   2.7854992387 -0.3279139898  1.6675589821
H   4.5126248430  2.8060892896 -0.6767614352
17
Image 57  Energy = -421.92457284
C  -1.4277569883  0.1732223764  0.7692840521
O  -1.5539956185  1.2609227361  1.2678509046
C  -0.6262318792 -0.1635109667 -0.4474566621
C   0.5497115758  0.7541954675 -0.7551671684
C   1.8722779168  0.3341677497 -0.0864947175
O   2.9138122678  0.4610761724 -0.8071796025
C   1.8070849012 -0.1250828702  1.2091475251
O   5.0516073224  2.0894196923 -0.6079845281
H  -1.9695417312 -0.6910398365  1.2179531115
H  -0.2688165062 -1.1890350274 -0.3341071024
H  -1.3501606657 -0.1852758252 -1.2721541594
H   0.3077828674  1.7846701885 -0.4844226690
H   0.7271092216  0.7338093043 -1.8282198284
H   0.9013403059 -0.1881567549  1.7951573312
H   4.3884195933  1.3590136529 -0.6370732183
H   2.7405500312 -0.3990202021  1.6884196494
H   4.4868074826  2.8606244401 -0.6875533423
17
Image 58  Energy = -421.92501459
C  -1.3966144859  0.1841566868  0.7818499937
O  -1.5588281561  1.2831586587  1.2433634937
C  -0.6351214227 -0.1528371928 -0.4628738467
C   0.5604684062  0.7409419820 -0.7684934343
C   1.8669516446  0.3234955762 -0.0706206936
O   2.9267858410  0.5046674246 -0.7502365996
C   1.7737979693 -0.1913787437  1.2026583713
O   5.0479822643  2.1495827432 -0.5917657409
H  -1.8695291404 -0.6874431768  1.2926281025
H  -0.3024342886 -1.1891981959 -0.3792216800
H  -1.3741327601 -0.1286224423 -1.2742928457
H   0.3293133571  1.7803474341 -0.5225878039
H   0.7564125119  0.6998994010 -1.8384781890
H   0.8544166998 -0.3098535810  1.7567049585
H   4.3931565560  1.4127530657 -0.5991562121
H   2.7021176714 -0.4582740648  1.6970756824
H   4.4752572852  2.9086050828 -0.7165545885
17
Image 59  Energy = -421.92513258
C  -1.3886155071  0.1803797305  0.7836565523
O  -1.5890271736  1.2797102179  1.2286114382
C  -0.6433029268 -0.1438720850 -0.4748015461
C   0.5620631759  0.7416427254 -0.7658933699
C   1.8590852525  0.3235729114 -0.0540615667
O   2.9283092062  0.5613765157 -0.7001567002
C   1.7529636812 -0.2494695442  1.1926392086
O   5.0605169842  2.1836199580 -0.5492729086
H  -1.8107639756 -0.6988924162  1.3236853945
H  -0.3235901120 -1.1856401755 -0.4156141722
H  -1.3867779249 -0.0858155754 -1.2798124984
H   0.3352487140  1.7826768422 -0.5225514258
H   0.7704229974  0.7016193365 -1.8338996647
H   0.8271780853 -0.4209615821  1.7194074697
H   4.3822437953  1.4683727084 -0.5354548093
H   2.6783719212 -0.5099934410  1.6959058277
H   4.5356745819  2.9416740609 -0.8123872304
17
Image 60  Energy = -421.92532605
C  -1.3931601790  0.1835166623  0.7853690378
O  -1.6397969250  1.2836178402  1.2046830662
C  -0.6531636565 -0.1376735736 -0.4778029209
C   0.5595996052  0.7412666972 -0.7594558271
C   1.8521714574  0.3266138363 -0.0398970176
O   2.9247416075  0.6213876662 -0.6559114710
C   1.7425092839 -0.3019470679  1.1790053839
O   5.0799874428  2.2080973076 -0.5181461919
H  -1.7658446911 -0.6980640668  1.3558697235
H  -0.3422424154 -1.1824936327 -0.4312127804
H  -1.3965306706 -0.0580872536 -1.2803511146
H   0.3357338240  1.7835767183 -0.5185566283
H   0.7751625382  0.7021730044 -1.8265592948
H   0.8139243402 -0.5297191847  1.6774987739
H   4.3722935348  1.5222490590 -0.4930136389
H   2.6665232602 -0.5556968789  1.6885519602
H   4.6180916293  2.9611829502 -0.8900715482
17
Image 61  Energy = -421.92572138
C  -1.3979261878  0.2015611512  0.7889481580
O  -1.7035814450  1.3043809391  1.1604839272
C  -0.6644155528 -0.1330454651 -0.4757713508
C   0.5582163306  0.7340313869 -0.7563175006
C   1.8469932555  0.3265991844 -0.0273777261
O   2.9199276196  0.6729274568 -0.6145058410
C   1.7381483647 -0.3501522852  1.1658719870
O   5.0968247466  2.2304099655 -0.5066161316
H  -1.7063538175 -0.6713074119  1.4086537230
H  -0.3638120972 -1.1808358545 -0.4320640444
H  -1.4069485695 -0.0369750155 -1.2765205216
H   0.3389272681  1.7797203540 -0.5252432333
H   0.7790638863  0.6874405331 -1.8229716265
H   0.8112623411 -0.6446319468  1.6327178675
H   4.3719179989  1.5637145541 -0.4732070784
H   2.6620748432 -0.5912589571  1.6822632124
H   4.6696810982  2.9774214956 -0.9283447065
17
Image 62  Energy = -421.93958793
C  -1.3961469974  0.2208066372  0.7919607792
O  -1.7798002431  1.3179478070  1.1097659630
C  -0.6790305718 -0.1259121726 -0.4727873911
C   0.5565346304  0.7238454554 -0.7526139669
C   1.8343708961  0.3234541865 -0.0110851229
O   2.9129970706  0.7285219031 -0.5602982806
C   1.7302085599 -0.4044148337  1.1492628326
O   5.1130468242  2.2544984107 -0.5025164769
H  -1.6161497152 -0.6269027422  1.4763868356
H  -0.3939098096 -1.1781584832 -0.4371638750
H  -1.4185310833 -0.0044705668 -1.2710545539
H   0.3458379139  1.7737302946 -0.5367273813
H   0.7862056037  0.6656365122 -1.8186557643
H   0.8091130186 -0.7632079384  1.5772157067
H   4.3755155946  1.6072562224 -0.4527132876
H   2.6504646045 -0.6376030131  1.6754642082
H   4.7192749297  2.9949731078 -0.9644411454
17
Image 63  Energy = -421.92264691
C  -1.3692359815  0.2382898466  0.8103225065
O  -1.8048921378  1.3267183884  1.0891318244
C  -0.6876789165 -0.1184163068 -0.4806328996
C   0.5623810438  0.7143873714 -0.7631859804
C   1.8274074484  0.3327686646  0.0185099549
O   2.9052633886  0.8017689998 -0.4658397837
C   1.6963104431 -0.4487171584  1.1404822926
O   5.1286872071  2.2620677003 -0.5293739839
H  -1.4955638588 -0.5834832997  1.5493345180
H  -0.4185053793 -1.1759641180 -0.4566456019
H  -1.4369033148  0.0318697797 -1.2648950543
H   0.3510942954  1.7713914216 -0.5775536014
H   0.8109799797  0.6299456076 -1.8234130017
H   0.7757378581 -0.8830824878  1.5015472175
H   4.3652247906  1.6456239469 -0.4445910597
H   2.5980293370 -0.6763546693  1.6992055250
H   4.7416646808  3.0011869272 -1.0024034747
17
Image 64  Energy = -421.92377215
C  -1.3504971309  0.2555960815  0.8226960514
O  -1.8751457881  1.3191974896  1.0464651796
C  -0.6998733876 -0.1114037076 -0.4845731062
C   0.5619594287  0.7079701869 -0.7657126093
C   1.8119319665  0.3343316450  0.0414319595
O   2.8901482669  0.8488415408 -0.3924028494
C   1.6714345786 -0.4866506106  1.1339916752
O   5.1430784594  2.2626800479 -0.5513470560
H  -1.3485416281 -0.5143764973  1.6179757178
H  -0.4427086247 -1.1724366992 -0.4693985729
H  -1.4504116222  0.0633398738 -1.2606414179
H   0.3546563001  1.7685857667 -0.5943673137
H   0.8228329427  0.6122750936 -1.8231191713
H   0.7646173552 -0.9957339404  1.4256349163
H   4.3665704209  1.6679243014 -0.4405906695
H   2.5603749380 -0.6982199544  1.7195412607
H   4.7695748438  3.0080797627 -1.0255840839
17
Image 65  Energy = -421.92421120
C  -1.3287378624  0.2650693267  0.8350694209
O  -1.8652156577  1.3229763014  1.0596399012
C  -0.7064885719 -0.1031954399 -0.4868831972
C   0.5640677813  0.7012691567 -0.7752077724
C   1.7969798487  0.3503577423  0.0660338785
O   2.8681861754  0.9193170675 -0.3094990511
C   1.6498029314 -0.5095530271  1.1282870931
O   5.1566291201  2.2479225880 -0.5829271898
H  -1.2903758179 -0.4932908942  1.6394593246
H  -0.4645432678 -1.1680847991 -0.4840081490
H  -1.4649314672  0.0940023570 -1.2491865292
H   0.3580041138  1.7666819981 -0.6366975176
H   0.8415002821  0.5756803793 -1.8262093020
H   0.7629226493 -1.0861205045  1.3479509838
H   4.3667830888  1.6806928631 -0.4312339495
H   2.5215712006 -0.6969401696  1.7471719449
H   4.7838465217  3.0032154013 -1.0417599265
17
Image 66  Energy = -421.92456465
C  -1.3064729369  0.2731633922  0.8473098509
O  -1.8477529355  1.3277177366  1.0778342207
C  -0.7116599232 -0.0948278979 -0.4886372092
C   0.5671229587  0.6946917609 -0.7852468483
C   1.7820734071  0.3674825220  0.0900219555
O   2.8425456143  0.9896856957 -0.2232959781
C   1.6299638425 -0.5303012323  1.1204777555
O   5.1657188499  2.2295802672 -0.6150581223
H  -1.2403561284 -0.4786187665  1.6547986491
H  -0.4859281775 -1.1632449176 -0.4987168505
H  -1.4778956310  0.1244408141 -1.2362231781
H   0.3623781580  1.7638548535 -0.6807586897
H   0.8609509076  0.5380871587 -1.8285048726
H   0.7678709615 -1.1643045046  1.2693509735
H   4.3650866625  1.6913220875 -0.4210800556
H   2.4801007608 -0.6954052429  1.7745628740
H   4.7962543116  2.9966766804 -1.0568345747
17
Image 67  Energy = -421.92435007
C  -1.2672707277  0.2720352807  0.8596013348
O  -1.7636857893  1.3409429817  1.1212925906
C  -0.7125986418 -0.0884790190 -0.4965962262
C   0.5707223866  0.6895379325 -0.8031198137
C   1.7630588832  0.3880788144  0.1099591222
O   2.8129935537  1.0511515940 -0.1475396749
C   1.6022786876 -0.5322627519  1.1200693438
O   5.1585688321  2.2053926998 -0.6378215878
H  -1.2107679928 -0.4971676041  1.6501922946
H  -0.5031478816 -1.1597487234 -0.5250928530
H  -1.4921054192  0.1541301124 -1.2225592274
H   0.3664512968  1.7611227437 -0.7323130408
H   0.8824884441  0.5016274294 -1.8365450235
H   0.7672952733 -1.2118515968  1.2122360433
H   4.3499755093  1.6929115086 -0.4093636878
H   2.4330452817 -0.6799573823  1.8025315500
H   4.7926985149  2.9825364585 -1.0649310820
17
Image 68  Energy = -421.92403507
C  -1.2274034146  0.2697367155  0.8716771940
O  -1.6776626969  1.3509129676  1.1639238658
C  -0.7123814351 -0.0814649992 -0.5035634522
C   0.5750401350  0.6851530688 -0.8207569507
C   1.7444196406  0.4081442793  0.1276982833
O   2.7834530384  1.1061137783 -0.0763412267
C   1.5743973072 -0.5318732058  1.1189261764
O   5.1481543832  2.1813674358 -0.6581253470
H  -1.1842597686 -0.5168279909  1.6446482838
H  -0.5205066535 -1.1550607526 -0.5505774462
H  -1.5046579597  0.1836575833 -1.2069424002
H   0.3720281186  1.7582113463 -0.7830610385
H   0.9036444216  0.4664328185 -1.8432815889
H   0.7702638701 -1.2527471697  1.1558158411
H   4.3339300072  1.6936992469 -0.3972470304
H   2.3835543548 -0.6635279893  1.8297993373
H   4.7879865006  2.9680732701 -1.0725923030
17
Image 69  Energy = -421.92335100
C  -1.1857755834  0.2620979157  0.8849575393
O  -1.5797295244  1.3552969256  1.2117273132
C  -0.7100112572 -0.0747048293 -0.5091779023
C   0.5788160936  0.6821027844 -0.8405981227
C   1.7305004788  0.4198217156  0.1317424592
O   2.7687597957  1.1256468808 -0.0436235739
C   1.5427790127 -0.5192621110  1.1224509241
O   5.1368267857  2.1714885406 -0.6596690747
H  -1.1749984996 -0.5477519634  1.6337712870
H  -0.5343567664 -1.1498290460 -0.5761897122
H  -1.5174594358  0.2107954580 -1.1863247553
H   0.3797790802  1.7562836078 -0.8259624635
H   0.9167486426  0.4404018518 -1.8550745324
H   0.7716613353 -1.2764104041  1.1133738641
H   4.3229672114  1.6908849709 -0.3842871731
H   2.3298599338 -0.6316591325  1.8607297826
H   4.7736324753  2.9547971331 -1.0778455634
17
Image 70  Energy = -421.92216138
C  -1.1320584081  0.2517049207  0.9013919799
O  -1.4657450327  1.3558810398  1.2607276961
C  -0.7046711797 -0.0684902742 -0.5144363059
C   0.5820281208  0.6796147906 -0.8637575810
C   1.7134409222  0.4330155130  0.1332917184
O   2.7528653073  1.1406901523 -0.0122599389
C   1.4997360807 -0.4987621075  1.1291387926
O   5.1247574291  2.1627005920 -0.6585709736
H  -1.1731270643 -0.5814332901  1.6219365916
H  -0.5469025629 -1.1444066273 -0.6030087295
H  -1.5308866605  0.2370299292 -1.1589318910
H   0.3867369446  1.7543704716 -0.8718745090
H   0.9300600521  0.4147306156 -1.8688899802
H   0.7766875609 -1.2999436861  1.0671192795
H   4.3124550488  1.6871473707 -0.3697169109
H   2.2672778699 -0.5945725107  1.8905868732
H   4.7573454112  2.9407235237 -1.0827458685
17
Image 71  Energy = -421.91971874
C  -1.0367975835  0.2324214866  0.9310762814
O  -1.3104459864  1.3501745700  1.3171172866
C  -0.6884826168 -0.0671788215 -0.5178855770
C   0.5833801863  0.6785112990 -0.8988101476
C   1.6872531928  0.4472185693  0.1233388745
O   2.7376538945  1.1330467909  0.0084733174
C   1.4094664525 -0.4497342909  1.1466184027
O   5.1141274324  2.1608674822 -0.6473224942
H  -1.1928745136 -0.6243554233  1.6077073242
H  -0.5472949542 -1.1422572666 -0.6324471369
H  -1.5453313282  0.2543800208 -1.1129196518
H   0.3873925552  1.7523896612 -0.9207265962
H   0.9410069985  0.3964862049 -1.8943497863
H   0.7945533979 -1.3264660691  1.0096040330
H   4.3072179489  1.6803073904 -0.3516046987
H   2.1732762261 -0.5319283280  1.9171402428
H   4.7358989538  2.9261173097 -1.0850095435
17
Image 72  Energy = -421.91787819
C  -0.9207687289  0.2126479388  0.9665781251
O  -1.2019705542  1.3414550990  1.3504039500
C  -0.6675343056 -0.0698102994 -0.5149760375
C   0.5844894787  0.6801372092 -0.9323608356
C   1.6626090763  0.4538805213  0.1036470287
O   2.7244957556  1.1101524529  0.0337642257
C   1.3155275789 -0.4195952573  1.1434977991
O   5.1064408132  2.1597341158 -0.6392948870
H  -1.1954731423 -0.6467263062  1.6036152747
H  -0.5359544771 -1.1429209869 -0.6554633548
H  -1.5517546812  0.2651833138 -1.0616783270
H   0.3809129105  1.7514607373 -0.9489909508
H   0.9452461677  0.3946161700 -1.9225149790
H   0.8226713208 -1.3578291255  0.9571028101
H   4.3074849250  1.6730040917 -0.3378606274
H   2.0540518629 -0.4509083797  1.9400606901
H   4.7195263430  2.9155191880 -1.0855297160
17
Image 73  Energy = -421.91743207
C  -0.8256978107  0.1997010174  0.9833846639
O  -1.0941869370  1.3476353193  1.3563039436
C  -0.6568479843 -0.0799633433 -0.5171587784
C   0.5794487213  0.6822640381 -0.9550607654
C   1.6485315290  0.4582715429  0.0882281878
O   2.7178995260  1.0934556467  0.0494599828
C   1.2645637274 -0.4049289605  1.1360356057
O   5.0822205193  2.1472761654 -0.6173115078
H  -1.1675363052 -0.6534895555  1.5982772332
H  -0.5293804622 -1.1497900331 -0.6840743886
H  -1.5604071554  0.2705144879 -1.0194043711
H   0.3627899732  1.7507989776 -0.9588327940
H   0.9413247829  0.4103840085 -1.9476031258
H   0.8475079330 -1.3746677793  0.9212915075
H   4.2859175139  1.6575669873 -0.3143789151
H   1.9662457540 -0.3739942388  1.9608589089
H   4.6876066525  2.8889659990 -1.0800152318
17
Image 74  Energy = -421.91541576
C  -0.7148503151  0.1841693387  1.0064340522
O  -1.0033317860  1.3624220980  1.3551581485
C  -0.6457961055 -0.0890575339 -0.5171091107
C   0.5738005070  0.6867355079 -0.9739899350
C   1.6330599487  0.4699818202  0.0737458829
O   2.7169674624  1.0561356805  0.0350550226
C   1.1880854448 -0.3593436215  1.1492134580
O   5.0456072869  2.1316184715 -0.5821548376
H  -1.1463490148 -0.6639880451  1.5847707105
H  -0.5242589308 -1.1561605048 -0.7113919654
H  -1.5598523357  0.2687000349 -0.9956492624
H   0.3489605456  1.7541837261 -0.9541065379
H   0.9413720607  0.4349206543 -1.9689745461
H   0.8995094999 -1.3751386420  0.9011261226
H   4.2506506773  1.6324088545 -0.2906213073
H   1.9076204026 -0.3181752237  1.9587892058
H   4.6388047572  2.8505879361 -1.0702948138
17
Image 75  Energy = -421.91985134
C  -0.6162742209  0.1595496150  1.0266945703
O  -0.9247048147  1.3575119516  1.3736840306
C  -0.6382468417 -0.0936920724 -0.5170445931
C   0.5742563680  0.6897576816 -0.9918686067
C   1.6252374120  0.4858388162  0.0673268843
O   2.7275216405  1.0237709345  0.0444023251
C   1.1091776015 -0.3237114205  1.1523803324
O   5.0223962347  2.1175173817 -0.5767341555
H  -1.1224054225 -0.6807772351  1.5693913706
H  -0.5297623044 -1.1603209503 -0.7347761892
H  -1.5646698570  0.2752031085 -0.9592230885
H   0.3392111324  1.7558490986 -0.9723868013
H   0.9475471411  0.4345212156 -1.9830402938
H   0.9566716189 -1.3653611255  0.8610944756
H   4.2176941388  1.6259457811 -0.2898348483
H   1.7946404548 -0.2753187956  1.9971035734
H   4.6317098059  2.8437165573 -1.0671689268
17
Image 76  Energy = -421.92544196
C  -0.5419828272  0.1248918058  1.0351147218
O  -0.8420825349  1.3436552326  1.3961085121
C  -0.6342908681 -0.0926439208 -0.5170805485
C   0.5727513922  0.6986579322 -1.0066580274
C   1.6202893127  0.4941936642  0.0560883107
O   2.7419627041  0.9758021403  0.0453193632
C   1.0505601177 -0.3105008190  1.1456791438
O   5.0089006692  2.1110737401 -0.5754709412
H  -1.0920775673 -0.6986687301  1.5565393396
H  -0.5360070755 -1.1552401782 -0.7623781405
H  -1.5742318776  0.2841248732 -0.9222648508
H   0.3286150346  1.7617445657 -0.9886551109
H   0.9480079564  0.4426636337 -1.9973481254
H   1.0270289910 -1.3645776732  0.8451921816
H   4.2013777909  1.6194208552 -0.2941857536
H   1.6448007141 -0.2062137186  2.0500640664
H   4.6263779109  2.8416172028 -1.0660640093
17
Image 77  Energy = -421.92828262
C  -0.5141488448  0.0910169073  1.0272661301
O  -0.7842758941  1.3193888104  1.4159622456
C  -0.6352150001 -0.0844553495 -0.5259990160
C   0.5709698199  0.7133632987 -1.0107055554
C   1.6214607669  0.4834429533  0.0470892935
O   2.7667899697  0.8971590911  0.0123592188
C   1.0270424013 -0.3057876784  1.1489802523
O   4.9963323559  2.1124473544 -0.5731824822
H  -1.0879724096 -0.7269944871  1.5308490608
H  -0.5491291730 -1.1399305778 -0.8076973940
H  -1.5812877003  0.3112827186 -0.8963760477
H   0.3269798564  1.7758668904 -0.9829176891
H   0.9451334111  0.4657676156 -2.0045224989
H   1.1257135645 -1.3714511690  0.8978058837
H   4.1946870920  1.6014196030 -0.3091619770
H   1.5160124342 -0.1115923967  2.0974884983
H   4.6109073695  2.8390564991 -1.0672374688
17
Image 78  Energy = -421.92891387
C  -0.5262129773  0.0758343755  1.0200077342
O  -0.8358581074  1.2906191025  1.4266613462
C  -0.6330369016 -0.0797972310 -0.5347022126
C   0.5685004427  0.7313699603 -1.0025814766
C   1.6333284519  0.4564422256  0.0315268649
O   2.8050218889  0.7855631130 -0.0518217685
C   1.0171816013 -0.2830343737  1.1636741395
O   5.0163816203  2.1299089480 -0.5791162120
H  -1.0914343206 -0.7646958310  1.4985965984
H  -0.5409308401 -1.1304740239 -0.8337328494
H  -1.5798107760  0.3163224078 -0.9013736867
H   0.3235907313  1.7927447115 -0.9226029280
H   0.9275582616  0.5235125295 -2.0104667403
H   1.1545589990 -1.3589247005  0.9783286810
H   4.2456013114  1.5705356808 -0.3338957121
H   1.4747814582 -0.0268756893  2.1146664992
H   4.5907791711  2.8409488952 -1.0631678467
17
Image 79  Energy = -421.93114432
C  -0.5487565885  0.0628755165  1.0180817583
O  -0.9101773142  1.2580396643  1.4275983231
C  -0.6365898848 -0.0761363934 -0.5392853280
C   0.5612246491  0.7463445088 -0.9864830708
C   1.6379722666  0.4291914823  0.0156519904
O   2.8280931745  0.6783778591 -0.1102291206
C   1.0007376820 -0.2644045961  1.1863927702
O   5.0564416496  2.1587852191 -0.5922929764
H  -1.1157345078 -0.7887405889  1.4685995356
H  -0.5281830956 -1.1207393872 -0.8491801772
H  -1.5817203391  0.3103280263 -0.9236131613
H   0.3221766544  1.8050320546 -0.8572806621
H   0.9065413888  0.5830178543 -2.0076551186
H   1.1751599383 -1.3391528649  1.0585422167
H   4.3296506604  1.5477729373 -0.3598655303
H   1.4772147232  0.0339930502  2.1096058105
H   4.5759488486  2.8454159736 -1.0585870090
17
Image 80  Energy = -421.92929517
C  -0.5464570193  0.0408117416  1.0022624235
O  -0.9404583756  1.2181984616  1.4468592775
C  -0.6251384179 -0.0617967607 -0.5566104752
C   0.5723049424  0.7722151424 -0.9854639124
C   1.6485653318  0.4054774694  0.0052433503
O   2.8479836694  0.5630144762 -0.1615794691
C   1.0094630976 -0.2317166931  1.1884626118
O   5.0184764056  2.1237020812 -0.5820357742
H  -1.0843445055 -0.8466055246  1.4312643827
H  -0.5223572116 -1.0980690312 -0.8976858004
H  -1.5715537835  0.3400168160 -0.9142525416
H   0.3386081117  1.8275994777 -0.8172377197
H   0.9121507350  0.6372663361 -2.0102756511
H   1.2445775948 -1.3060937665  1.1594205747
H   4.2945826809  1.4983429558 -0.3866050918
H   1.4022553995  0.1653079636  2.1240372527
H   4.5513414208  2.8223290532 -1.0458034034
17
Image 81  Energy = -421.92926672
C  -0.5495388960  0.0267172475  0.9923687798
O  -0.9871832143  1.1806009312  1.4564557811
C  -0.6165761245 -0.0493094965 -0.5691955253
C   0.5805846186  0.7935043996 -0.9807329835
C   1.6586083407  0.3830291565 -0.0103465779
O   2.8609915294  0.4642457077 -0.2102296400
C   1.0120896567 -0.2026352665  1.1965033594
O   4.9949759920  2.0963073333 -0.5677744191
H  -1.0623401730 -0.8865133249  1.3980991904
H  -0.5087353191 -1.0791999738 -0.9274649916
H  -1.5630191441  0.3553479864 -0.9232630824
H   0.3552299416  1.8434384687 -0.7684439359
H   0.9104238572  0.6936522821 -2.0123781953
H   1.2872157915 -1.2655971621  1.2496324554
H   4.2822114257  1.4495328876 -0.4039588109
H   1.3697148076  0.2720614712  2.1100650472
H   4.5253478056  2.7948170817 -1.0293370076
17
Image 82  Energy = -421.92919036
C  -0.5602632348 -0.0029259752  0.9857772497
O  -1.0310335592  1.1193915028  1.4918181868
C  -0.6124717358 -0.0230828333 -0.5787527227
C   0.5924531325  0.8219450041 -0.9608883969
C   1.6621667854  0.3808218930  0.0054637270
O   2.8661333925  0.4443229027 -0.1914150313
C   1.0036404335 -0.2097783575  1.2038672407
O   4.9979701279  2.0805036799 -0.5972471405
H  -1.0558326811 -0.9437292873  1.3480211920
H  -0.5114356903 -1.0410137118 -0.9708509134
H  -1.5541946421  0.4004013895 -0.9231735465
H   0.3769711538  1.8692282412 -0.7269841172
H   0.9259756855  0.7428318541 -1.9931845885
H   1.2995800912 -1.2655984185  1.2740025023
H   4.2845278229  1.4385254577 -0.4201369500
H   1.3349252527  0.2814481685  2.1185093488
H   4.5308879306  2.7767092276 -1.0648261480
17
Image 83  Energy = -421.92920290
C  -0.5708241672 -0.0280889657  0.9813435940
O  -1.0443757664  1.0748345796  1.5200419988
C  -0.6115841837 -0.0021724929 -0.5825965373
C   0.6005505518  0.8437432327 -0.9388623913
C   1.6605428493  0.3952693126  0.0322722169
O   2.8664867478  0.4838990725 -0.1399681281
C   0.9939735687 -0.2365951219  1.2091595345
O   5.0105359077  2.0743596036 -0.6382947721
H  -1.0632655398 -0.9831700358  1.3108309552
H  -0.5169538539 -1.0088113668 -1.0033239344
H  -1.5485565751  0.4387817257 -0.9184373707
H   0.3866030250  1.8905524478 -0.7032665245
H   0.9440449419  0.7716010145 -1.9691719204
H   1.2910806729 -1.2923982726  1.2433501128
H   4.2864178605  1.4534134422 -0.4266156410
H   1.3141183736  0.2271200121  2.1400633728
H   4.5512046746  2.7676628190 -1.1165253623
17
Image 84  Energy = -421.93216017
C  -0.5788250398 -0.0469454946  0.9779237750
O  -1.0441911357  1.0500298207  1.5354943934
C  -0.6086036224  0.0105165720 -0.5847090083
C   0.6069419445  0.8604491476 -0.9183548240
C   1.6563292060  0.4175306645  0.0671127953
O   2.8607751227  0.5511105039 -0.0672437576
C   0.9816267075 -0.2662489542  1.2111623374
O   5.0254724541  2.0655306242 -0.6915524964
H  -1.0800414216 -1.0039310522  1.2838477215
H  -0.5162675412 -0.9874878494 -1.0262615297
H  -1.5418965220  0.4625190103 -0.9171819208
H   0.3876634634  1.9072931742 -0.6901548734
H   0.9651611500  0.7881305164 -1.9434235722
H   1.2768522361 -1.3221593412  1.2007531244
H   4.2938541634  1.4721331497 -0.4325132019
H   1.2983267890  0.1540844053  2.1675832932
H   4.5668217726  2.7574460756 -1.1724823606
17
Image 85  Energy = -421.93213466
C  -0.5871442246 -0.0654026994  0.9756495495
O  -1.0498293434  1.0230196093  1.5520521012
C  -0.6065460861  0.0224262699 -0.5856984128
C   0.6131964584  0.8743921147 -0.8976694802
C   1.6493200674  0.4452067498  0.1087958900
O   2.8497173536  0.6393568665  0.0208112941
C   0.9693989629 -0.2940005290  1.2141531167
O   5.0443079874  2.0463709189 -0.7555279579
H  -1.0938208717 -1.0262859594  1.2591128751
H  -0.5187045906 -0.9669024039 -1.0468869519
H  -1.5357430512  0.4866145561 -0.9132947039
H   0.3885516350  1.9224585587 -0.6837517624
H   0.9902695457  0.7967218639 -1.9159391721
H   1.2602177536 -1.3494951319  1.1499322618
H   4.3038565683  1.4938368974 -0.4397204342
H   1.2821630358  0.0780333406  2.1911387097
H   4.5907886428  2.7436495666 -1.2331568025
17
Image 86  Energy = -421.93172213
C  -0.5996254295 -0.0881020479  0.9745011530
O  -1.0716901672  0.9827348371  1.5756206962
C  -0.6090537598  0.0378578332 -0.5846112685
C   0.6223364459  0.8786542056 -0.8787956769
C   1.6431705861  0.4643916893  0.1510602758
O   2.8353091283  0.7134268823  0.1057863951
C   0.9544735723 -0.3171973094  1.2227209902
O   5.0702145583  2.0326163793 -0.8255508998
H  -1.1042823017 -1.0586460907  1.2271313968
H  -0.5414179592 -0.9405686711 -1.0709645952
H  -1.5296524180  0.5273992418 -0.8992203252
H   0.4038765763  1.9314234411 -0.6863850624
H   1.0192227567  0.7847638706 -1.8887258810
H   1.2466722232 -1.3697131738  1.1240510681
H   4.3226895750  1.5222599507 -0.4671273386
H   1.2554459867  0.0225855496  2.2145088840
H   4.6323105155  2.7461134088 -1.2939998237
17
Image 87  Energy = -421.93059840
C  -0.6145606033 -0.1078582767  0.9757426922
O  -1.1075460658  0.9405559853  1.5990556420
C  -0.6199224950  0.0509280497 -0.5812665263
C   0.6283060068  0.8666720322 -0.8724413609
C   1.6405536096  0.4573640790  0.1691797747
O   2.8304806660  0.7171029342  0.1308387813
C   0.9393363698 -0.3254133098  1.2355128532
O   5.1057703725  2.0647682164 -0.8353893412
H  -1.1082678000 -1.0915182152  1.1992441600
H  -0.5849822700 -0.9178995400 -1.0887717445
H  -1.5296484413  0.5714058635 -0.8770598886
H   0.4302710692  1.9262163995 -0.6999221457
H   1.0350351418  0.7495817518 -1.8765593191
H   1.2378233728 -1.3767835829  1.1472333943
H   4.3462113509  1.5536607850 -0.5140444569
H   1.2231407654  0.0202449534  2.2301852365
H   4.6979984037  2.7709720074 -1.3415379274
17
Image 88  Energy = -421.92901124
C  -0.6283608405 -0.1214540050  0.9786048875
O  -1.1396855458  0.9084234181  1.6175387616
C  -0.6295004133  0.0601559068 -0.5772241413
C   0.6314378930  0.8555180889 -0.8687915303
C   1.6372732076  0.4513251901  0.1825026486
O   2.8265756251  0.7140694291  0.1436565030
C   0.9256925471 -0.3283100270  1.2479092329
O   5.1382595689  2.1073860513 -0.8284041153
H  -1.1124793798 -1.1150312127  1.1799365394
H  -0.6179121952 -0.9019838576 -1.0975707168
H  -1.5311525965  0.6013300739 -0.8603199480
H   0.4505676999  1.9207625108 -0.7179373651
H   1.0466949911  0.7147910635 -1.8668091836
H   1.2279365908 -1.3791794854  1.1692028255
H   4.3797486853  1.5598033390 -0.5790655637
H   1.1959684602  0.0225255266  2.2444844556
H   4.7489358422  2.7998678721 -1.3677133941
17
Image 89  Energy = -421.92689446
C  -0.6420782829 -0.1318749919  0.9820121686
O  -1.1684510671  0.8828947881  1.6323303743
C  -0.6376017654  0.0670973280 -0.5737614165
C   0.6328367985  0.8470817667 -0.8647417691
C   1.6316809946  0.4443105441  0.1948863871
O   2.8212248179  0.7033609362  0.1556016533
C   0.9116782238 -0.3309744160  1.2599757574
O   5.1649995593  2.1509660434 -0.8171201492
H  -1.1194307183 -1.1325288391  1.1645981753
H  -0.6409754413 -0.8904618549 -1.1021523073
H  -1.5331599374  0.6217228311 -0.8501285623
H   0.4662228506  1.9166765879 -0.7326436353
H   1.0558782178  0.6871077322 -1.8570049539
H   1.2178403922 -1.3812023788  1.1889700357
H   4.4205842605  1.5560707666 -0.6581730812
H   1.1744189017  0.0245773753  2.2570628978
H   4.7943326509  2.8351758931 -1.3797113485
17
Image 90  Energy = -421.92429202
C  -0.6556065534 -0.1412478808  0.9860118088
O  -1.1947232243  0.8597614700  1.6463144815
C  -0.6456250900  0.0731587259 -0.5706238906
C   0.6323660169  0.8407810741 -0.8603604993
C   1.6226932118  0.4399051141  0.2084620303
O   2.8113529581  0.6966938895  0.1742360017
C   0.8982350689 -0.3343475572  1.2711230226
O   5.1784943694  2.1993111247 -0.7889181688
H  -1.1281278280 -1.1473172731  1.1504412703
H  -0.6604562721 -0.8806573078 -1.1053207241
H  -1.5356376985  0.6382901895 -0.8435815597
H   0.4777225704  1.9139929899 -0.7469681247
H   1.0632406518  0.6627236566 -1.8466257793
H   1.2097975970 -1.3832476230  1.2026998109
H   4.4675197644  1.5502279733 -0.7418872896
H   1.1616391271  0.0235423277  2.2675668769
H   4.8471153328  2.8584285932 -1.4025690485
17
Image 91  Energy = -421.92121381
C  -0.6678474334 -0.1491359057  0.9902255342
O  -1.2195362362  0.8374235081  1.6603392841
C  -0.6524428432  0.0793015556 -0.5677984632
C   0.6318873202  0.8362253548 -0.8562314281
C   1.6143512448  0.4402658262  0.2218179841
O   2.8012620539  0.6990116985  0.1954140875
C   0.8888584742 -0.3354664313  1.2814333653
O   5.1663308094  2.2387456986 -0.7546998557
H  -1.1369648054 -1.1597572111  1.1356671379
H  -0.6770675290 -0.8714263883 -1.1076044199
H  -1.5366682658  0.6533773331 -0.8414390408
H   0.4870625255  1.9125106443 -0.7626569782
H   1.0698787449  0.6390597677 -1.8360795049
H   1.2074762044 -1.3824890133  1.2132364252
H   4.5225487399  1.5285844012 -0.8358612073
H   1.1605736734  0.0239510343  2.2757894859
H   4.8902969075  2.8798183810 -1.4115524294
17
Image 92  Energy = -421.91745552
C  -0.6803764421 -0.1553818439  0.9941792589
O  -1.2418957108  0.8170286199  1.6740220471
C  -0.6585634571  0.0849449917 -0.5659560220
C   0.6315658546  0.8323024028 -0.8517093055
C   1.6078313875  0.4435976983  0.2341414035
O   2.7926263935  0.7097479712  0.2158858715
C   0.8846675614 -0.3352792755  1.2912986071
O   5.1251485973  2.2656710534 -0.7194523156
H  -1.1501570567 -1.1688954055  1.1202728418
H  -0.6914342528 -0.8632415875 -1.1100753104
H  -1.5360260394  0.6667840497 -0.8468827362
H   0.4941663330  1.9109172465 -0.7760235453
H   1.0754041693  0.6172688213 -1.8252536224
H   1.2112493621 -1.3801764241  1.2226757901
H   4.5833590993  1.5006888001 -0.9285519163
H   1.1732187598  0.0254830874  2.2819496856
H   4.9292153714  2.8985396056 -1.4105207268
17
Image 93  Energy = -421.91285416
C  -0.6984778302 -0.1598358440  0.9970181458
O  -1.2614653968  0.7990937566  1.6876969772
C  -0.6651797689  0.0897096047 -0.5663695377
C   0.6308356949  0.8285103405 -0.8459881472
C   1.6029153365  0.4478120699  0.2455779586
O   2.7856314608  0.7251927383  0.2334764654
C   0.8890773424 -0.3345864578  1.3018452854
O   5.0640710860  2.2804170357 -0.6939723459
H  -1.1738462571 -1.1757494862  1.1057577419
H  -0.7047577703 -0.8558811383 -1.1153289295
H  -1.5348487507  0.6783437351 -0.8629497914
H   0.4985211637  1.9085695426 -0.7850859322
H   1.0784097547  0.5983981809 -1.8135582535
H   1.2233144191 -1.3765953205  1.2325669360
H   4.6477588901  1.4741518066 -1.0055944520
H   1.2017110090  0.0270948615  2.2881845039
H   4.9663295707  2.9153545027 -1.4032764966
17
Image 94  Energy = -421.90644520
C  -0.7365713582 -0.1579519775  0.9967508186
O  -1.2728009530  0.7833063516  1.7010410605
C  -0.6695255678  0.0926564742 -0.5717101364
C   0.6302444821  0.8260002998 -0.8411893282
C   1.5978680746  0.4511872609  0.2572977769
O   2.7778106167  0.7387211075  0.2479943504
C   0.9201446294 -0.3338558113  1.3110465040
O   5.0060619895  2.2813326896 -0.6885021492
H  -1.2097916962 -1.1857858781  1.0944093428
H  -0.7173391328 -0.8499662090 -1.1250438327
H  -1.5358223886  0.6889146251 -0.8891520752
H   0.5001687511  1.9047583071 -0.7888372026
H   1.0775214807  0.5831955958 -1.7992797228
H   1.2409653890 -1.3683523313  1.2432251187
H   4.7045032981  1.4491635950 -1.0534736227
H   1.2422568283  0.0293044783  2.2972227880
H   4.9943054029  2.9373714695 -1.3917995161
