17
Image 0  Energy = -421.89796320
C  -1.7889774081  0.3253369569  0.4767375588
O  -1.8816312235  1.4488272954  0.9074907125
C  -0.6985637456 -0.2394098614 -0.3566318792
C   0.5764449220  0.5922405486 -0.4458046893
C   1.8563349972 -0.1708289666 -0.1017587464
O   2.1060705733 -1.2684598253 -0.6426441327
C   2.6668698917  0.5527278684  0.8029334269
O   4.7134234603  2.0048841364 -0.4255293272
H  -2.6105314007 -0.3941785266  0.6716059307
H  -0.5361793099 -1.2432440936  0.0423371475
H  -1.1489594960 -0.3956181637 -1.3415502921
H   0.4950764310  1.4798569846  0.1730491815
H   0.7116046626  0.9674930695 -1.4582484114
H   2.0805102703  0.6964187035  1.7179082717
H   3.7067960518  1.4807383871 -0.4151161829
H   3.6108958743  0.0751392314  1.0172539880
H   4.6908152426  2.9580761125 -0.6220320778
17
Image 1  Energy = -421.90637447
C  -1.9956935797  0.4838129154  0.0833471723
O  -2.0574816473  1.6821083961  0.1762521547
C  -0.7424695385 -0.3266560393 -0.0785263950
C   0.5241527658  0.4990551262 -0.0917727864
C   1.7823279725 -0.3521278835 -0.0068218927
O   1.6843751728 -1.5669492503 -0.0463142819
C   3.0322630063  0.4104708700  0.1402330220
O   4.6642421408  2.4480376776 -0.2436030849
H  -2.9329500293 -0.1105138503  0.1209137743
H  -0.7197605970 -1.0581372474  0.7333446540
H  -0.8504486167 -0.9217530981 -0.9894040517
H   0.5140127902  1.2044696157  0.7394547713
H   0.5922270849  1.0956208397 -1.0030661591
H   2.9816078541  1.0713519527  0.9982480639
H   3.2527227304  1.1359914968 -0.6348264713
H   3.9219442783 -0.1895685052  0.2404632908
H   4.8989270998  3.3647895090 -0.1379222717
17
Image 2  Energy = -421.92711325
C  -1.8062411211  0.3125889485  0.4708883459
O  -1.9056925380  1.4371595126  0.8992375339
C  -0.7012019389 -0.2404031012 -0.3528106415
C   0.5641631766  0.6076254567 -0.4429506821
C   1.8334301273 -0.2011102696 -0.1023810426
O   1.9841788339 -1.2756447794 -0.7522139306
C   2.6446302759  0.3911022803  0.8453759738
O   4.7438741692  1.9913226933 -0.5344064336
H  -2.6354221172 -0.3967975924  0.6777852747
H  -0.4521566387 -1.2321820883  0.0301922145
H  -1.1515789760 -0.4282411008 -1.3325196850
H   0.4761087572  1.4865270969  0.1895451621
H   0.6894774325  0.9594022046 -1.4652104635
H   2.1720442958  0.9849184927  1.6239056021
H   3.9242906639  1.5470943043 -0.2201103774
H   3.6335579680  0.0032207633  1.0607244383
H   4.5365381040  2.9234170732 -0.5950503306
17
Image 3  Energy = -421.91334398
C  -1.9316753594  0.3696844486  0.3347492712
O  -2.0603632952  1.5211048322  0.6788383150
C  -0.7261968134 -0.2580704873 -0.2546343046
C   0.5421138582  0.5859319475 -0.3088524502
C   1.7979400394 -0.2708542553 -0.0586775108
O   1.7593564315 -1.4367403458 -0.5315041566
C   2.8374271585  0.3533414763  0.6302531832
O   4.7790983348  2.1932044251 -0.6136180666
H  -2.7991340981 -0.3113935184  0.4592934460
H  -0.5135733492 -1.1710479795  0.3104491298
H  -1.0238233839 -0.6273979898 -1.2423844342
H   0.4799340927  1.4004402934  0.4079033338
H   0.6536641114  1.0286594238 -1.2964401206
H   2.6087474844  1.2593862652  1.1846524316
H   4.0530549031  1.4259187739 -0.2480868107
H   3.7056343030 -0.2251156458  0.9066518927
H   4.3877952074  3.0329477879 -0.3585915878
17
Image 4  Energy = -421.92149217
C  -1.9920464029  0.5076526461  0.0407759317
O  -2.0730486521  1.7097552364  0.0931981211
C  -0.7358007386 -0.2937847724 -0.0480854056
C   0.5495159984  0.5024446483 -0.0501352746
C   1.7941396929 -0.3644684013 -0.0129020114
O   1.6854110980 -1.5900342131 -0.1036159320
C   3.0704018156  0.3439159480  0.1421108639
O   4.3834367790  2.6231037248 -0.3571854859
H  -2.9212407226 -0.0961991241  0.0622853211
H  -0.7542165864 -0.9955466607  0.7891544270
H  -0.8191368226 -0.9169829877 -0.9410406679
H   0.5716384645  1.1865371578  0.7973064643
H   0.6177438460  1.1173496821 -0.9460888404
H   3.0647848573  0.9633705289  1.0321918501
H   3.3291518364  1.1162937071 -0.5993404140
H   3.9055937979 -0.3379835507  0.1982810256
H   4.8736722121  3.3945675654 -0.0969111643
17
Image 5  Energy = -421.92162252
C  -1.9925660824  0.5062452113  0.0426305800
O  -2.0726672953  1.7114808717  0.0973351895
C  -0.7374334176 -0.2933851588 -0.0505258173
C   0.5489752077  0.5010816140 -0.0512406350
C   1.7926432162 -0.3702293404 -0.0100261478
O   1.6803670795 -1.5908806288 -0.1092675617
C   3.0724902578  0.3406160617  0.1474588744
O   4.3758034180  2.6430569077 -0.3558719394
H  -2.9218791148 -0.0954002775  0.0662108932
H  -0.7532376573 -0.9966462985  0.7855974006
H  -0.8223413578 -0.9148633247 -0.9449400724
H   0.5709466967  1.1883441950  0.7934354668
H   0.6191937763  1.1136562532 -0.9491442349
H   3.0655962707  0.9577250613  1.0428760852
H   3.3329874397  1.1125037041 -0.6042912207
H   3.9047866920 -0.3483703350  0.2063260192
H   4.8863349697  3.4050545707 -0.1065639213
17
Image 6  Energy = -421.93114431
C  -0.5487565885  0.0628755165  1.0180817583
O  -0.9101773142  1.2580396643  1.4275983231
C  -0.6365898848 -0.0761363934 -0.5392853280
C   0.5612246491  0.7463445088 -0.9864830708
C   1.6379722666  0.4291914823  0.0156519904
O   2.8280931745  0.6783778591 -0.1102291206
C   1.0007376820 -0.2644045961  1.1863927702
O   5.0564416496  2.1587852191 -0.5922929764
H  -1.1157345078 -0.7887405889  1.4685995356
H  -0.5281830956 -1.1207393872 -0.8491801772
H  -1.5817203391  0.3103280263 -0.9236131613
H   0.3221766544  1.8050320546 -0.8572806621
H   0.9065413888  0.5830178543 -2.0076551186
H   1.1751599383 -1.3391528649  1.0585422167
H   4.3296506604  1.5477729373 -0.3598655303
H   1.4772147232  0.0339930502  2.1096058105
H   4.5759488486  2.8454159736 -1.0585870090
