17
Image 0  Energy = -421.87973251
C  -1.9836290742  0.4965898259  0.0524346933
O  -2.0310623706  1.6982497955  0.1128033229
C  -0.7385528178 -0.3295135025 -0.0492039696
C   0.5314343647  0.4859236562 -0.0558343690
C   1.7884735620 -0.3630978040 -0.0001301508
O   1.7117905667 -1.5801589539 -0.0262316181
C   3.0284719173  0.4201626148  0.0845542677
O   4.6172159760  2.4315280398 -0.1684364208
H  -2.9272770381 -0.0847810945  0.0746507059
H  -0.7455711858 -1.0341087425  0.7865673153
H  -0.8243344104 -0.9482167941 -0.9466127454
H   0.5408946021  1.1741434116  0.7901565961
H   0.5885183554  1.1032002442 -0.9544023798
H   3.0078411291  1.0829416202  0.9478095793
H   3.1837107846  1.1384450990 -0.7327616496
H   3.9340075346 -0.1634956841  0.1471716857
H   4.8680687068  3.3421857972 -0.0625349225
17
Image 1  Energy = -421.88823910
C  -1.9755933797  0.5257228715  0.0117871981
O  -2.0577531109  1.7272977801  0.0452625611
C  -0.7147195182 -0.2803589053 -0.0354007990
C   0.5696303327  0.5256625475 -0.0324860566
C   1.8108588402 -0.3621586895 -0.0263975733
O   1.6564583156 -1.5705030557 -0.1568223857
C   3.1026505876  0.3047024222  0.1712768299
O   4.2211146458  2.6746965856 -0.5545694228
H  -2.9087470831 -0.0772700805  0.0198165538
H  -0.7508176921 -0.9647652135  0.8178918953
H  -0.7745273087 -0.9278191354 -0.9137146656
H   0.5985505819  1.1891167820  0.8317763364
H   0.6315412765  1.1652908663 -0.9131397687
H   3.0892594034  0.8395322717  1.1163575233
H   3.3939084856  1.1814861599 -0.4916224397
H   3.9208054193 -0.4015070950  0.1784755312
H   4.7373791896  3.3208842820 -0.0684901243
17
Image 2  Energy = -421.91541575
C  -0.7148503151  0.1841693387  1.0064340522
O  -1.0033317860  1.3624220980  1.3551581485
C  -0.6457961055 -0.0890575339 -0.5171091107
C   0.5738005070  0.6867355079 -0.9739899350
C   1.6330599487  0.4699818202  0.0737458829
O   2.7169674624  1.0561356805  0.0350550226
C   1.1880854448 -0.3593436215  1.1492134580
O   5.0456072869  2.1316184715 -0.5821548376
H  -1.1463490148 -0.6639880451  1.5847707105
H  -0.5242589308 -1.1561605048 -0.7113919654
H  -1.5598523357  0.2687000349 -0.9956492624
H   0.3489605456  1.7541837261 -0.9541065379
H   0.9413720607  0.4349206543 -1.9689745461
H   0.8995094999 -1.3751386420  0.9011261226
H   4.2506506773  1.6324088545 -0.2906213073
H   1.9076204026 -0.3181752237  1.9587892058
H   4.6388047572  2.8505879361 -1.0702948138
17
Image 3  Energy = -421.91285415
C  -0.6984778302 -0.1598358440  0.9970181458
O  -1.2614653968  0.7990937566  1.6876969772
C  -0.6651797689  0.0897096047 -0.5663695377
C   0.6308356949  0.8285103405 -0.8459881472
C   1.6029153365  0.4478120699  0.2455779586
O   2.7856314608  0.7251927383  0.2334764654
C   0.8890773424 -0.3345864578  1.3018452854
O   5.0640710860  2.2804170357 -0.6939723459
H  -1.1738462571 -1.1757494862  1.1057577419
H  -0.7047577703 -0.8558811383 -1.1153289295
H  -1.5348487507  0.6783437351 -0.8629497914
H   0.4985211637  1.9085695426 -0.7850859322
H   1.0784097547  0.5983981809 -1.8135582535
H   1.2233144191 -1.3765953205  1.2325669360
H   4.6477588901  1.4741518066 -1.0055944520
H   1.2017110090  0.0270948615  2.2881845039
H   4.9663295707  2.9153545027 -1.4032764966
