17
Image 0  Energy = -421.93140883
C  -1.8168622614  0.2767825953  0.4755592892
O  -1.9706713111  1.3990000782  0.8962500438
C  -0.6981692731 -0.2241151248 -0.3564638611
C   0.5463066178  0.6543409119 -0.4494741376
C   1.8037081977 -0.1707502995 -0.1164660358
O   1.9392302724 -1.2261720991 -0.8054344696
C   2.6092609844  0.3328404843  0.8808023016
O   4.8657770337  2.0926734537 -0.5121440629
H  -2.6030159986 -0.4745120155  0.6998130493
H  -0.4012140936 -1.2068839164  0.0153171011
H  -1.1453148310 -0.4287713200 -1.3343297348
H   0.4499089505  1.5226007105  0.1968011665
H   0.6589335790  1.0138111372 -1.4707103541
H   2.2279228310  1.1016690334  1.5433491233
H   4.1925808526  1.4784185830 -0.1673839618
H   3.5285949146 -0.1650582121  1.1711006256
H   4.3630234265  2.8941256474 -0.6665862889
17
Image 1  Energy = -421.93211993
C  -1.8297328119  0.2725792360  0.4662939216
O  -2.0023380000  1.3966220313  0.8755365744
C  -0.7005888241 -0.2199359072 -0.3550683454
C   0.5416049227  0.6623250164 -0.4370460925
C   1.7976226212 -0.1708853044 -0.1155183825
O   1.9151851157 -1.2310305950 -0.8013258230
C   2.6178432734  0.3248790680  0.8723748786
O   4.8877331954  2.1345715777 -0.4809847268
H  -2.6048264785 -0.4891581883  0.6940128935
H  -0.3995319722 -1.2002297717  0.0194676691
H  -1.1365836180 -0.4292980739 -1.3371145413
H   0.4453535953  1.5201492139  0.2231260490
H   0.6527581610  1.0372963937 -1.4529960966
H   2.2631780450  1.1194712779  1.5190134660
H   4.2646704222  1.4681866173 -0.1399749804
H   3.5281301737 -0.1894981718  1.1620124991
H   4.3095223771  2.8639552390 -0.7118090982
17
Image 2  Energy = -421.93263075
C  -1.8434012772  0.2682781685  0.4563352425
O  -2.0351483135  1.3937329180  0.8534781750
C  -0.7034410895 -0.2161077389 -0.3535853543
C   0.5366569514  0.6698941476 -0.4234359310
C   1.7924907596 -0.1702145307 -0.1145423628
O   1.8941602589 -1.2336221593 -0.7987181460
C   2.6279134892  0.3185311347  0.8630004053
O   4.9040878820  2.1791909581 -0.4510753693
H  -2.6068960392 -0.5037169778  0.6881688801
H  -0.4001933743 -1.1945654908  0.0233983672
H  -1.1275635398 -0.4286155506 -1.3401747710
H   0.4399407776  1.5165130407  0.2511588949
H   0.6468174669  1.0617135158 -1.4334342305
H   2.2990812440  1.1351980904  1.4955928930
H   4.3365451482  1.4655615581 -0.1116396666
H   3.5283562447 -0.2134208345  1.1522537088
H   4.2605939152  2.8216494842 -0.7567809223
17
Image 3  Energy = -421.93274521
C  -1.8365815341  0.2457442399  0.4643453441
O  -2.0489516895  1.3658903814  0.8661647327
C  -0.7011573593 -0.2079072872 -0.3694413376
C   0.5330845863  0.6878817198 -0.4257318124
C   1.7922054923 -0.1496564606 -0.1219457903
O   1.9077701368 -1.1969198352 -0.8287357014
C   2.6143391547  0.3196758927  0.8762300970
O   4.9109383504  2.1918763200 -0.4271483460
H  -2.5758373373 -0.5456052006  0.7088544928
H  -0.3875350450 -1.1946417617 -0.0244960789
H  -1.1353458729 -0.3928306591 -1.3573244189
H   0.4287639252  1.5271048174  0.2571583697
H   0.6436618002  1.0901069424 -1.4317237317
H   2.2806621978  1.1272985827  1.5180405616
H   4.3779506096  1.4622375957 -0.0680864633
H   3.5086851797 -0.2216297233  1.1684779477
H   4.2373472432  2.7613746680 -0.8046382296
17
Image 4  Energy = -421.93281341
C  -1.8277863725  0.2223445614  0.4730756600
O  -2.0604188715  1.3363557365  0.8808682038
C  -0.6986586638 -0.1995179554 -0.3859494833
C   0.5296222540  0.7058495693 -0.4289680844
C   1.7923695586 -0.1279453644 -0.1293597580
O   1.9241929754 -1.1572344317 -0.8594747316
C   2.5992324887  0.3213125479  0.8904200130
O   4.9141202843  2.2029693040 -0.4065921797
H  -2.5418062949 -0.5878693545  0.7301426863
H  -0.3746865783 -1.1939301551 -0.0749780387
H  -1.1445407919 -0.3555132927 -1.3736975826
H   0.4174093998  1.5383305293  0.2610380936
H   0.6408332089  1.1173994249 -1.4311870996
H   2.2585304836  1.1177995440  1.5425199283
H   4.4143319870  1.4615611883 -0.0259537105
H   3.4878383736 -0.2285790761  1.1856651833
H   4.2194157827  2.6966678818 -0.8475696769
17
Image 5  Energy = -421.93267534
C  -1.8053277314  0.2013552059  0.4906807263
O  -2.0471889582  1.3080366591  0.9128641328
C  -0.6930117860 -0.1915585848 -0.4040417492
C   0.5301220118  0.7214716079 -0.4463395945
C   1.7946108423 -0.1048273503 -0.1360876218
O   1.9513196817 -1.1181436343 -0.8833148972
C   2.5760793490  0.3291349501  0.9102131564
O   4.9077593809  2.1849049730 -0.4013894677
H  -2.4975351461 -0.6235689944  0.7599895616
H  -0.3576048098 -1.1926421843 -0.1288300244
H  -1.1613127923 -0.3188801708 -1.3855253434
H   0.4091503565  1.5585598924  0.2367757008
H   0.6433510669  1.1252227203 -1.4515171342
H   2.2201979072  1.1134336517  1.5690236579
H   4.4168142519  1.4429132815 -0.0107114671
H   3.4578275941 -0.2263638169  1.2167437672
H   4.2047486345  2.6609519782 -0.8485337351
17
Image 6  Energy = -421.93253962
C  -1.7795465774  0.1784987104  0.5094015301
O  -2.0316790571  1.2770221082  0.9467576925
C  -0.6869582150 -0.1826942022 -0.4231899902
C   0.5306411903  0.7383819853 -0.4649158080
C   1.7971001742 -0.0790925452 -0.1425340115
O   1.9822116572 -1.0744974301 -0.9071993694
C   2.5503441030  0.3376286722  0.9315492611
O   4.8996156127  2.1637749136 -0.3966671601
H  -2.4469634631 -0.6622360266  0.7915911369
H  -0.3401191671 -1.1898104499 -0.1872984134
H  -1.1797037231 -0.2791405425 -1.3961833946
H   0.3998680900  1.5806051913  0.2101849053
H   0.6463053769  1.1328854701 -1.4734889449
H   2.1790831818  1.1099121479  1.5958577989
H   4.4182508157  1.4208431409  0.0035839657
H   3.4244703768 -0.2240027569  1.2499544887
H   4.1870799570  2.6219212087 -0.8474037836
17
Image 7  Energy = -421.93251539
C  -1.7359335776  0.1451322410  0.5402559400
O  -1.9995741692  1.2349868294  0.9953672151
C  -0.6766374182 -0.1696064643 -0.4498470099
C   0.5328614612  0.7622148152 -0.4938208785
C   1.8015437650 -0.0395447100 -0.1476578436
O   2.0340195503 -1.0095131395 -0.9331328951
C   2.5105839786  0.3544184200  0.9653469777
O   4.8784629082  2.1170720874 -0.4033066381
H  -2.3608783815 -0.7173366166  0.8408056349
H  -0.3144208294 -1.1833004450 -0.2735056113
H  -1.2090928476 -0.2196213641 -1.4051960404
H   0.3862712140  1.6154581026  0.1642127798
H   0.6541580036  1.1368156536 -1.5094361716
H   2.1198751610  1.1172005715  1.6291815641
H   4.4098838529  1.3686746885  0.0011379822
H   3.3718451202 -0.2163295571  1.3045757659
H   4.1470319982  2.5732783558 -0.8249812232
17
Image 8  Energy = -421.91705402
C  -1.6848713198  0.1211910380  0.5784062122
O  -1.9515260537  1.1996780252  1.0470492455
C  -0.6697085949 -0.1588569637 -0.4790173575
C   0.5385042891  0.7780872266 -0.5297550146
C   1.8091175391 -0.0127719582 -0.1499593812
O   2.0907860875 -0.9579700862 -0.9391820178
C   2.4731889344  0.3741047867  0.9994054825
O   4.8513506298  2.0628362029 -0.4147592881
H  -2.2725741238 -0.7625401006  0.9040022397
H  -0.3011153509 -1.1792430832 -0.3620863925
H  -1.2439475014 -0.1592879922 -1.4124778331
H   0.3755591893  1.6462196740  0.1066726486
H   0.6697652884  1.1252768211 -1.5546514543
H   2.0614393257  1.1349151535  1.6524729837
H   4.3730613338  1.3075070391 -0.0336293814
H   3.3167178367 -0.2088445076  1.3650312114
H   4.1142524621  2.5596988087 -0.7775218196
17
Image 9  Energy = -421.91681355
C  -1.6247383287  0.1024623392  0.6108489653
O  -1.8790056710  1.1708358759  1.1074845203
C  -0.6632341471 -0.1488577643 -0.5041883676
C   0.5460355968  0.7852954057 -0.5673764345
C   1.8076767605  0.0047729808 -0.1466811977
O   2.1384109608 -0.9274378826 -0.9329429032
C   2.4149133017  0.3768815296  1.0392060623
O   4.8297313697  2.0371014965 -0.4416526337
H  -2.1865155967 -0.7911138027  0.9527759911
H  -0.2986590713 -1.1751421105 -0.4380111687
H  -1.2782038938 -0.1057860416 -1.4103125945
H   0.3717777394  1.6720305004  0.0401607238
H   0.6897341883  1.0998225014 -1.6008608537
H   2.0037800767  1.1551086002  1.6692515727
H   4.3591723549  1.2561569137 -0.1038322961
H   3.2375496839 -0.2177477809  1.4370780005
H   4.0815744108  2.5756177985 -0.7109469473
17
Image 10  Energy = -421.91631691
C  -1.5861532575  0.0904208803  0.6300227843
O  -1.8141856361  1.1497286547  1.1567073437
C  -0.6576764327 -0.1452547244 -0.5178126411
C   0.5511466649  0.7891414876 -0.5898177571
C   1.8101743660  0.0254977818 -0.1362775110
O   2.2032785800 -0.8771264003 -0.9301282623
C   2.3494013112  0.3691937622  1.0892940451
O   4.8280118825  2.0277513337 -0.4921796909
H  -2.1490838178 -0.8045839147  0.9664037417
H  -0.2986633987 -1.1749934050 -0.4783466392
H  -1.2954189532 -0.0793802969 -1.4069872844
H   0.3636667584  1.6884175389 -0.0043223047
H   0.7038184074  1.0803923620 -1.6289051831
H   1.9316766225  1.1553423016  1.7041485683
H   4.3800479392  1.2102301837 -0.2170567349
H   3.1671746267 -0.2224259658  1.5009914223
H   4.0627842576  2.5876482661 -0.6457333859
17
Image 11  Energy = -421.91596348
C  -1.5637974591  0.0839737478  0.6407818263
O  -1.7601305197  1.1353808579  1.1948309094
C  -0.6526886325 -0.1454194646 -0.5241171915
C   0.5553126590  0.7906221252 -0.6014091606
C   1.8187315288  0.0488764656 -0.1257433018
O   2.2755037051 -0.8140055386 -0.9305400458
C   2.2981488771  0.3655558390  1.1309852994
O   4.8309549672  2.0130124689 -0.5454330188
H  -2.1421819269 -0.8065999338  0.9634403913
H  -0.2985237468 -1.1775811999 -0.4963257278
H  -1.3012075133 -0.0699318080 -1.4050467581
H   0.3562834955  1.6968111311 -0.0300632884
H   0.7128463195  1.0682495947 -1.6436041205
H   1.8423621655  1.1292903818  1.7482020893
H   4.3921492281  1.1744269895 -0.3287622554
H   3.1233929835 -0.2101790384  1.5500243517
H   4.0628441509  2.5875168661 -0.5972195830
17
Image 12  Energy = -421.91619750
C  -1.5476100551  0.0769645504  0.6472320944
O  -1.7175536468  1.1198310654  1.2261209180
C  -0.6450581140 -0.1459959563 -0.5266209877
C   0.5587616422  0.7951584099 -0.6077751977
C   1.8312226169  0.0788714620 -0.1136798947
O   2.3491528024 -0.7376877051 -0.9333405010
C   2.2579562610  0.3651911541  1.1675030450
O   4.8294664290  1.9838683547 -0.5949783422
H  -2.1435837684 -0.8082371579  0.9527152862
H  -0.2914690887 -1.1789405960 -0.5057770940
H  -1.3009811176 -0.0669984177 -1.4018148721
H   0.3476895195  1.7059678380 -0.0481199146
H   0.7195623269  1.0611339017 -1.6524214437
H   1.7548221334  1.0952335080  1.7916812292
H   4.3803382166  1.1389009778 -0.4330458759
H   3.0934935020 -0.1893011721  1.5915295671
H   4.0737899860  2.5760393983 -0.5592081085
17
Image 13  Energy = -421.91691156
C  -1.5356028623  0.0693664852  0.6499829005
O  -1.6997693016  1.1051694932  1.2433145993
C  -0.6314957279 -0.1441649316 -0.5254290904
C   0.5629882412  0.8089914642 -0.6093917559
C   1.8469004910  0.1191018005 -0.1050430817
O   2.4244035915 -0.6401367328 -0.9427801014
C   2.2237531350  0.3645837069  1.1993828624
O   4.8090556267  1.9395083700 -0.6385735181
H  -2.1364014111 -0.8180411074  0.9409437093
H  -0.2708634412 -1.1754098182 -0.5032647228
H  -1.2878540995 -0.0726399921 -1.4011196282
H   0.3383019141  1.7217347076 -0.0577382294
H   0.7239827547  1.0673863140 -1.6560850240
H   1.6925565928  1.0708469201  1.8280677902
H   4.3558164705  1.0896441520 -0.5191862832
H   3.0686092709 -0.1740499316  1.6263684985
H   4.0656183554  2.5381089553 -0.5294485251
17
Image 14  Energy = -421.93241078
C  -1.5187380256  0.0639544869  0.6431045376
O  -1.6948163546  1.0939833093  1.2487072113
C  -0.6133238492 -0.1433086246 -0.5206220736
C   0.5670431879  0.8251591338 -0.6070264963
C   1.8607065450  0.1688915970 -0.0948397879
O   2.5034583207 -0.5229661805 -0.9553994940
C   2.1897750709  0.3609914342  1.2256523957
O   4.7797562181  1.8808099612 -0.6712746742
H  -2.1227670511 -0.8231701499  0.9342307856
H  -0.2423241614 -1.1705376186 -0.4901530445
H  -1.2679160193 -0.0867771752 -1.3983370865
H   0.3263531106  1.7400358711 -0.0672220462
H   0.7257141757  1.0760089189 -1.6545673309
H   1.6319392879  1.0307191891  1.8690005306
H   4.3120128746  1.0306424562 -0.5980154694
H   3.0513496378 -0.1523507143  1.6493383063
H   4.0617765844  2.4979139379 -0.5125761160
17
Image 15  Energy = -421.93279025
C  -1.5135386627  0.0656800808  0.6467293165
O  -1.6936439749  1.0997979935  1.2447838189
C  -0.6057285552 -0.1461447438 -0.5143516293
C   0.5667601112  0.8308972444 -0.6112871488
C   1.8707462610  0.1992646366 -0.0956344250
O   2.5599328058 -0.4313838404 -0.9703110015
C   2.1683416801  0.3501946207  1.2360884223
O   4.7773384336  1.8484579562 -0.6718026477
H  -2.1147736042 -0.8211743247  0.9433663518
H  -0.2289340495 -1.1715035817 -0.4752252966
H  -1.2603329728 -0.1036655015 -1.3929815019
H   0.3165030669  1.7490106225 -0.0805520937
H   0.7216474202  1.0721995079 -1.6612887410
H   1.5780611279  0.9759548398  1.8946582878
H   4.2846023190  1.0071360869 -0.6320221999
H   3.0486164884 -0.1367793410  1.6510519305
H   4.0744017641  2.4820574084 -0.5112214455
17
Image 16  Energy = -421.93312566
C  -1.5099720642  0.0686396802  0.6519709821
O  -1.6926063223  1.1079399954  1.2401477236
C  -0.5998004289 -0.1494102768 -0.5080358256
C   0.5661425690  0.8345276244 -0.6162271520
C   1.8794916099  0.2267315912 -0.0969598453
O   2.6119296004 -0.3418148702 -0.9818770469
C   2.1490598527  0.3378245573  1.2424085449
O   4.7776749099  1.8182426837 -0.6671794173
H  -2.1079896549 -0.8178034904  0.9545630566
H  -0.2185514576 -1.1733989884 -0.4606511022
H  -1.2542935925 -0.1203162100 -1.3863539184
H   0.3076255783  1.7559057484 -0.0943801998
H   0.7176516922  1.0657099429 -1.6686387225
H   1.5265146269  0.9169370143  1.9133699721
H   4.2588853933  0.9902409482 -0.6570621166
H   3.0473763550 -0.1211524618  1.6490379929
H   4.0908610741  2.4711959814 -0.5141327781
17
Image 17  Energy = -421.93429172
C  -1.5064714689  0.0738887845  0.6563024391
O  -1.6899155847  1.1195888779  1.2327327420
C  -0.5906153161 -0.1543469365 -0.4971684909
C   0.5674912889  0.8358323795 -0.6200753031
C   1.8967910633  0.2641418018 -0.0975556530
O   2.6916353583 -0.2098352823 -0.9890100723
C   2.1264322458  0.3210373353  1.2496801345
O   4.7683089445  1.7670699812 -0.6555245145
H  -2.1055188091 -0.8102359725  0.9642723046
H  -0.2068829213 -1.1767270727 -0.4383177432
H  -1.2447482204 -0.1405420391 -1.3771779795
H   0.2988635479  1.7626084754 -0.1103154087
H   0.7141737422  1.0543486576 -1.6755843678
H   1.4685299094  0.8432075493  1.9328341843
H   4.2047799936  0.9647024080 -0.6959826271
H   3.0474724637 -0.0977669470  1.6471362457
H   4.1096740711  2.4530275389 -0.5262462035
17
Image 18  Energy = -421.93525736
C  -1.5055574134  0.0878439256  0.6636015706
O  -1.6924019456  1.1437384782  1.2200625468
C  -0.5789666762 -0.1615606332 -0.4755861627
C   0.5618002241  0.8430915610 -0.6288934927
C   1.9051033717  0.3035104197 -0.1080016786
O   2.7414698064 -0.0818291653 -1.0079306604
C   2.0999388204  0.2960349836  1.2434135134
O   4.7858780417  1.7316239981 -0.6239205759
H  -2.1057298417 -0.7915179419  0.9813101244
H  -0.1780800789 -1.1746466804 -0.3832020217
H  -1.2282797627 -0.1888726777 -1.3591439843
H   0.2852526544  1.7795807253 -0.1389854666
H   0.6975588477  1.0380084155 -1.6895166942
H   1.3814906044  0.7024419383  1.9434150093
H   4.1797429733  0.9600320516 -0.7386169964
H   3.0414522353 -0.0709974179  1.6413953978
H   4.1593284004  2.4535173650 -0.5394007797
17
Image 19  Energy = -421.93511239
C  -1.5082566531  0.0967153332  0.6720572339
O  -1.6897219545  1.1573671672  1.2211970664
C  -0.5819726713 -0.1668088461 -0.4638409090
C   0.5516991951  0.8416596389 -0.6418733810
C   1.9022427893  0.3165649078 -0.1234470006
O   2.7593379029 -0.0149444387 -1.0252509309
C   2.0783921237  0.2623586825  1.2293987692
O   4.8221336058  1.7426594685 -0.5862428637
H  -2.1096793024 -0.7791185415  0.9974590969
H  -0.1725880279 -1.1744125147 -0.3512935711
H  -1.2322190042 -0.2181051110 -1.3458041305
H   0.2746993066  1.7847162133 -0.1646678881
H   0.6793698689  1.0203860606 -1.7060473206
H   1.3301613463  0.5968777341  1.9359758652
H   4.1928437516  0.9909371023 -0.7176789686
H   3.0298595865 -0.0789661739  1.6258145391
H   4.2236984741  2.4921128215 -0.5557560628
17
Image 20  Energy = -421.93495883
C  -1.5106365140  0.1041856207  0.6795418673
O  -1.6864354099  1.1688251674  1.2228040339
C  -0.5853670648 -0.1714587294 -0.4536796348
C   0.5422663955  0.8393269191 -0.6536561691
C   1.8988426277  0.3276298861 -0.1361997131
O   2.7738394005  0.0441888183 -1.0368147043
C   2.0589359062  0.2319304393  1.2166379051
O   4.8528334761  1.7546990783 -0.5527969727
H  -2.1136992490 -0.7683942738  1.0114163056
H  -0.1689393852 -1.1740802443 -0.3240794518
H  -1.2364135208 -0.2427353600 -1.3336092713
H   0.2659006064  1.7883632774 -0.1882278806
H   0.6631924821  1.0039266180 -1.7206022964
H   1.2882567974  0.5026200394  1.9260079037
H   4.2048239607  1.0202909955 -0.6969485696
H   3.0184437512 -0.0865250585  1.6121493835
H   4.2841562521  2.5272065110 -0.5719432334
17
Image 21  Energy = -421.93489512
C  -1.5091212629  0.1109553916  0.6893235828
O  -1.6709122407  1.1769686043  1.2340861062
C  -0.5901989637 -0.1754093837 -0.4456356518
C   0.5351877291  0.8324999209 -0.6687162310
C   1.8973659920  0.3354072157 -0.1496367177
O   2.7914858168  0.1027208380 -1.0453356989
C   2.0398242978  0.1994905572  1.2022605355
O   4.8768130729  1.7770113451 -0.5138002962
H  -2.1192070099 -0.7565498363  1.0231115476
H  -0.1721276739 -1.1757254205 -0.3047025649
H  -1.2459920667 -0.2587246221 -1.3209092993
H   0.2616348424  1.7888518908 -0.2171763827
H   0.6501837559  0.9809517309 -1.7385550889
H   1.2512529765  0.4192200243  1.9092911946
H   4.2188853647  1.0528540773 -0.6677932333
H   3.0035743757 -0.1033715910  1.5995426727
H   4.3313516128  2.5628492101 -0.5853543482
17
Image 22  Energy = -421.93493508
C  -1.5061473157  0.1183669315  0.7000618884
O  -1.6529390945  1.1851171257  1.2468603373
C  -0.5948624647 -0.1793913184 -0.4369659060
C   0.5275949059  0.8248908719 -0.6849966290
C   1.8953105202  0.3440482448 -0.1630731680
O   2.8086553247  0.1661064245 -1.0509093396
C   2.0195211841  0.1650414987  1.1860447150
O   4.9007276932  1.8024373078 -0.4731020967
H  -2.1243579084 -0.7430301561  1.0354004977
H  -0.1752670076 -1.1771089368 -0.2836397284
H  -1.2560592886 -0.2754752004 -1.3066717426
H   0.2577459176  1.7893548055 -0.2493854624
H   0.6369529987  0.9554476813 -1.7575990655
H   1.2122510444  0.3289488593  1.8864083018
H   4.2331754856  1.0887136852 -0.6364346598
H   2.9861621725 -0.1221956743  1.5874555821
H   4.3815366117  2.5987280654 -0.5994529871
17
Image 23  Energy = -421.93505996
C  -1.4900011532  0.1298038068  0.7184713102
O  -1.6032203901  1.1938689578  1.2783200656
C  -0.5980962774 -0.1823237152 -0.4275357552
C   0.5225870811  0.8120008777 -0.7108299974
C   1.8929406217  0.3503832851 -0.1772516065
O   2.8307879706  0.2352202019 -1.0488091845
C   1.9875223051  0.1216380777  1.1673149815
O   4.9199379759  1.8449071338 -0.4298348181
H  -2.1273979579 -0.7190085458  1.0511208511
H  -0.1791994789 -1.1776049467 -0.2614260196
H  -1.2713260208 -0.2911250062 -1.2865541961
H   0.2584866246  1.7895684466 -0.3024234995
H   0.6282219432  0.9129976963 -1.7869967790
H   1.1562518591  0.2273718180  1.8497202637
H   4.2500351514  1.1346334568 -0.5992642388
H   2.9509668751 -0.1547077685  1.5830902228
H   4.4215027740  2.6423765385 -0.6171107833
17
Image 24  Energy = -421.93538091
C  -1.4739989391  0.1378088162  0.7352249785
O  -1.5746074878  1.2028934751  1.2950412457
C  -0.6038766824 -0.1811462592 -0.4253748013
C   0.5220066933  0.7988438747 -0.7287273904
C   1.8868059312  0.3532013315 -0.1682436605
O   2.8541666058  0.3053649432 -1.0120833435
C   1.9417627329  0.0667328062  1.1682764468
O   4.9554983024  1.8943617340 -0.4411138170
H  -2.1067686203 -0.7088601099  1.0801063280
H  -0.1919973749 -1.1798206531 -0.2631246288
H  -1.2914165305 -0.2839612224 -1.2733916783
H   0.2618885680  1.7910282836 -0.3549971902
H   0.6370784287  0.8666912905 -1.8066964994
H   1.0905105842  0.1259074840  1.8303208756
H   4.2735801503  1.1902473346 -0.5903951333
H   2.8982853906 -0.2054304273  1.6017363503
H   4.4710819998  2.6961372387 -0.6465583394
17
Image 25  Energy = -421.93603480
C  -1.4608355964  0.1487077236  0.7476101872
O  -1.5755370168  1.2206432354  1.2833211781
C  -0.6122177313 -0.1775143850 -0.4297779138
C   0.5256131873  0.7854378696 -0.7386880916
C   1.8774183827  0.3509135615 -0.1420685392
O   2.8748604888  0.3683897026 -0.9541583142
C   1.8935146722  0.0049287151  1.1806586272
O   4.9980180616  1.9472351157 -0.4911902701
H  -2.0587406741 -0.7074030217  1.1297613717
H  -0.2134484102 -1.1827754732 -0.2795413797
H  -1.3125369402 -0.2610263921 -1.2693638315
H   0.2697789579  1.7914607786 -0.4005849033
H   0.6594789487  0.8224640381 -1.8163007810
H   1.0255779236  0.0185383406  1.8208071600
H   4.3044915338  1.2483941225 -0.6031056580
H   2.8446490673 -0.2625739106  1.6292163226
H   4.5099151816  2.7541799650 -0.6665961181
17
Image 26  Energy = -421.93676116
C  -1.4453620858  0.1564645034  0.7562145046
O  -1.5680894861  1.2355678016  1.2775068069
C  -0.6194745526 -0.1716864498 -0.4359804891
C   0.5346293468  0.7717729465 -0.7443290493
C   1.8715357311  0.3456336292 -0.1134823018
O   2.8933948290  0.4151030697 -0.8829833503
C   1.8474437333 -0.0546852400  1.1994666421
O   5.0367631268  2.0108617569 -0.5649298686
H  -2.0173194345 -0.7025437885  1.1691103843
H  -0.2369780384 -1.1855596965 -0.3032123124
H  -1.3303594910 -0.2290250474 -1.2689800417
H   0.2842073190  1.7895550139 -0.4396486519
H   0.6901913859  0.7820505354 -1.8211850315
H   0.9584961893 -0.0724210732  1.8119914357
H   4.3527967675  1.3007371466 -0.6303570053
H   2.7854992387 -0.3279139898  1.6675589821
H   4.5126248430  2.8060892896 -0.6767614352
17
Image 27  Energy = -421.92457284
C  -1.4277569883  0.1732223764  0.7692840521
O  -1.5539956185  1.2609227361  1.2678509046
C  -0.6262318792 -0.1635109667 -0.4474566621
C   0.5497115758  0.7541954675 -0.7551671684
C   1.8722779168  0.3341677497 -0.0864947175
O   2.9138122678  0.4610761724 -0.8071796025
C   1.8070849012 -0.1250828702  1.2091475251
O   5.0516073224  2.0894196923 -0.6079845281
H  -1.9695417312 -0.6910398365  1.2179531115
H  -0.2688165062 -1.1890350274 -0.3341071024
H  -1.3501606657 -0.1852758252 -1.2721541594
H   0.3077828674  1.7846701885 -0.4844226690
H   0.7271092216  0.7338093043 -1.8282198284
H   0.9013403059 -0.1881567549  1.7951573312
H   4.3884195933  1.3590136529 -0.6370732183
H   2.7405500312 -0.3990202021  1.6884196494
H   4.4868074826  2.8606244401 -0.6875533423
17
Image 28  Energy = -421.92501459
C  -1.3966144859  0.1841566868  0.7818499937
O  -1.5588281561  1.2831586587  1.2433634937
C  -0.6351214227 -0.1528371928 -0.4628738467
C   0.5604684062  0.7409419820 -0.7684934343
C   1.8669516446  0.3234955762 -0.0706206936
O   2.9267858410  0.5046674246 -0.7502365996
C   1.7737979693 -0.1913787437  1.2026583713
O   5.0479822643  2.1495827432 -0.5917657409
H  -1.8695291404 -0.6874431768  1.2926281025
H  -0.3024342886 -1.1891981959 -0.3792216800
H  -1.3741327601 -0.1286224423 -1.2742928457
H   0.3293133571  1.7803474341 -0.5225878039
H   0.7564125119  0.6998994010 -1.8384781890
H   0.8544166998 -0.3098535810  1.7567049585
H   4.3931565560  1.4127530657 -0.5991562121
H   2.7021176714 -0.4582740648  1.6970756824
H   4.4752572852  2.9086050828 -0.7165545885
17
Image 29  Energy = -421.92513258
C  -1.3886155071  0.1803797305  0.7836565523
O  -1.5890271736  1.2797102179  1.2286114382
C  -0.6433029268 -0.1438720850 -0.4748015461
C   0.5620631759  0.7416427254 -0.7658933699
C   1.8590852525  0.3235729114 -0.0540615667
O   2.9283092062  0.5613765157 -0.7001567002
C   1.7529636812 -0.2494695442  1.1926392086
O   5.0605169842  2.1836199580 -0.5492729086
H  -1.8107639756 -0.6988924162  1.3236853945
H  -0.3235901120 -1.1856401755 -0.4156141722
H  -1.3867779249 -0.0858155754 -1.2798124984
H   0.3352487140  1.7826768422 -0.5225514258
H   0.7704229974  0.7016193365 -1.8338996647
H   0.8271780853 -0.4209615821  1.7194074697
H   4.3822437953  1.4683727084 -0.5354548093
H   2.6783719212 -0.5099934410  1.6959058277
H   4.5356745819  2.9416740609 -0.8123872304
17
Image 30  Energy = -421.92532605
C  -1.3931601790  0.1835166623  0.7853690378
O  -1.6397969250  1.2836178402  1.2046830662
C  -0.6531636565 -0.1376735736 -0.4778029209
C   0.5595996052  0.7412666972 -0.7594558271
C   1.8521714574  0.3266138363 -0.0398970176
O   2.9247416075  0.6213876662 -0.6559114710
C   1.7425092839 -0.3019470679  1.1790053839
O   5.0799874428  2.2080973076 -0.5181461919
H  -1.7658446911 -0.6980640668  1.3558697235
H  -0.3422424154 -1.1824936327 -0.4312127804
H  -1.3965306706 -0.0580872536 -1.2803511146
H   0.3357338240  1.7835767183 -0.5185566283
H   0.7751625382  0.7021730044 -1.8265592948
H   0.8139243402 -0.5297191847  1.6774987739
H   4.3722935348  1.5222490590 -0.4930136389
H   2.6665232602 -0.5556968789  1.6885519602
H   4.6180916293  2.9611829502 -0.8900715482
17
Image 31  Energy = -421.92572138
C  -1.3979261878  0.2015611512  0.7889481580
O  -1.7035814450  1.3043809391  1.1604839272
C  -0.6644155528 -0.1330454651 -0.4757713508
C   0.5582163306  0.7340313869 -0.7563175006
C   1.8469932555  0.3265991844 -0.0273777261
O   2.9199276196  0.6729274568 -0.6145058410
C   1.7381483647 -0.3501522852  1.1658719870
O   5.0968247466  2.2304099655 -0.5066161316
H  -1.7063538175 -0.6713074119  1.4086537230
H  -0.3638120972 -1.1808358545 -0.4320640444
H  -1.4069485695 -0.0369750155 -1.2765205216
H   0.3389272681  1.7797203540 -0.5252432333
H   0.7790638863  0.6874405331 -1.8229716265
H   0.8112623411 -0.6446319468  1.6327178675
H   4.3719179989  1.5637145541 -0.4732070784
H   2.6620748432 -0.5912589571  1.6822632124
H   4.6696810982  2.9774214956 -0.9283447065
17
Image 32  Energy = -421.93958794
C  -1.3961469974  0.2208066372  0.7919607792
O  -1.7798002431  1.3179478070  1.1097659630
C  -0.6790305718 -0.1259121726 -0.4727873911
C   0.5565346304  0.7238454554 -0.7526139669
C   1.8343708961  0.3234541865 -0.0110851229
O   2.9129970706  0.7285219031 -0.5602982806
C   1.7302085599 -0.4044148337  1.1492628326
O   5.1130468242  2.2544984107 -0.5025164769
H  -1.6161497152 -0.6269027422  1.4763868356
H  -0.3939098096 -1.1781584832 -0.4371638750
H  -1.4185310833 -0.0044705668 -1.2710545539
H   0.3458379139  1.7737302946 -0.5367273813
H   0.7862056037  0.6656365122 -1.8186557643
H   0.8091130186 -0.7632079384  1.5772157067
H   4.3755155946  1.6072562224 -0.4527132876
H   2.6504646045 -0.6376030131  1.6754642082
H   4.7192749297  2.9949731078 -0.9644411454
17
Image 33  Energy = -421.92264685
C  -1.3692359815  0.2382898466  0.8103225065
O  -1.8048921378  1.3267183884  1.0891318244
C  -0.6876789165 -0.1184163068 -0.4806328996
C   0.5623810438  0.7143873714 -0.7631859804
C   1.8274074484  0.3327686646  0.0185099549
O   2.9052633886  0.8017689998 -0.4658397837
C   1.6963104431 -0.4487171584  1.1404822926
O   5.1286872071  2.2620677003 -0.5293739839
H  -1.4955638588 -0.5834832997  1.5493345180
H  -0.4185053793 -1.1759641180 -0.4566456019
H  -1.4369033148  0.0318697797 -1.2648950543
H   0.3510942954  1.7713914216 -0.5775536014
H   0.8109799797  0.6299456076 -1.8234130017
H   0.7757378581 -0.8830824878  1.5015472175
H   4.3652247906  1.6456239469 -0.4445910597
H   2.5980293370 -0.6763546693  1.6992055250
H   4.7416646808  3.0011869272 -1.0024034747
17
Image 34  Energy = -421.92377215
C  -1.3504971309  0.2555960815  0.8226960514
O  -1.8751457881  1.3191974896  1.0464651796
C  -0.6998733876 -0.1114037076 -0.4845731062
C   0.5619594287  0.7079701869 -0.7657126093
C   1.8119319665  0.3343316450  0.0414319595
O   2.8901482669  0.8488415408 -0.3924028494
C   1.6714345786 -0.4866506106  1.1339916752
O   5.1430784594  2.2626800479 -0.5513470560
H  -1.3485416281 -0.5143764973  1.6179757178
H  -0.4427086247 -1.1724366992 -0.4693985729
H  -1.4504116222  0.0633398738 -1.2606414179
H   0.3546563001  1.7685857667 -0.5943673137
H   0.8228329427  0.6122750936 -1.8231191713
H   0.7646173552 -0.9957339404  1.4256349163
H   4.3665704209  1.6679243014 -0.4405906695
H   2.5603749380 -0.6982199544  1.7195412607
H   4.7695748438  3.0080797627 -1.0255840839
17
Image 35  Energy = -421.92421120
C  -1.3287378624  0.2650693267  0.8350694209
O  -1.8652156577  1.3229763014  1.0596399012
C  -0.7064885719 -0.1031954399 -0.4868831972
C   0.5640677813  0.7012691567 -0.7752077724
C   1.7969798487  0.3503577423  0.0660338785
O   2.8681861754  0.9193170675 -0.3094990511
C   1.6498029314 -0.5095530271  1.1282870931
O   5.1566291201  2.2479225880 -0.5829271898
H  -1.2903758179 -0.4932908942  1.6394593246
H  -0.4645432678 -1.1680847991 -0.4840081490
H  -1.4649314672  0.0940023570 -1.2491865292
H   0.3580041138  1.7666819981 -0.6366975176
H   0.8415002821  0.5756803793 -1.8262093020
H   0.7629226493 -1.0861205045  1.3479509838
H   4.3667830888  1.6806928631 -0.4312339495
H   2.5215712006 -0.6969401696  1.7471719449
H   4.7838465217  3.0032154013 -1.0417599265
17
Image 36  Energy = -421.92456465
C  -1.3064729369  0.2731633922  0.8473098509
O  -1.8477529355  1.3277177366  1.0778342207
C  -0.7116599232 -0.0948278979 -0.4886372092
C   0.5671229587  0.6946917609 -0.7852468483
C   1.7820734071  0.3674825220  0.0900219555
O   2.8425456143  0.9896856957 -0.2232959781
C   1.6299638425 -0.5303012323  1.1204777555
O   5.1657188499  2.2295802672 -0.6150581223
H  -1.2403561284 -0.4786187665  1.6547986491
H  -0.4859281775 -1.1632449176 -0.4987168505
H  -1.4778956310  0.1244408141 -1.2362231781
H   0.3623781580  1.7638548535 -0.6807586897
H   0.8609509076  0.5380871587 -1.8285048726
H   0.7678709615 -1.1643045046  1.2693509735
H   4.3650866625  1.6913220875 -0.4210800556
H   2.4801007608 -0.6954052429  1.7745628740
H   4.7962543116  2.9966766804 -1.0568345747
17
Image 37  Energy = -421.92435007
C  -1.2672707277  0.2720352807  0.8596013348
O  -1.7636857893  1.3409429817  1.1212925906
C  -0.7125986418 -0.0884790190 -0.4965962262
C   0.5707223866  0.6895379325 -0.8031198137
C   1.7630588832  0.3880788144  0.1099591222
O   2.8129935537  1.0511515940 -0.1475396749
C   1.6022786876 -0.5322627519  1.1200693438
O   5.1585688321  2.2053926998 -0.6378215878
H  -1.2107679928 -0.4971676041  1.6501922946
H  -0.5031478816 -1.1597487234 -0.5250928530
H  -1.4921054192  0.1541301124 -1.2225592274
H   0.3664512968  1.7611227437 -0.7323130408
H   0.8824884441  0.5016274294 -1.8365450235
H   0.7672952733 -1.2118515968  1.2122360433
H   4.3499755093  1.6929115086 -0.4093636878
H   2.4330452817 -0.6799573823  1.8025315500
H   4.7926985149  2.9825364585 -1.0649310820
17
Image 38  Energy = -421.92403507
C  -1.2274034146  0.2697367155  0.8716771940
O  -1.6776626969  1.3509129676  1.1639238658
C  -0.7123814351 -0.0814649992 -0.5035634522
C   0.5750401350  0.6851530688 -0.8207569507
C   1.7444196406  0.4081442793  0.1276982833
O   2.7834530384  1.1061137783 -0.0763412267
C   1.5743973072 -0.5318732058  1.1189261764
O   5.1481543832  2.1813674358 -0.6581253470
H  -1.1842597686 -0.5168279909  1.6446482838
H  -0.5205066535 -1.1550607526 -0.5505774462
H  -1.5046579597  0.1836575833 -1.2069424002
H   0.3720281186  1.7582113463 -0.7830610385
H   0.9036444216  0.4664328185 -1.8432815889
H   0.7702638701 -1.2527471697  1.1558158411
H   4.3339300072  1.6936992469 -0.3972470304
H   2.3835543548 -0.6635279893  1.8297993373
H   4.7879865006  2.9680732701 -1.0725923030
17
Image 39  Energy = -421.92335099
C  -1.1857755834  0.2620979157  0.8849575393
O  -1.5797295244  1.3552969256  1.2117273132
C  -0.7100112572 -0.0747048293 -0.5091779023
C   0.5788160936  0.6821027844 -0.8405981227
C   1.7305004788  0.4198217156  0.1317424592
O   2.7687597957  1.1256468808 -0.0436235739
C   1.5427790127 -0.5192621110  1.1224509241
O   5.1368267857  2.1714885406 -0.6596690747
H  -1.1749984996 -0.5477519634  1.6337712870
H  -0.5343567664 -1.1498290460 -0.5761897122
H  -1.5174594358  0.2107954580 -1.1863247553
H   0.3797790802  1.7562836078 -0.8259624635
H   0.9167486426  0.4404018518 -1.8550745324
H   0.7716613353 -1.2764104041  1.1133738641
H   4.3229672114  1.6908849709 -0.3842871731
H   2.3298599338 -0.6316591325  1.8607297826
H   4.7736324753  2.9547971331 -1.0778455634
17
Image 40  Energy = -421.92216138
C  -1.1320584081  0.2517049207  0.9013919799
O  -1.4657450327  1.3558810398  1.2607276961
C  -0.7046711797 -0.0684902742 -0.5144363059
C   0.5820281208  0.6796147906 -0.8637575810
C   1.7134409222  0.4330155130  0.1332917184
O   2.7528653073  1.1406901523 -0.0122599389
C   1.4997360807 -0.4987621075  1.1291387926
O   5.1247574291  2.1627005920 -0.6585709736
H  -1.1731270643 -0.5814332901  1.6219365916
H  -0.5469025629 -1.1444066273 -0.6030087295
H  -1.5308866605  0.2370299292 -1.1589318910
H   0.3867369446  1.7543704716 -0.8718745090
H   0.9300600521  0.4147306156 -1.8688899802
H   0.7766875609 -1.2999436861  1.0671192795
H   4.3124550488  1.6871473707 -0.3697169109
H   2.2672778699 -0.5945725107  1.8905868732
H   4.7573454112  2.9407235237 -1.0827458685
17
Image 41  Energy = -421.91971874
C  -1.0367975835  0.2324214866  0.9310762814
O  -1.3104459864  1.3501745700  1.3171172866
C  -0.6884826168 -0.0671788215 -0.5178855770
C   0.5833801863  0.6785112990 -0.8988101476
C   1.6872531928  0.4472185693  0.1233388745
O   2.7376538945  1.1330467909  0.0084733174
C   1.4094664525 -0.4497342909  1.1466184027
O   5.1141274324  2.1608674822 -0.6473224942
H  -1.1928745136 -0.6243554233  1.6077073242
H  -0.5472949542 -1.1422572666 -0.6324471369
H  -1.5453313282  0.2543800208 -1.1129196518
H   0.3873925552  1.7523896612 -0.9207265962
H   0.9410069985  0.3964862049 -1.8943497863
H   0.7945533979 -1.3264660691  1.0096040330
H   4.3072179489  1.6803073904 -0.3516046987
H   2.1732762261 -0.5319283280  1.9171402428
H   4.7358989538  2.9261173097 -1.0850095435
17
Image 42  Energy = -421.91787819
C  -0.9207687289  0.2126479388  0.9665781251
O  -1.2019705542  1.3414550990  1.3504039500
C  -0.6675343056 -0.0698102994 -0.5149760375
C   0.5844894787  0.6801372092 -0.9323608356
C   1.6626090763  0.4538805213  0.1036470287
O   2.7244957556  1.1101524529  0.0337642257
C   1.3155275789 -0.4195952573  1.1434977991
O   5.1064408132  2.1597341158 -0.6392948870
H  -1.1954731423 -0.6467263062  1.6036152747
H  -0.5359544771 -1.1429209869 -0.6554633548
H  -1.5517546812  0.2651833138 -1.0616783270
H   0.3809129105  1.7514607373 -0.9489909508
H   0.9452461677  0.3946161700 -1.9225149790
H   0.8226713208 -1.3578291255  0.9571028101
H   4.3074849250  1.6730040917 -0.3378606274
H   2.0540518629 -0.4509083797  1.9400606901
H   4.7195263430  2.9155191880 -1.0855297160
17
Image 43  Energy = -421.91743210
C  -0.8256978107  0.1997010174  0.9833846639
O  -1.0941869370  1.3476353193  1.3563039436
C  -0.6568479843 -0.0799633433 -0.5171587784
C   0.5794487213  0.6822640381 -0.9550607654
C   1.6485315290  0.4582715429  0.0882281878
O   2.7178995260  1.0934556467  0.0494599828
C   1.2645637274 -0.4049289605  1.1360356057
O   5.0822205193  2.1472761654 -0.6173115078
H  -1.1675363052 -0.6534895555  1.5982772332
H  -0.5293804622 -1.1497900331 -0.6840743886
H  -1.5604071554  0.2705144879 -1.0194043711
H   0.3627899732  1.7507989776 -0.9588327940
H   0.9413247829  0.4103840085 -1.9476031258
H   0.8475079330 -1.3746677793  0.9212915075
H   4.2859175139  1.6575669873 -0.3143789151
H   1.9662457540 -0.3739942388  1.9608589089
H   4.6876066525  2.8889659990 -1.0800152318
17
Image 44  Energy = -421.91541576
C  -0.7148503151  0.1841693387  1.0064340522
O  -1.0033317860  1.3624220980  1.3551581485
C  -0.6457961055 -0.0890575339 -0.5171091107
C   0.5738005070  0.6867355079 -0.9739899350
C   1.6330599487  0.4699818202  0.0737458829
O   2.7169674624  1.0561356805  0.0350550226
C   1.1880854448 -0.3593436215  1.1492134580
O   5.0456072869  2.1316184715 -0.5821548376
H  -1.1463490148 -0.6639880451  1.5847707105
H  -0.5242589308 -1.1561605048 -0.7113919654
H  -1.5598523357  0.2687000349 -0.9956492624
H   0.3489605456  1.7541837261 -0.9541065379
H   0.9413720607  0.4349206543 -1.9689745461
H   0.8995094999 -1.3751386420  0.9011261226
H   4.2506506773  1.6324088545 -0.2906213073
H   1.9076204026 -0.3181752237  1.9587892058
H   4.6388047572  2.8505879361 -1.0702948138
17
Image 45  Energy = -421.91985134
C  -0.6162742209  0.1595496150  1.0266945703
O  -0.9247048147  1.3575119516  1.3736840306
C  -0.6382468417 -0.0936920724 -0.5170445931
C   0.5742563680  0.6897576816 -0.9918686067
C   1.6252374120  0.4858388162  0.0673268843
O   2.7275216405  1.0237709345  0.0444023251
C   1.1091776015 -0.3237114205  1.1523803324
O   5.0223962347  2.1175173817 -0.5767341555
H  -1.1224054225 -0.6807772351  1.5693913706
H  -0.5297623044 -1.1603209503 -0.7347761892
H  -1.5646698570  0.2752031085 -0.9592230885
H   0.3392111324  1.7558490986 -0.9723868013
H   0.9475471411  0.4345212156 -1.9830402938
H   0.9566716189 -1.3653611255  0.8610944756
H   4.2176941388  1.6259457811 -0.2898348483
H   1.7946404548 -0.2753187956  1.9971035734
H   4.6317098059  2.8437165573 -1.0671689268
17
Image 46  Energy = -421.92544196
C  -0.5419828272  0.1248918058  1.0351147218
O  -0.8420825349  1.3436552326  1.3961085121
C  -0.6342908681 -0.0926439208 -0.5170805485
C   0.5727513922  0.6986579322 -1.0066580274
C   1.6202893127  0.4941936642  0.0560883107
O   2.7419627041  0.9758021403  0.0453193632
C   1.0505601177 -0.3105008190  1.1456791438
O   5.0089006692  2.1110737401 -0.5754709412
H  -1.0920775673 -0.6986687301  1.5565393396
H  -0.5360070755 -1.1552401782 -0.7623781405
H  -1.5742318776  0.2841248732 -0.9222648508
H   0.3286150346  1.7617445657 -0.9886551109
H   0.9480079564  0.4426636337 -1.9973481254
H   1.0270289910 -1.3645776732  0.8451921816
H   4.2013777909  1.6194208552 -0.2941857536
H   1.6448007141 -0.2062137186  2.0500640664
H   4.6263779109  2.8416172028 -1.0660640093
17
Image 47  Energy = -421.92828262
C  -0.5141488448  0.0910169073  1.0272661301
O  -0.7842758941  1.3193888104  1.4159622456
C  -0.6352150001 -0.0844553495 -0.5259990160
C   0.5709698199  0.7133632987 -1.0107055554
C   1.6214607669  0.4834429533  0.0470892935
O   2.7667899697  0.8971590911  0.0123592188
C   1.0270424013 -0.3057876784  1.1489802523
O   4.9963323559  2.1124473544 -0.5731824822
H  -1.0879724096 -0.7269944871  1.5308490608
H  -0.5491291730 -1.1399305778 -0.8076973940
H  -1.5812877003  0.3112827186 -0.8963760477
H   0.3269798564  1.7758668904 -0.9829176891
H   0.9451334111  0.4657676156 -2.0045224989
H   1.1257135645 -1.3714511690  0.8978058837
H   4.1946870920  1.6014196030 -0.3091619770
H   1.5160124342 -0.1115923967  2.0974884983
H   4.6109073695  2.8390564991 -1.0672374688
17
Image 48  Energy = -421.92891389
C  -0.5262129773  0.0758343755  1.0200077342
O  -0.8358581074  1.2906191025  1.4266613462
C  -0.6330369016 -0.0797972310 -0.5347022126
C   0.5685004427  0.7313699603 -1.0025814766
C   1.6333284519  0.4564422256  0.0315268649
O   2.8050218889  0.7855631130 -0.0518217685
C   1.0171816013 -0.2830343737  1.1636741395
O   5.0163816203  2.1299089480 -0.5791162120
H  -1.0914343206 -0.7646958310  1.4985965984
H  -0.5409308401 -1.1304740239 -0.8337328494
H  -1.5798107760  0.3163224078 -0.9013736867
H   0.3235907313  1.7927447115 -0.9226029280
H   0.9275582616  0.5235125295 -2.0104667403
H   1.1545589990 -1.3589247005  0.9783286810
H   4.2456013114  1.5705356808 -0.3338957121
H   1.4747814582 -0.0268756893  2.1146664992
H   4.5907791711  2.8409488952 -1.0631678467
17
Image 49  Energy = -421.93114431
C  -0.5487565885  0.0628755165  1.0180817583
O  -0.9101773142  1.2580396643  1.4275983231
C  -0.6365898848 -0.0761363934 -0.5392853280
C   0.5612246491  0.7463445088 -0.9864830708
C   1.6379722666  0.4291914823  0.0156519904
O   2.8280931745  0.6783778591 -0.1102291206
C   1.0007376820 -0.2644045961  1.1863927702
O   5.0564416496  2.1587852191 -0.5922929764
H  -1.1157345078 -0.7887405889  1.4685995356
H  -0.5281830956 -1.1207393872 -0.8491801772
H  -1.5817203391  0.3103280263 -0.9236131613
H   0.3221766544  1.8050320546 -0.8572806621
H   0.9065413888  0.5830178543 -2.0076551186
H   1.1751599383 -1.3391528649  1.0585422167
H   4.3296506604  1.5477729373 -0.3598655303
H   1.4772147232  0.0339930502  2.1096058105
H   4.5759488486  2.8454159736 -1.0585870090
