17
Image 0  Energy = -421.91838397
C  -0.6595928965 -0.1328144494  1.0020841042
O  -1.2554392811  0.8576815175  1.6328529202
C  -0.6457212409  0.0696236045 -0.5645239142
C   0.6284679382  0.8328065976 -0.8589228541
C   1.6186027542  0.4178635324  0.1935564838
O   2.8124599604  0.6326002243  0.1385639444
C   0.8896677724 -0.3197162863  1.2805729491
O   5.1011051238  2.2378491867 -0.6698450525
H  -1.1553116251 -1.1261683729  1.1360700936
H  -0.6535820151 -0.9010116477 -1.0666106533
H  -1.5309635063  0.6261568075 -0.8739845269
H   0.4838422244  1.9057556369 -0.7278565411
H   1.0563213522  0.6601157287 -1.8463179830
H   1.2194881030 -1.3627905447  1.2413995747
H   4.5012188319  1.5244552625 -0.9170800211
H   1.2325437550  0.0528284374  2.2429127150
H   4.9068928800  2.8947649231 -1.3428714007
17
Image 1  Energy = -421.91769678
C  -0.6720831272 -0.1602522022  0.9944675319
O  -1.2395947432  0.8118941902  1.6728400021
C  -0.6581651488  0.0877414666 -0.5637673116
C   0.6337433687  0.8324752496 -0.8523662254
C   1.6099768747  0.4463197946  0.2369913681
O   2.7929346441  0.7152218319  0.2210835354
C   0.8802306432 -0.3344658885  1.2918730431
O   5.1293830555  2.2651029778 -0.7302116971
H  -1.1356783447 -1.1746656885  1.1239301849
H  -0.6929688154 -0.8585880309 -1.1100795681
H  -1.5394463113  0.6712254279 -0.8321708162
H   0.4983879678  1.9116386447 -0.7878250907
H   1.0790027679  0.6144519560 -1.8255387352
H   1.2022841904 -1.3824255439  1.2169411673
H   4.5833195547  1.5046163762 -0.9255480741
H   1.1425102256  0.0200170198  2.2850363442
H   4.9361632814  2.8996925220 -1.4156556817
17
Image 2  Energy = -421.90788718
C  -0.7069365362 -0.1703610186  0.9955145068
O  -1.2666389979  0.7769412593  1.7032094669
C  -0.6741132922  0.0948784741 -0.5679012060
C   0.6295904925  0.8237106273 -0.8367523356
C   1.5993529082  0.4559973458  0.2584271518
O   2.7824447964  0.7522388080  0.2462980694
C   0.8881447293 -0.3294562609  1.3133999826
O   5.0033725718  2.2781765415 -0.6922669140
H  -1.1965273672 -1.1826051249  1.0874399468
H  -0.7178515707 -0.8490884720 -1.1198400748
H  -1.5327934540  0.6932852125 -0.8842664021
H   0.5001432206  1.9045303486 -0.7926037670
H   1.0809697277  0.5787216490 -1.7981800376
H   1.2264776439 -1.3681241305  1.2450013339
H   4.7141841806  1.4447681912 -1.0678483829
H   1.2314949738  0.0285093546  2.2917709223
H   4.9886858884  2.9378772006 -1.3814022845
17
Image 3  Energy = -421.88830856
C  -0.7698868613 -0.1852735039  0.9745364496
O  -1.2584751773  0.7371921709  1.7404169399
C  -0.7025067853  0.0992766700 -0.5852851475
C   0.6217648332  0.8136854974 -0.8119168583
C   1.6026484520  0.4699008696  0.2835479428
O   2.7844316101  0.7863145998  0.2571696458
C   0.8980187372 -0.3105647581  1.3457379138
O   4.9008665357  2.2636729800 -0.7299412320
H  -1.2914689147 -1.1935018864  1.0608417634
H  -0.7452708179 -0.8385459481 -1.1494330841
H  -1.5294452750  0.7135317573 -0.9714580338
H   0.4950851102  1.8942423315 -0.7822252237
H   1.0776322328  0.5431322958 -1.7588367065
H   1.2679581925 -1.3435357702  1.2721630108
H   4.8082658525  1.3912770465 -1.1157847922
H   1.3627571170  0.0381682143  2.3074534760
H   5.0276251446  2.9910274556 -1.3369861681
17
Image 4  Energy = -421.81720765
C  -0.8339269239 -0.2104484450  0.8968942657
O  -1.1804453561  0.6894132964  1.7687737386
C  -0.7426522576  0.1077990493 -0.6147265837
C   0.6104279794  0.7961223065 -0.7740531842
C   1.6637018793  0.4972807078  0.2895763539
O   2.8244624899  0.8157077496  0.2543764928
C   0.8009465345 -0.2612074322  1.3601569345
O   4.8661516776  2.2605014252 -0.8276938369
H  -1.3584181862 -1.2170443547  1.0669756144
H  -0.7584088281 -0.8386240763 -1.1655759166
H  -1.5412949675  0.7317977066 -1.0296910325
H   0.4889010040  1.8845287205 -0.7756869336
H   1.0680996860  0.5247673950 -1.7312904184
H   1.2856009968 -1.3353328598  1.2885594473
H   4.8386913148  1.2960794822 -1.0906315517
H   1.4771144220  0.0522902834  2.3631405844
H   5.0410485352  3.0763690455 -1.2791039741
