17
Image 0  Energy = -421.92162252
C  -1.9925660824  0.5062452113  0.0426305800
O  -2.0726672953  1.7114808717  0.0973351895
C  -0.7374334176 -0.2933851588 -0.0505258173
C   0.5489752077  0.5010816140 -0.0512406350
C   1.7926432162 -0.3702293404 -0.0100261478
O   1.6803670795 -1.5908806288 -0.1092675617
C   3.0724902578  0.3406160617  0.1474588744
O   4.3758034180  2.6430569077 -0.3558719394
H  -2.9218791148 -0.0954002775  0.0662108932
H  -0.7532376573 -0.9966462985  0.7855974006
H  -0.8223413578 -0.9148633247 -0.9449400724
H   0.5709466967  1.1883441950  0.7934354668
H   0.6191937763  1.1136562532 -0.9491442349
H   3.0655962707  0.9577250613  1.0428760852
H   3.3329874397  1.1125037041 -0.6042912207
H   3.9047866920 -0.3483703350  0.2063260192
H   4.8863349697  3.4050545707 -0.1065639213
17
Image 1  Energy = -421.91205291
C  -1.9782985508  0.5323829562  0.0155227746
O  -2.0544110460  1.7315706273  0.0451265285
C  -0.7233404906 -0.2846227587 -0.0287894281
C   0.5689287210  0.5050416379 -0.0306187109
C   1.8070693715 -0.3783758971 -0.0224956884
O   1.6647996305 -1.5944176729 -0.1659161222
C   3.0964549948  0.3054843975  0.1597384207
O   4.2508207483  2.6887824124 -0.4406205987
H  -2.9117840698 -0.0682356357  0.0231396377
H  -0.7747556413 -0.9641766675  0.8280564601
H  -0.7985234429 -0.9282027682 -0.9087289973
H   0.6061827206  1.1730715689  0.8294567253
H   0.6348778301  1.1364270893 -0.9175913919
H   3.0979222194  0.9021534231  1.0696190365
H   3.3473339687  1.1112351746 -0.5641368174
H   3.9294105212 -0.3860875361  0.1805839962
H   4.7873120801  3.3879776155 -0.0723446150
17
Image 2  Energy = -421.88823910
C  -1.9755933797  0.5257228715  0.0117871981
O  -2.0577531109  1.7272977801  0.0452625611
C  -0.7147195182 -0.2803589053 -0.0354007990
C   0.5696303327  0.5256625475 -0.0324860566
C   1.8108588402 -0.3621586895 -0.0263975733
O   1.6564583156 -1.5705030557 -0.1568223857
C   3.1026505876  0.3047024222  0.1712768299
O   4.2211146458  2.6746965856 -0.5545694228
H  -2.9087470831 -0.0772700805  0.0198165538
H  -0.7508176921 -0.9647652135  0.8178918953
H  -0.7745273087 -0.9278191354 -0.9137146656
H   0.5985505819  1.1891167820  0.8317763364
H   0.6315412765  1.1652908663 -0.9131397687
H   3.0892594034  0.8395322717  1.1163575233
H   3.3939084856  1.1814861599 -0.4916224397
H   3.9208054193 -0.4015070950  0.1784755312
H   4.7373791896  3.3208842820 -0.0684901243
17
Image 3  Energy = -421.89100545
C  -1.9734440093  0.5218509670  0.0124235881
O  -2.0563443874  1.7249645423  0.0499377457
C  -0.7116539667 -0.2790856890 -0.0397852921
C   0.5687580806  0.5331093883 -0.0337968692
C   1.8137316085 -0.3532356570 -0.0282924420
O   1.6529052531 -1.5617131763 -0.1706408227
C   3.1095022639  0.3045031648  0.1905471877
O   4.1933679007  2.6680261838 -0.6464029841
H  -2.9065674908 -0.0810844480  0.0207771900
H  -0.7396564738 -0.9689400281  0.8095624554
H  -0.7661754789 -0.9252681162 -0.9197970776
H   0.5924744859  1.1949908344  0.8310499247
H   0.6244325052  1.1770619308 -0.9111105148
H   3.0710245359  0.8154094583  1.1490256826
H   3.4608464305  1.2714026841 -0.4428396551
H   3.9147028960 -0.4191782710  0.1976420638
H   4.7020947341  3.2471975311 -0.0682990711
17
Image 4  Energy = -421.89406676
C  -1.9719536620  0.5207023058  0.0130601921
O  -2.0551655166  1.7236424279  0.0522819897
C  -0.7111278293 -0.2783841511 -0.0410993229
C   0.5690660481  0.5347740025 -0.0326073826
C   1.8153857424 -0.3511599076 -0.0264195810
O   1.6556793818 -1.5611436019 -0.1811046106
C   3.1090707784  0.3029199046  0.1989177146
O   4.1723854450  2.6432668672 -0.6877493958
H  -2.9057049884 -0.0822419374  0.0214444090
H  -0.7354242772 -0.9713798095  0.8063767646
H  -0.7633688285 -0.9241854490 -0.9221284176
H   0.5884155244  1.1974597340  0.8312626447
H   0.6190054716  1.1794718966 -0.9096553181
H   3.0598636437  0.8177482284  1.1539904820
H   3.5213671617  1.3575505968 -0.4135514017
H   3.9080530189 -0.4287229492  0.2038035206
H   4.6744518574  3.1896936532 -0.0668211700
17
Image 5  Energy = -421.89836553
C  -1.9704544562  0.5191592168  0.0139138468
O  -2.0554738127  1.7233005620  0.0546699288
C  -0.7096594535 -0.2772234157 -0.0419367576
C   0.5715780009  0.5365904955 -0.0314450641
C   1.8213882274 -0.3453130725 -0.0274628089
O   1.6631957490 -1.5562737660 -0.1961038240
C   3.1111464672  0.3097083903  0.2098394310
O   4.1521602373  2.6187092389 -0.7247997648
H  -2.9044268108 -0.0834344765  0.0221157148
H  -0.7320463029 -0.9734089749  0.8035153777
H  -0.7609890180 -0.9222379375 -0.9241145518
H   0.5846823089  1.1994186974  0.8322745605
H   0.6146386965  1.1819343774 -0.9085025448
H   3.0496716625  0.8282643613  1.1600051333
H   3.5665105702  1.4182652535 -0.3847209085
H   3.9049819872 -0.4318484799  0.2071778727
H   4.6430948905  3.1244013000 -0.0644246262
17
Image 6  Energy = -421.90245265
C  -1.9686557973  0.5175938403  0.0148926213
O  -2.0587053266  1.7225354309  0.0569624594
C  -0.7065784438 -0.2740920820 -0.0419741051
C   0.5757921871  0.5398666765 -0.0285266374
C   1.8288464517 -0.3399858104 -0.0285514578
O   1.6718985359 -1.5518299304 -0.2231769963
C   3.1104876642  0.3139132664  0.2320005126
O   4.1264655028  2.5803504710 -0.7531241362
H  -2.9024086965 -0.0859981856  0.0222965441
H  -0.7282565129 -0.9751509793  0.8007028994
H  -0.7571005632 -0.9184746524 -0.9257715121
H   0.5815373419  1.2019490155  0.8353759722
H   0.6124469292  1.1851236579 -0.9062981390
H   3.0366147360  0.8471318166  1.1737542175
H   3.6108030857  1.4833503719 -0.3768262720
H   3.9066940179 -0.4309924219  0.2141071594
H   4.6101179456  3.0547213016 -0.0658423833
17
Image 7  Energy = -421.90849576
C  -1.9675230470  0.5171795220  0.0155729543
O  -2.0637075947  1.7210398815  0.0581564157
C  -0.7035319446 -0.2704032423 -0.0407220526
C   0.5790652988  0.5420898301 -0.0226195742
C   1.8321478074 -0.3466077684 -0.0236895602
O   1.6737300709 -1.5545017294 -0.2598206564
C   3.1038407960  0.3090330000  0.2572654322
O   4.1011083572  2.5275833791 -0.7629733877
H  -2.9006786277 -0.0895580227  0.0215362178
H  -0.7244632722 -0.9757039905  0.7995186345
H  -0.7528466736 -0.9140817086 -0.9258137666
H   0.5791474503  1.2041461080  0.8404501171
H   0.6139160941  1.1859906548 -0.9025762290
H   3.0250411782  0.8803522859  1.1781647511
H   3.6648370682  1.5664893332 -0.3872589796
H   3.9082130839 -0.4291009009  0.2247915805
H   4.5817038656  2.9960647578 -0.0699813628
17
Image 8  Energy = -421.91570530
C  -1.9689785034  0.5127561904  0.0255694745
O  -2.0742530951  1.7169286858  0.0792134514
C  -0.7035933992 -0.2682380911 -0.0440588125
C   0.5823712300  0.5372371123 -0.0189287687
C   1.8243250764 -0.3733980691 -0.0077385518
O   1.6521284814 -1.5698875643 -0.3173549210
C   3.0588859617  0.2508879180  0.3160951827
O   4.0996407396  2.5425327488 -0.7915090184
H  -2.8988350051 -0.0984565359  0.0301629296
H  -0.7122212380 -0.9853203630  0.7854903044
H  -0.7514967229 -0.9008430171 -0.9360607961
H   0.5843827951  1.2041961471  0.8401987490
H   0.6269859495  1.1734920364 -0.9043567768
H   3.0100792536  0.9479670135  1.1476547157
H   3.7298134146  1.6811363765 -0.4248289188
H   3.8995050368 -0.4405667404  0.2903879167
H   4.5912588275  2.9395846507 -0.0699362031
17
Image 9  Energy = -421.91836222
C  -1.9801665680  0.5010932827  0.0422483248
O  -2.0994200911  1.7028217477  0.1083609083
C  -0.7099743541 -0.2694741735 -0.0455140693
C   0.5742340761  0.5341644913 -0.0203787906
C   1.8107129803 -0.3870867296 -0.0078766877
O   1.6305493028 -1.5643308197 -0.3917803343
C   3.0170827302  0.2099972217  0.3939940428
O   4.1698986387  2.5538145426 -0.8226321543
H  -2.9024959879 -0.1208305898  0.0479919711
H  -0.7073250703 -1.0000359915  0.7713265621
H  -0.7522203948 -0.8873495547 -0.9463084238
H   0.5860206998  1.2062900539  0.8345578962
H   0.6264521834  1.1592738774 -0.9118127817
H   2.9730874144  1.0311753719  1.1032061849
H   3.7933802452  1.7089019988 -0.4801080727
H   3.8946246240 -0.4336899412  0.3904302630
H   4.6255588361  2.9252673371 -0.0657060100
17
Image 10  Energy = -421.92508327
C  -1.9824447353  0.4849785332  0.0714252402
O  -2.1151388013  1.6823552335  0.1742850537
C  -0.7100752523 -0.2695406793 -0.0602660486
C   0.5674188300  0.5415340505 -0.0428358450
C   1.8068331397 -0.3753559969 -0.0143879131
O   1.6432721356 -1.5309591173 -0.4611770676
C   2.9830276693  0.2080522124  0.4799115208
O   4.2637926560  2.4996146274 -0.8624291226
H  -2.8985895519 -0.1472227305  0.0758156867
H  -0.6822318570 -1.0178827417  0.7392097605
H  -0.7597475859 -0.8690460863 -0.9718401856
H   0.5753181285  1.2238736842  0.8037722970
H   0.6213595715  1.1532766259 -0.9424855716
H   2.9175894053  1.1096915436  1.0779410955
H   3.8446534619  1.6773220849 -0.5270158586
H   3.8747231042 -0.4104611724  0.5246354349
H   4.6002371400  2.9097667755 -0.0645606023
17
Image 11  Energy = -421.92478942
C  -1.9902852560  0.4691149659  0.1038489930
O  -2.1316426732  1.6610228579  0.2421036619
C  -0.7157842924 -0.2703434321 -0.0818929412
C   0.5568112037  0.5502865343 -0.0753067866
C   1.8016072976 -0.3590894207 -0.0239855692
O   1.6569538646 -1.5071352745 -0.4898260898
C   2.9568465280  0.2265928623  0.5165471362
O   4.4035135865  2.4158804262 -0.8666451638
H  -2.9003087780 -0.1719531562  0.1169597766
H  -0.6598090107 -1.0370903986  0.6991739143
H  -0.7884410340 -0.8499498173 -1.0055621070
H   0.5559260842  1.2463564024  0.7601026349
H   0.6137494641  1.1469167277 -0.9846916124
H   2.8721377814  1.1531692243  1.0728174724
H   3.9284964496  1.6321103635 -0.5133504241
H   3.8434902090 -0.3868635172  0.6144178219
H   4.5467337546  2.9509755393 -0.0847098941
17
Image 12  Energy = -421.92470927
C  -2.0016517658  0.4567189934  0.1183950824
O  -2.1472508754  1.6476856545  0.2658988157
C  -0.7252140183 -0.2744682938 -0.0858463790
C   0.5423093758  0.5551376430 -0.0971353609
C   1.7946310819 -0.3427663936 -0.0340228886
O   1.6590191741 -1.5005460627 -0.4822792375
C   2.9444097156  0.2588615336  0.4984844846
O   4.5726567276  2.3326449628 -0.8024511750
H  -2.9078914344 -0.1888752565  0.1383310954
H  -0.6535105049 -1.0378223111  0.6974462512
H  -0.8101240443 -0.8580282295 -1.0061367716
H   0.5392872003  1.2621674448  0.7286911308
H   0.5957867355  1.1399321916 -1.0145051174
H   2.8431370746  1.1830200362  1.0574713544
H   4.0229253542  1.5858498791 -0.4753960997
H   3.8310709630 -0.3530006512  0.6221994529
H   4.4504099252  3.0034871489 -0.1291431565
17
Image 13  Energy = -421.92444029
C  -2.0012190278  0.4383382125  0.1573714677
O  -2.1550770603  1.6218463637  0.3483574725
C  -0.7250253296 -0.2717308431 -0.1106531511
C   0.5369375137  0.5678857478 -0.1404713228
C   1.7913558790 -0.3248185630 -0.0415358453
O   1.6701834071 -1.4818585605 -0.4976612863
C   2.9199746468  0.2783524492  0.5283500326
O   4.6705912272  2.2663952288 -0.7292234931
H  -2.8990888223 -0.2181151794  0.1852836043
H  -0.6179407755 -1.0541863557  0.6492573700
H  -0.8401083688 -0.8339267757 -1.0412487373
H   0.5231407942  1.3002937828  0.6626467914
H   0.5984108386  1.1219046014 -1.0765375345
H   2.8054315741  1.2162415269  1.0608277806
H   4.0795756242  1.5447053370 -0.4189074957
H   3.8096561074 -0.3221600221  0.6771438002
H   4.3832016637  3.0208329623 -0.2129989657
17
Image 14  Energy = -421.92421818
C  -1.9913917072  0.4176085384  0.2068675475
O  -2.1471403744  1.5904727114  0.4538670876
C  -0.7236033980 -0.2681323801 -0.1486272776
C   0.5348193893  0.5790913914 -0.1894493169
C   1.7927870746 -0.3056347904 -0.0514910999
O   1.6894509998 -1.4616871176 -0.5177881326
C   2.8969568930  0.2990145021  0.5580659124
O   4.7175806589  2.2288503050 -0.6773455207
H  -2.8812730835 -0.2486077097  0.2485876449
H  -0.5799242403 -1.0837637333  0.5683926931
H  -0.8807010181 -0.7890368818 -1.0975807914
H   0.5065838110  1.3335706399  0.5924323860
H   0.6080814851  1.1041500015 -1.1412915220
H   2.7650138923  1.2360597331  1.0848422404
H   4.1049709756  1.5235840248 -0.3690406641
H   3.7755234106 -0.3061963690  0.7502840408
H   4.3622645487  3.0206558115 -0.2707240972
17
Image 15  Energy = -421.92366975
C  -1.9769579448  0.3983061272  0.2528532894
O  -2.1303250747  1.5610691233  0.5438104895
C  -0.7230831201 -0.2639288403 -0.1858683250
C   0.5340696809  0.5875450564 -0.2329278612
C   1.7926346432 -0.2918952838 -0.0600386320
O   1.7066898571 -1.4463034612 -0.5343290017
C   2.8746952287  0.3131856358  0.5858847490
O   4.7496141509  2.2051040029 -0.6278858403
H  -2.8581930058 -0.2774067165  0.3159256572
H  -0.5482133322 -1.1125423842  0.4829402466
H  -0.9222674833 -0.7393835104 -1.1510321451
H   0.4940580403  1.3603054218  0.5302504684
H   0.6192088881  1.0880386808 -1.1967903547
H   2.7262227864  1.2518757734  1.1056255676
H   4.1225054219  1.5107500459 -0.3234539428
H   3.7446052268 -0.2919615859  0.8140554184
H   4.3447352799  3.0172412339 -0.3190178032
17
Image 16  Energy = -421.92311015
C  -1.9593170873  0.3799154174  0.2944183910
O  -2.1087836603  1.5344954653  0.6172362164
C  -0.7230467193 -0.2595201968 -0.2206650316
C   0.5341139756  0.5944830647 -0.2713785974
C   1.7925944823 -0.2798142712 -0.0667230007
O   1.7234249222 -1.4328567037 -0.5484262818
C   2.8531260305  0.3253364965  0.6118933321
O   4.7732487949  2.1884974956 -0.5799264514
H  -2.8305818200 -0.3055388976  0.3840680518
H  -0.5213701477 -1.1388065978  0.3974018548
H  -0.9645729661 -0.6875444105 -1.1985801249
H   0.4842673577  1.3829559253  0.4748930812
H   0.6298082891  1.0734100032 -1.2448947946
H   2.6886880473  1.2637309960  1.1276869990
H   4.1370553397  1.5008827960 -0.2788315057
H   3.7156276799 -0.2788394898  0.8688818570
H   4.3257171354  3.0092126888 -0.3670522775
17
Image 17  Energy = -421.92258497
C  -1.9405532222  0.3605448863  0.3324935529
O  -2.0885413874  1.5085438566  0.6778923360
C  -0.7231993798 -0.2546858423 -0.2521314892
C   0.5337856465  0.6021511736 -0.3061136489
C   1.7925544909 -0.2662668346 -0.0741178329
O   1.7411094409 -1.4164755663 -0.5652289707
C   2.8313080920  0.3386916060  0.6359785003
O   4.7955841774  2.1732572046 -0.5308045889
H  -2.7987797511 -0.3367962302  0.4516559253
H  -0.4975212749 -1.1608154314  0.3152308741
H  -1.0061199431 -0.6357405403 -1.2385793432
H   0.4758831932  1.4043382501  0.4247568476
H   0.6375454432  1.0617226142 -1.2877993748
H   2.6478546024  1.2723310533  1.1542603114
H   4.1525141501  1.4909441232 -0.2321429831
H   3.6870288494 -0.2644283877  0.9169749612
H   4.3095467957  2.9926836739 -0.4223252215
17
Image 18  Energy = -421.92210907
C  -1.9215484010  0.3385435780  0.3677746940
O  -2.0733739825  1.4810843631  0.7284364863
C  -0.7223632403 -0.2493377180 -0.2792320271
C   0.5319424848  0.6134750771 -0.3381959173
C   1.7924073146 -0.2474241781 -0.0851586422
O   1.7617692214 -1.3910939454 -0.5936178922
C   2.8066162930  0.3543526520  0.6604177758
O   4.8193553789  2.1557886577 -0.4803623665
H  -2.7622765628 -0.3741604939  0.5179467185
H  -0.4732077476 -1.1767389114  0.2407092534
H  -1.0429066964 -0.5881345687 -1.2697395980
H   0.4666368339  1.4274529193  0.3789463550
H   0.6395039960  1.0557970735 -1.3271186138
H   2.5990739490  1.2770946010  1.1892917946
H   4.1715468205  1.4786199855 -0.1805391834
H   3.6578897117 -0.2466822796  0.9588189989
H   4.2989350627  2.9613634838 -0.4883801566
17
Image 19  Energy = -421.91883136
C  -1.9041807143  0.3214455388  0.3996246786
O  -2.0591935331  1.4568868030  0.7723801405
C  -0.7170180152 -0.2433842454 -0.2985695464
C   0.5344003434  0.6288635089 -0.3658681783
C   1.7984833802 -0.2220875385 -0.0974250039
O   1.8010517291 -1.3525172972 -0.6529879977
C   2.7680210515  0.3579324833  0.7022963839
O   4.8346379029  2.1381756477 -0.4558144460
H  -2.7304407829 -0.4070741193  0.5721303249
H  -0.4474098746 -1.1846481236  0.1858921072
H  -1.0655685066 -0.5521528099 -1.2896555721
H   0.4545910223  1.4546145781  0.3365710648
H   0.6386442048  1.0541507775 -1.3637655635
H   2.5381287968  1.2680782184  1.2474868061
H   4.1907683177  1.4625817069 -0.1416763014
H   3.6289285276 -0.2282308842  1.0093329391
H   4.2861578672  2.9173657746 -0.5599550616
17
Image 20  Energy = -421.91837899
C  -1.8810473153  0.3041548549  0.4252429336
O  -2.0417641523  1.4347349851  0.8097505910
C  -0.7079399075 -0.2364790509 -0.3147334358
C   0.5365628044  0.6457339649 -0.3919840555
C   1.8040005925 -0.1963937651 -0.1160109772
O   1.8390612840 -1.3055543944 -0.7119312611
C   2.7375709781  0.3679935717  0.7351368462
O   4.8423606190  2.1216774819 -0.4362573431
H  -2.6915997850 -0.4371873288  0.6167743255
H  -0.4209904767 -1.1872026152  0.1400064069
H  -1.0822457124 -0.5212517707 -1.3035978421
H   0.4517907294  1.4782307654  0.3019981511
H   0.6361908260  1.0599212155 -1.3948852371
H   2.4585863385  1.2380727270  1.3216722968
H   4.2009120188  1.4537906188 -0.1013782837
H   3.5934506674 -0.2186352424  1.0566584115
H   4.2751035826  2.8683924947 -0.6364635942
17
Image 21  Energy = -421.91781257
C  -1.8519474252  0.2861695963  0.4561554365
O  -2.0112108023  1.4105255995  0.8586900114
C  -0.7047602991 -0.2282950566 -0.3413543815
C   0.5399287379  0.6547465108 -0.4226183911
C   1.8057285892 -0.1818705360 -0.1242445735
O   1.8696639098 -1.2765644081 -0.7440402836
C   2.7047869297  0.3727804783  0.7688337729
O   4.8465146640  2.1153315525 -0.4151928185
H  -2.6456301278 -0.4668800260  0.6709722210
H  -0.4052698035 -1.1972405324  0.0634143720
H  -1.1170781834 -0.4673787440 -1.3273659944
H   0.4497672740  1.5003234984  0.2548869927
H   0.6456875398  1.0494855003 -1.4325275576
H   2.3828045136  1.2067745247  1.3847772240
H   4.2004847653  1.4569805110 -0.0723396422
H   3.5619501032 -0.2068684333  1.0999207339
H   4.2785811413  2.8419788647 -0.6779666734
17
Image 22  Energy = -421.91714715
C  -1.8246589339  0.2712211125  0.4805272103
O  -1.9829244610  1.3904987679  0.8971353336
C  -0.7011780734 -0.2210519877 -0.3638947965
C   0.5432620414  0.6627007138 -0.4485164755
C   1.8068634513 -0.1686005868 -0.1287513084
O   1.9086088109 -1.2407426191 -0.7823410300
C   2.6588174003  0.3660558971  0.8206699762
O   4.8576425799  2.1113261540 -0.4224505389
H  -2.6031648210 -0.4918124203  0.7141465247
H  -0.3947251767 -1.2042113704 -0.0009374796
H  -1.1444804398 -0.4213002735 -1.3452901285
H   0.4463692420  1.5209116968  0.2122866001
H   0.6548121892  1.0382858419 -1.4649084015
H   2.2898588980  1.1537865279  1.4698333591
H   4.2092298471  1.4632422017 -0.0743426680
H   3.5307660327 -0.1922629365  1.1487199488
H   4.2949006462  2.8319531209 -0.7118847428
17
Image 23  Energy = -421.93140887
C  -1.8168622614  0.2767825953  0.4755592892
O  -1.9706713111  1.3990000782  0.8962500438
C  -0.6981692731 -0.2241151248 -0.3564638611
C   0.5463066178  0.6543409119 -0.4494741376
C   1.8037081977 -0.1707502995 -0.1164660358
O   1.9392302724 -1.2261720991 -0.8054344696
C   2.6092609844  0.3328404843  0.8808023016
O   4.8657770337  2.0926734537 -0.5121440629
H  -2.6030159986 -0.4745120155  0.6998130493
H  -0.4012140936 -1.2068839164  0.0153171011
H  -1.1453148310 -0.4287713200 -1.3343297348
H   0.4499089505  1.5226007105  0.1968011665
H   0.6589335790  1.0138111372 -1.4707103541
H   2.2279228310  1.1016690334  1.5433491233
H   4.1925808526  1.4784185830 -0.1673839618
H   3.5285949146 -0.1650582121  1.1711006256
H   4.3630234265  2.8941256474 -0.6665862889
