17
Image 0  Energy = -421.89005602
C  -1.9833668563  0.4871113304  0.0664318630
O  -2.0326186838  1.6924575404  0.1415841690
C  -0.7449190061 -0.3295558535 -0.0602771451
C   0.5294828045  0.4821949335 -0.0685771891
C   1.7935648203 -0.3486020385  0.0036184291
O   1.7615578282 -1.5733387413 -0.0215140670
C   3.0134170740  0.4412686724  0.1038083144
O   4.6389902793  2.3762162573 -0.1259816884
H  -2.9235156588 -0.0925412048  0.0947547805
H  -0.7451924199 -1.0443594394  0.7686491303
H  -0.8411398074 -0.9350018995 -0.9665537827
H   0.5361180763  1.1801421997  0.7701672445
H   0.5930748381  1.0897309821 -0.9736373793
H   2.9722351890  1.1176103751  0.9600289385
H   3.1779166870  1.1649695935 -0.7649491543
H   3.9207682501 -0.1329023761  0.1811729237
H   4.8836260626  3.2945968341 -0.1087261383
17
Image 1  Energy = -421.87973249
C  -1.9836290742  0.4965898259  0.0524346933
O  -2.0310623706  1.6982497955  0.1128033229
C  -0.7385528178 -0.3295135025 -0.0492039696
C   0.5314343647  0.4859236562 -0.0558343690
C   1.7884735620 -0.3630978040 -0.0001301508
O   1.7117905667 -1.5801589539 -0.0262316181
C   3.0284719173  0.4201626148  0.0845542677
O   4.6172159760  2.4315280398 -0.1684364208
H  -2.9272770381 -0.0847810945  0.0746507059
H  -0.7455711858 -1.0341087425  0.7865673153
H  -0.8243344104 -0.9482167941 -0.9466127454
H   0.5408946021  1.1741434116  0.7901565961
H   0.5885183554  1.1032002442 -0.9544023798
H   3.0078411291  1.0829416202  0.9478095793
H   3.1837107846  1.1384450990 -0.7327616496
H   3.9340075346 -0.1634956841  0.1471716857
H   4.8680687068  3.3421857972 -0.0625349225
17
Image 2  Energy = -421.88088330
C  -1.9777468730  0.5048916755  0.0334198378
O  -2.0215989336  1.7079963410  0.0745209794
C  -0.7336434983 -0.3246630598 -0.0338703901
C   0.5375969203  0.4890437081 -0.0378532734
C   1.7867294883 -0.3726468598 -0.0019970046
O   1.6843513794 -1.5888824394 -0.0304547536
C   3.0399306735  0.3931602949  0.0683007054
O   4.5584806985  2.4818925972 -0.2112177666
H  -2.9240044279 -0.0722982863  0.0472634783
H  -0.7511232607 -1.0161313818  0.8129516897
H  -0.8034987982 -0.9608557529 -0.9202600867
H   0.5569166042  1.1649574927  0.8180783810
H   0.5889631848  1.1186943470 -0.9277375936
H   3.0442207863  1.0431809963  0.9415860106
H   3.1884189727  1.1336917012 -0.7312534028
H   3.9424036633 -0.1993360758  0.0989011644
H   4.8336055556  3.3673027399 -0.0003772553
17
Image 3  Energy = -421.90761431
C  -1.9933067940  0.4966749086  0.0461505351
O  -2.0546689134  1.6969829922  0.1023565789
C  -0.7399506930 -0.3170348139 -0.0488893660
C   0.5335037770  0.4948651230 -0.0515674268
C   1.7835574611 -0.3623924132 -0.0003431136
O   1.6896609627 -1.5832021066 -0.0535372340
C   3.0430338485  0.3911535345  0.1078031374
O   4.5693359994  2.5052546420 -0.2533321413
H  -2.9298958332 -0.0970374567  0.0681482106
H  -0.7474099640 -1.0206912076  0.7878630460
H  -0.8187532510 -0.9402878726 -0.9433535707
H   0.5442290285  1.1818930766  0.7950526539
H   0.5955291864  1.1115899292 -0.9492787460
H   3.0356086197  1.0390182147  0.9816238777
H   3.2381520098  1.1286473712 -0.6853171019
H   3.9205094128 -0.2377793621  0.1642659905
H   4.8808653232  3.3823429551 -0.0676456464
17
Image 4  Energy = -421.91945730
C  -2.0069646406  0.4847123982  0.0609568364
O  -2.0920141903  1.6850894830  0.1352444901
C  -0.7479956444 -0.3082821186 -0.0655932403
C   0.5288201661  0.4992208714 -0.0669413022
C   1.7830229398 -0.3507006545  0.0009359266
O   1.6999388856 -1.5777578429 -0.0793738375
C   3.0439112132  0.3907667182  0.1509031140
O   4.5852805977  2.5244151258 -0.2887949948
H  -2.9322667936 -0.1235006752  0.0925434830
H  -0.7460971906 -1.0244491459  0.7592360171
H  -0.8389573736 -0.9145821258 -0.9696089459
H   0.5315319678  1.1985342718  0.7681108440
H   0.6027933648  1.0996447519 -0.9737911932
H   3.0235925095  1.0418355283  1.0210082126
H   3.2876220506  1.1212756947 -0.6387102402
H   3.8941815718 -0.2715766890  0.2374333702
H   4.9335987036  3.3953512178 -0.1435601682
17
Image 5  Energy = -421.91981657
C  -2.0085524971  0.4862508041  0.0581981698
O  -2.0950845594  1.6865246691  0.1305235135
C  -0.7489719576 -0.3065321646 -0.0634967724
C   0.5295994223  0.4988908204 -0.0636576274
C   1.7840072747 -0.3514309723  0.0000161605
O   1.6988491516 -1.5781997214 -0.0879524680
C   3.0474250409  0.3856956546  0.1548422073
O   4.5678508599  2.5422501016 -0.3121643041
H  -2.9334557578 -0.1230768612  0.0874857919
H  -0.7508636199 -1.0214811035  0.7623337054
H  -0.8394469066 -0.9139023180 -0.9667209947
H   0.5342137985  1.1967568015  0.7725191137
H   0.6060116222  1.0987079618 -0.9704822340
H   3.0280602304  1.0326806594  1.0279643689
H   3.3012962358  1.1210463493 -0.6289073039
H   3.8917393821 -0.2844596877  0.2418799590
H   4.9373203417  3.4002760033 -0.1423827581
17
Image 6  Energy = -421.91009306
C  -2.0036104973  0.4935910530  0.0630322330
O  -2.0811403112  1.6904592493  0.1429450456
C  -0.7425685740 -0.3044276148 -0.0720771811
C   0.5353187085  0.5069689550 -0.0712225246
C   1.7889461642 -0.3517764198 -0.0091483659
O   1.6878731991 -1.5735271980 -0.1168917321
C   3.0583267833  0.3662586642  0.1813263303
O   4.4727388945  2.5909342283 -0.4005680601
H  -2.9332965462 -0.1138487954  0.0950306543
H  -0.7360753371 -1.0271425297  0.7476723851
H  -0.8333995549 -0.9085762934 -0.9779356311
H   0.5376477995  1.2040956068  0.7667064701
H   0.6112750761  1.1119462942 -0.9749378036
H   3.0174079024  0.9919586151  1.0696897127
H   3.3539933618  1.1278309476 -0.5695061228
H   3.8870494728 -0.3229210416  0.2766454176
H   4.9295115399  3.3881718317 -0.1507626184
17
Image 7  Energy = -421.92162252
C  -1.9925660824  0.5062452113  0.0426305800
O  -2.0726672953  1.7114808717  0.0973351895
C  -0.7374334176 -0.2933851588 -0.0505258173
C   0.5489752077  0.5010816140 -0.0512406350
C   1.7926432162 -0.3702293404 -0.0100261478
O   1.6803670795 -1.5908806288 -0.1092675617
C   3.0724902578  0.3406160617  0.1474588744
O   4.3758034180  2.6430569077 -0.3558719394
H  -2.9218791148 -0.0954002775  0.0662108932
H  -0.7532376573 -0.9966462985  0.7855974006
H  -0.8223413578 -0.9148633247 -0.9449400724
H   0.5709466967  1.1883441950  0.7934354668
H   0.6191937763  1.1136562532 -0.9491442349
H   3.0655962707  0.9577250613  1.0428760852
H   3.3329874397  1.1125037041 -0.6042912207
H   3.9047866920 -0.3483703350  0.2063260192
H   4.8863349697  3.4050545707 -0.1065639213
