17
Image 0  Energy = -421.89005508
C  -1.9833666223  0.4871122809  0.0664304283
O  -2.0326179690  1.6924576784  0.1415813140
C  -0.7449188162 -0.3295552263 -0.0602751910
C   0.5294830740  0.4821964076 -0.0685761030
C   1.7935644253 -0.3486003424  0.0036176030
O   1.7615619913 -1.5733382989 -0.0215125578
C   3.0134165915  0.4412649674  0.1038110491
O   4.6389801076  2.3762223468 -0.1259790885
H  -2.9235154198 -0.0925407220  0.0947523817
H  -0.7451955917 -1.0443579562  0.7686522548
H  -0.8411386418 -0.9350015672 -0.9665521392
H   0.5361187982  1.1801432487  0.7701690274
H   0.5930746044  1.0897314082 -0.9736364251
H   2.9722361393  1.1176039743  0.9600357537
H   3.1779155435  1.1649753219 -0.7649631422
H   3.9207678249 -0.1329092636  0.1811715396
H   4.8836339197  3.2945977176 -0.1087263510
17
Image 1  Energy = -421.87986206
C  -1.9848069496  0.4963520641  0.0530806826
O  -2.0330526817  1.6975122884  0.1140593141
C  -0.7388526493 -0.3296918404 -0.0498387655
C   0.5307539393  0.4862282647 -0.0567031852
C   1.7878035649 -0.3630662442 -0.0003349756
O   1.7086320330 -1.5799965720 -0.0265916405
C   3.0291252285  0.4191374957  0.0855343783
O   4.6224964039  2.4350524905 -0.1703422698
H  -2.9284897762 -0.0857088811  0.0756463210
H  -0.7448704509 -1.0349530955  0.7853043050
H  -0.8247987237 -0.9480179360 -0.9474119950
H   0.5391390665  1.1747431034  0.7889535278
H   0.5878755517  1.1031306170 -0.9554687477
H   3.0087684116  1.0825396138  0.9475318112
H   3.1850787935  1.1355010978 -0.7283049691
H   3.9340513484 -0.1652340889  0.1493794006
H   4.8711469221  3.3464716885 -0.0644929282
17
Image 2  Energy = -421.88100237
C  -1.9789963043  0.5047981123  0.0338447733
O  -2.0238926443  1.7074881781  0.0753858708
C  -0.7338836551 -0.3244806124 -0.0342964310
C   0.5371675189  0.4892892735 -0.0385494746
C   1.7864921446 -0.3719586186 -0.0023036675
O   1.6834923723 -1.5886809403 -0.0307933407
C   3.0408672221  0.3924938315  0.0687929061
O   4.5614842229  2.4863921647 -0.2145739946
H  -2.9251675641 -0.0732614538  0.0479340491
H  -0.7509349379 -1.0163383056  0.8121456492
H  -0.8037138157 -0.9602810341 -0.9208241115
H   0.5557421323  1.1654862533  0.8171311935
H   0.5888440419  1.1187717620 -0.9284821839
H   3.0456039545  1.0417054286  0.9417987717
H   3.1898189074  1.1303229796 -0.7268791896
H   3.9410657845 -0.2031389877  0.1005876352
H   4.8360108091  3.3713897251 -0.0009183154
17
Image 3  Energy = -421.90771381
C  -1.9941330957  0.4976240643  0.0457904712
O  -2.0552871014  1.6972735597  0.1014520184
C  -0.7400441032 -0.3161181033 -0.0485336787
C   0.5331596958  0.4951902259 -0.0513244430
C   1.7829383366 -0.3619800256 -0.0010803969
O   1.6920931390 -1.5832446561 -0.0540966374
C   3.0431402659  0.3897593848  0.1070552685
O   4.5683866573  2.5098802960 -0.2575779618
H  -2.9306033620 -0.0972517797  0.0675032566
H  -0.7475867000 -1.0198661227  0.7879014604
H  -0.8179648799 -0.9400397706 -0.9422680327
H   0.5442330449  1.1815802784  0.7956011377
H   0.5958776888  1.1119912301 -0.9486852712
H   3.0371771582  1.0358081543  0.9806835463
H   3.2379843491  1.1241018184 -0.6802400604
H   3.9193230255 -0.2404506527  0.1638123553
H   4.8813059510  3.3857428517 -0.0659927461
17
Image 4  Energy = -421.91951530
C  -2.0062678155  0.4854629175  0.0601545355
O  -2.0906475755  1.6858885098  0.1332621911
C  -0.7473312015 -0.3082853170 -0.0646344420
C   0.5290337854  0.4996529207 -0.0662524442
C   1.7828787547 -0.3504673181 -0.0002571617
O   1.6987037507 -1.5775325124 -0.0797180443
C   3.0445817962  0.3895389199  0.1490683313
O   4.5805963721  2.5278856021 -0.2906094933
H  -2.9318211514 -0.1225690896  0.0910750120
H  -0.7465606962 -1.0240854816  0.7604244776
H  -0.8377579897 -0.9153724558 -0.9680162885
H   0.5325110522  1.1977611625  0.7697952241
H   0.6029943173  1.1006490767 -0.9726488405
H   3.0253826815  1.0397961242  1.0186195558
H   3.2859804214  1.1170448200 -0.6348071243
H   3.8950255980 -0.2716730217  0.2356092596
H   4.9326978420  3.3963091346 -0.1410642942
17
Image 5  Energy = -421.91986469
C  -2.0082399021  0.4866876467  0.0578180443
O  -2.0950460152  1.6868675268  0.1294934740
C  -0.7483488505 -0.3064520416 -0.0630132693
C   0.5298273388  0.4994309758 -0.0635297520
C   1.7840253586 -0.3507562113 -0.0012181783
O   1.6984100036 -1.5777935384 -0.0885262849
C   3.0481000395  0.3846889455  0.1542243801
O   4.5648597117  2.5457354636 -0.3138547141
H  -2.9330727950 -0.1229720208  0.0867301848
H  -0.7513132111 -1.0212106650  0.7628867025
H  -0.8387400382 -0.9140260165 -0.9659470974
H   0.5346407207  1.1966402928  0.7732190377
H   0.6059144581  1.0996798124 -0.9699877526
H   3.0293366819  1.0311481318  1.0263487201
H   3.2997824844  1.1158785721 -0.6242411088
H   3.8918238564 -0.2850163792  0.2418173021
H   4.9380399617  3.4014734027 -0.1422192569
17
Image 6  Energy = -421.91012148
C  -2.0036833221  0.4941449541  0.0630055605
O  -2.0817812667  1.6905811678  0.1427847550
C  -0.7420069119 -0.3042978710 -0.0719583593
C   0.5354864368  0.5075330972 -0.0714387003
C   1.7894058886 -0.3502437372 -0.0104537307
O   1.6894216679 -1.5725755950 -0.1179185598
C   3.0588236848  0.3660731110  0.1815890600
O   4.4713822845  2.5928268196 -0.4038160638
H  -2.9331178481 -0.1144112547  0.0946617642
H  -0.7365999398 -1.0270829322  0.7476727906
H  -0.8330769809 -0.9081898961 -0.9778245294
H   0.5377822330  1.2041802387  0.7670215365
H   0.6113443227  1.1126234979 -0.9750410239
H   3.0179208291  0.9907113529  1.0691224721
H   3.3518604847  1.1224545676 -0.5636637623
H   3.8867738928 -0.3223970494  0.2775464685
H   4.9300643967  3.3880747066 -0.1512889579
17
Image 7  Energy = -421.92170538
C  -1.9923694426  0.5085481554  0.0429975832
O  -2.0728036372  1.7100584587  0.0975539868
C  -0.7365360405 -0.2932714981 -0.0505119303
C   0.5492750182  0.5019108920 -0.0521129257
C   1.7929310230 -0.3660121747 -0.0118928127
O   1.6827815003 -1.5915256831 -0.1106367736
C   3.0725427785  0.3392591157  0.1485267171
O   4.3728649688  2.6468819293 -0.3591690707
H  -2.9216006411 -0.0954347310  0.0663249810
H  -0.7534982743 -0.9969351554  0.7851606130
H  -0.8216126819 -0.9143023766 -0.9448815078
H   0.5711316039  1.1883061821  0.7934821390
H   0.6195338066  1.1147388893 -0.9497153491
H   3.0658504160  0.9556328927  1.0417272829
H   3.3302480211  1.1049123406 -0.5965254661
H   3.9037634696 -0.3484174163  0.2076228260
H   4.8874970115  3.4056496515 -0.1079486782
17
Image 8  Energy = -421.89717632
C  -1.9798953813  0.5308119215  0.0146580330
O  -2.0622710311  1.7340982765  0.0448241991
C  -0.7270240654 -0.2805614426 -0.0294566703
C   0.5678669470  0.5010375324 -0.0270706946
C   1.8124113144 -0.3786139255 -0.0230052746
O   1.6891764523 -1.5930531078 -0.1638146686
C   3.0938327096  0.3168461911  0.1553312737
O   4.2571690960  2.6799924715 -0.4551221139
H  -2.9112975131 -0.0715470821  0.0227653294
H  -0.7733047731 -0.9573723181  0.8268875105
H  -0.8009208258 -0.9214499383 -0.9095843343
H   0.6053813388  1.1718987990  0.8303128202
H   0.6348589104  1.1288667000 -0.9146208055
H   3.0920482866  0.8952986711  1.0754507307
H   3.3522729381  1.1184107562 -0.5586557845
H   3.9161114611 -0.3831042134  0.1783911687
H   4.7835861885  3.3784427398 -0.0672915507
17
Image 9  Energy = -421.88824227
C  -1.9762631149  0.5243795525  0.0122203574
O  -2.0567932746  1.7254262627  0.0463845236
C  -0.7160213778 -0.2814043220 -0.0371023827
C   0.5675822842  0.5242589126 -0.0321458278
C   1.8102929576 -0.3652958736 -0.0208386930
O   1.6530518690 -1.5737969777 -0.1559532679
C   3.1040951718  0.3132778336  0.1709426090
O   4.2279666176  2.6612592948 -0.5534070901
H  -2.9095607201 -0.0793040026  0.0209281622
H  -0.7469405640 -0.9655154389  0.8157926220
H  -0.7760294754 -0.9280124282 -0.9155238943
H   0.5944092078  1.1903176443  0.8298877395
H   0.6266757718  1.1655050904 -0.9123175923
H   3.0838806847  0.8417799283  1.1239495390
H   3.4071389804  1.2037452560 -0.5038890460
H   3.9183439821 -0.4027190645  0.1813543663
H   4.7381734140  3.3161006479 -0.0702833142
17
Image 10  Energy = -421.89105347
C  -1.9735071734  0.5207460415  0.0137687581
O  -2.0546925498  1.7234204417  0.0525568687
C  -0.7127032959 -0.2797930311 -0.0416762933
C   0.5674828190  0.5315139739 -0.0342332579
C   1.8126371625 -0.3563476120 -0.0237125389
O   1.6518160782 -1.5647507757 -0.1731234603
C   3.1097935810  0.3112228252  0.1935024276
O   4.1986472233  2.6569377058 -0.6449570154
H  -2.9069616352 -0.0824221414  0.0227997096
H  -0.7366043163 -0.9707818447  0.8065533082
H  -0.7692499384 -0.9243584980 -0.9225217399
H   0.5893073856  1.1959776441  0.8287613902
H   0.6215499000  1.1762233320 -0.9118198488
H   3.0629838815  0.8202150402  1.1556435698
H   3.4703900392  1.2845187819 -0.4532183370
H   3.9134171158 -0.4173397073  0.2031772813
H   4.7056960597  3.2450205719 -0.0715021401
17
Image 11  Energy = -421.89405465
C  -1.9720663631  0.5190025711  0.0145890084
O  -2.0543306075  1.7229378817  0.0550176785
C  -0.7117085399 -0.2791307741 -0.0428296413
C   0.5681098200  0.5338773709 -0.0334359589
C   1.8150380687 -0.3521454980 -0.0235094966
O   1.6573697957 -1.5619874002 -0.1838380524
C   3.1086613427  0.3095419773  0.2033201378
O   4.1776270226  2.6368731438 -0.6878256602
H  -2.9060434574 -0.0834392040  0.0235032424
H  -0.7330082280 -0.9736753876  0.8033123160
H  -0.7671416939 -0.9226453137 -0.9251422631
H   0.5860995021  1.1979913434  0.8295701975
H   0.6178003591  1.1782264768 -0.9113183844
H   3.0514347943  0.8210254973  1.1610802622
H   3.5253326616  1.3590235301 -0.4212663824
H   3.9071271825 -0.4243811880  0.2093800780
H   4.6797006163  3.1889078032 -0.0706082725
17
Image 12  Energy = -421.89822607
C  -1.9708012624  0.5178547337  0.0153005070
O  -2.0554602984  1.7219464403  0.0568352023
C  -0.7100195398 -0.2780107587 -0.0432296046
C   0.5703931509  0.5360680735 -0.0318314571
C   1.8208115616 -0.3458356011 -0.0252856200
O   1.6647216934 -1.5557512976 -0.1981490250
C   3.1104576787  0.3156700784  0.2143109164
O   4.1577770822  2.6168089664 -0.7272468644
H  -2.9047791170 -0.0850765664  0.0237041768
H  -0.7296590275 -0.9758938647  0.8007420504
H  -0.7648201684 -0.9204059330 -0.9268861196
H   0.5824401118  1.2000770323  0.8311926767
H   0.6149935299  1.1798435148 -0.9102159082
H   3.0414289627  0.8293823132  1.1674447171
H   3.5683585522  1.4159028345 -0.3918030100
H   3.9039918650 -0.4269571063  0.2132754982
H   4.6501672170  3.1243797696 -0.0681590961
17
Image 13  Energy = -421.90222671
C  -1.9690814316  0.5159606957  0.0165494182
O  -2.0593852259  1.7203865781  0.0603595911
C  -0.7067418838 -0.2748247352 -0.0436003122
C   0.5742781519  0.5394760744 -0.0286770602
C   1.8269208410 -0.3416019030 -0.0261682835
O   1.6719008557 -1.5498419595 -0.2257463962
C   3.1083282563  0.3194443015  0.2373190834
O   4.1347930404  2.5824299025 -0.7584169318
H  -2.9021074798 -0.0889302934  0.0236953961
H  -0.7234515425 -0.9774573852  0.7974549555
H  -0.7606256551 -0.9162807974 -0.9290082669
H   0.5790956054  1.2035830161  0.8338498130
H   0.6139536438  1.1822537340 -0.9081154674
H   3.0273981219  0.8507952201  1.1799078884
H   3.6093784905  1.4751731954 -0.3824456860
H   3.9049694594 -0.4248462624  0.2226185022
H   4.6203780604  3.0542825949 -0.0695770048
17
Image 14  Energy = -421.90763314
C  -1.9672410887  0.5143763109  0.0195618598
O  -2.0629826176  1.7189417779  0.0686277119
C  -0.7036317735 -0.2713723690 -0.0455155511
C   0.5772218528  0.5416503849 -0.0264270731
C   1.8292156328 -0.3483589811 -0.0219443714
O   1.6725684327 -1.5542926131 -0.2542520607
C   3.1017147596  0.3154785689  0.2604603304
O   4.1068217712  2.5340070742 -0.7621175594
H  -2.8996801305 -0.0926071491  0.0254792043
H  -0.7155988671 -0.9796684303  0.7918446306
H  -0.7588242533 -0.9107044812 -0.9333870363
H   0.5767416944  1.2065753631  0.8347191100
H   0.6155167347  1.1827443874 -0.9081599015
H   3.0150120896  0.8841160708  1.1829767651
H   3.6570955402  1.5528896399 -0.3929846493
H   3.9051423689 -0.4249056024  0.2366993289
H   4.6009077933  3.0011319710 -0.0755813899
17
Image 15  Energy = -421.91532905
C  -1.9695029825  0.5102018808  0.0296053715
O  -2.0752595304  1.7148600882  0.0878602099
C  -0.7039793615 -0.2692646612 -0.0489141658
C   0.5808789159  0.5370211602 -0.0234715270
C   1.8230533436 -0.3726550865 -0.0074392236
O   1.6543894754 -1.5705128624 -0.3045506515
C   3.0576457632  0.2570390129  0.3138203102
O   4.0983702417  2.5433433998 -0.7821565698
H  -2.8990236977 -0.1017420907  0.0365326061
H  -0.7074700942 -0.9892250745  0.7779079310
H  -0.7604090266 -0.8970424992 -0.9441753714
H   0.5821797462  1.2062451770  0.8339402487
H   0.6252730441  1.1713918210 -0.9099055403
H   3.0007982450  0.9443067390  1.1527491201
H   3.7354139066  1.6762619707 -0.4295074744
H   3.8964942682 -0.4359896332  0.2955404190
H   4.6111467835  2.9457634975 -0.0778368840
17
Image 16  Energy = -421.91814166
C  -1.9803869097  0.5000527382  0.0436413297
O  -2.1004238745  1.7020003990  0.1099157334
C  -0.7096431605 -0.2694778379 -0.0473181118
C   0.5737271212  0.5348462177 -0.0214122117
C   1.8109812651 -0.3853621989 -0.0077639856
O   1.6367769824 -1.5640019909 -0.3846288127
C   3.0160683722  0.2180940077  0.3899344318
O   4.1690963463  2.5450103350 -0.8176887652
H  -2.9025666043 -0.1225569340  0.0510220845
H  -0.7053511724 -1.0013144668  0.7684479225
H  -0.7582451239 -0.8839942775 -0.9503055403
H   0.5833955807  1.2102918365  0.8315812241
H   0.6259983428  1.1576376691 -0.9142738609
H   2.9672401273  1.0251698018  1.1135545889
H   3.7994617542  1.6958856467 -0.4804424541
H   3.8945450352 -0.4229725864  0.3856206736
H   4.6293277818  2.9306925936 -0.0698858109
17
Image 17  Energy = -421.92503195
C  -1.9818945360  0.4852320160  0.0723528940
O  -2.1145603421  1.6827094200  0.1747045313
C  -0.7096828857 -0.2692630844 -0.0612760789
C   0.5677984573  0.5412277349 -0.0424134303
C   1.8068848947 -0.3770879648 -0.0129892557
O   1.6466172121 -1.5323048263 -0.4590383269
C   2.9814043208  0.2087579681  0.4819047087
O   4.2615941119  2.4934914329 -0.8570929011
H  -2.8982908630 -0.1470845993  0.0776176219
H  -0.6807299839 -1.0193723719  0.7365640997
H  -0.7647449322 -0.8649346187 -0.9750399440
H   0.5741724889  1.2266856110  0.8025408318
H   0.6241936577  1.1499638064 -0.9438663694
H   2.9151370681  1.1071012809  1.0842195359
H   3.8422928931  1.6722417361 -0.5312110131
H   3.8766957114 -0.4046031131  0.5205121361
H   4.6031105908  2.9172388806 -0.0674887148
17
Image 18  Energy = -421.92474597
C  -1.9894731740  0.4689732940  0.1050203180
O  -2.1302952220  1.6617137783  0.2434918701
C  -0.7155183473 -0.2702781184 -0.0834115353
C   0.5563361219  0.5500829958 -0.0755867607
C   1.8000100463 -0.3610054339 -0.0224947174
O   1.6587775847 -1.5091192688 -0.4902290006
C   2.9530470425  0.2240239936  0.5222216074
O   4.4017775205  2.4125261850 -0.8612133505
H  -2.8992930554 -0.1718118754  0.1193740752
H  -0.6579424392 -1.0381959948  0.6963996105
H  -0.7935192821 -0.8466246672 -1.0085145385
H   0.5556638973  1.2482769336  0.7585842926
H   0.6170040493  1.1439501501 -0.9862555599
H   2.8674531970  1.1522786346  1.0769232257
H   3.9281816178  1.6286846920 -0.5199037357
H   3.8471270743 -0.3836153033  0.6137285909
H   4.5506609205  2.9601385153 -0.0881339260
17
Image 19  Energy = -421.92465813
C  -2.0017676388  0.4569059913  0.1190963169
O  -2.1460632375  1.6481216327  0.2664431245
C  -0.7254722398 -0.2748913979 -0.0869869848
C   0.5423809935  0.5544056887 -0.0972236573
C   1.7954333506 -0.3441877827 -0.0338926900
O   1.6626930698 -1.5019452318 -0.4794645823
C   2.9451573016  0.2613129583  0.4959642993
O   4.5674025409  2.3309956827 -0.7980326321
H  -2.9097288468 -0.1870490185  0.1403171480
H  -0.6526438608 -1.0390128436  0.6955054595
H  -0.8146055686 -0.8566872807 -1.0079955722
H   0.5383725594  1.2632334620  0.7277584121
H   0.5982214671  1.1376696401 -1.0154481760
H   2.8384570844  1.1786490916  1.0647366121
H   4.0225086633  1.5816220583 -0.4817204124
H   3.8322718090 -0.3496282661  0.6213144579
H   4.4573814890  3.0104846826 -0.1303693225
17
Image 20  Energy = -421.92439783
C  -2.0002159148  0.4383733744  0.1578071573
O  -2.1523946669  1.6222809656  0.3481751715
C  -0.7248100704 -0.2723847685 -0.1113783057
C   0.5368199181  0.5675120108 -0.1404927797
C   1.7913147014 -0.3264907119 -0.0398996089
O   1.6723111614 -1.4824519151 -0.4951078130
C   2.9189502873  0.2782734158  0.5311573736
O   4.6646323282  2.2649894931 -0.7263193589
H  -2.8991018682 -0.2171571657  0.1863737840
H  -0.6168126080 -1.0550435612  0.6482786135
H  -0.8447713858 -0.8327435562 -1.0424562945
H   0.5215045746  1.3016798158  0.6615882984
H   0.5992971598  1.1199894917 -1.0775638633
H   2.7996071307  1.2148473333  1.0646203633
H   4.0808892351  1.5401357875 -0.4243471701
H   3.8120995468 -0.3192087618  0.6727402541
H   4.3906811203  3.0274001297 -0.2131742136
17
Image 21  Energy = -421.92416985
C  -1.9899942246  0.4176211933  0.2078830710
O  -2.1443991908  1.5906692662  0.4550541252
C  -0.7234721984 -0.2685918854 -0.1498097783
C   0.5346517648  0.5784973596 -0.1900571921
C   1.7926175145 -0.3073241903 -0.0503951340
O   1.6915799904 -1.4623377225 -0.5155132344
C   2.8955910793  0.2997518365  0.5602711802
O   4.7123493756  2.2280476762 -0.6759238581
H  -2.8800588619 -0.2484449548  0.2505230611
H  -0.5794384067 -1.0847374723  0.5665387844
H  -0.8854389908 -0.7867157509 -1.0994455492
H   0.5051799495  1.3345775299  0.5907932671
H   0.6088226859  1.1016090530 -1.1429694543
H   2.7586848766  1.2346388151  1.0891098449
H   4.1073895013  1.5192504669 -0.3746939379
H   3.7760980691 -0.3036133976  0.7493430520
H   4.3698377472  3.0271047914 -0.2707075515
17
Image 22  Energy = -421.92361881
C  -1.9760664746  0.3983439220  0.2536183505
O  -2.1280759013  1.5613095781  0.5446170535
C  -0.7231764209 -0.2643402495 -0.1868104505
C   0.5339754689  0.5869263493 -0.2333299611
C   1.7927602747 -0.2935062485 -0.0590560704
O   1.7089259434 -1.4467822821 -0.5323838360
C   2.8739635089  0.3141497334  0.5875074439
O   4.7445425464  2.2045738778 -0.6283953195
H  -2.8577902080 -0.2769055898  0.3178511742
H  -0.5483436334 -1.1132166252  0.4815537492
H  -0.9258266764 -0.7374633935 -1.1523803482
H   0.4929783306  1.3613217054  0.5286595174
H   0.6200824936  1.0854417017 -1.1981766969
H   2.7195588996  1.2498293797  1.1103882151
H   4.1248561327  1.5068304237 -0.3299365625
H   3.7451193829 -0.2897691694  0.8143100884
H   4.3525172437  3.0232606503 -0.3180356522
17
Image 23  Energy = -421.92305520
C  -1.9583881494  0.3800274044  0.2950407947
O  -2.1065630437  1.5348081885  0.6179015940
C  -0.7231009805 -0.2598871620 -0.2213618947
C   0.5341333322  0.5938532970 -0.2717636157
C   1.7927198958 -0.2815985450 -0.0658828302
O   1.7256725360 -1.4329862014 -0.5467412673
C   2.8524063183  0.3262855974  0.6137308857
O   4.7683672425  2.1881007362 -0.5822713562
H  -2.8300679421 -0.3050080952  0.3856233545
H  -0.5219573358 -1.1392892642  0.3965100357
H  -0.9674865813 -0.6857695289 -1.1994760960
H   0.4834786388  1.3839420383  0.4732185983
H   0.6306001135  1.0707593571 -1.2462337660
H   2.6815302480  1.2613253522  1.1328304479
H   4.1395971247  1.4973628830 -0.2857499601
H   3.7157861427 -0.2770474712  0.8696628169
H   4.3332735032  3.0151245871 -0.3650373979
17
Image 24  Energy = -421.92252540
C  -1.9396267985  0.3607352413  0.3330784166
O  -2.0863426473  1.5089309792  0.6786379408
C  -0.7232391411 -0.2550004215 -0.2526829798
C   0.5339343926  0.6014792500 -0.3066244506
C   1.7928314831 -0.2680161043 -0.0734631010
O   1.7435517388 -1.4165000545 -0.5637008192
C   2.8307528528  0.3398019734  0.6376841042
O   4.7912328217  2.1727925985 -0.5346627769
H  -2.7983297190 -0.3361043731  0.4529915720
H  -0.4984732081 -1.1612218384  0.3146068270
H  -1.0084362581 -0.6340925470 -1.2391907878
H   0.4753077801  1.4052739168  0.4228606048
H   0.6383599653  1.0590435809 -1.2892121133
H   2.6402455019  1.2693466316  1.1599679421
H   4.1550280760  1.4878587869 -0.2391642392
H   3.6867604194 -0.2629605324  0.9183021637
H   4.3164427091  2.9986347200 -0.4194291012
17
Image 25  Energy = -421.92205664
C  -1.9208714599  0.3386538097  0.3681736238
O  -2.0716700232  1.4815664543  0.7287541814
C  -0.7224823682 -0.2497026478 -0.2797431284
C   0.5320551591  0.6128405855 -0.3387794416
C   1.7927668387 -0.2488241102 -0.0846306670
O   1.7641642127 -1.3911764319 -0.5908743050
C   2.8068579086  0.3563265481  0.6608867887
O   4.8158069308  2.1545499510 -0.4845617912
H  -2.7619293546 -0.3736112591  0.5193044151
H  -0.4746422889 -1.1771198880  0.2404631093
H  -1.0446987063 -0.5869296578 -1.2702087412
H   0.4658816368  1.4281868886  0.3770681052
H   0.6401012577  1.0535531377 -1.3284102464
H   2.5922386913  1.2742056235  1.1944666623
H   4.1734960754  1.4759107410 -0.1859895202
H   3.6576104513 -0.2455789166  0.9586048740
H   4.3053141250  2.9671499360 -0.4845260665
17
Image 26  Energy = -421.91875242
C  -1.9031062676  0.3216068208  0.4005489572
O  -2.0568718852  1.4570030011  0.7742881243
C  -0.7172345253 -0.2435834245 -0.2993024084
C   0.5344510271  0.6276487829 -0.3671404843
C   1.7979706703 -0.2238912821 -0.0956348355
O   1.8037832318 -1.3540464956 -0.6504080780
C   2.7642115268  0.3577401470  0.7068653939
O   4.8333153565  2.1371330444 -0.4610070770
H  -2.7296562834 -0.4067487294  0.5730081348
H  -0.4484122490 -1.1850983133  0.1847385889
H  -1.0678560517 -0.5503678894 -1.2901202196
H   0.4544417854  1.4547718628  0.3339093660
H   0.6389147803  1.0518381227 -1.3655891165
H   2.5307005264  1.2672234566  1.2512535129
H   4.1934981202  1.4606251931 -0.1495079113
H   3.6284986594 -0.2259502858  1.0083737760
H   4.2933510138  2.9240966006 -0.5542787725
17
Image 27  Energy = -421.91831355
C  -1.8804613873  0.3045705355  0.4254328797
O  -2.0398914572  1.4352296358  0.8103505089
C  -0.7079413744 -0.2370490014 -0.3145554335
C   0.5365342885  0.6448429607 -0.3923231471
C   1.8041784568 -0.1971766770 -0.1153260611
O   1.8411255461 -1.3056170771 -0.7108020482
C   2.7362056679  0.3691849100  0.7368762958
O   4.8417790302  2.1196598461 -0.4429268608
H  -2.6917321319 -0.4363289468  0.6163255471
H  -0.4224964265 -1.1875930688  0.1412056929
H  -1.0833866036 -0.5213787617 -1.3030458835
H   0.4512467762  1.4784506165  0.3004812839
H   0.6362542677  1.0578033833 -1.3957206984
H   2.4525036499  1.2356764296  1.3260211749
H   4.2027787724  1.4519561502 -0.1086521179
H   3.5925483613 -0.2166319270  1.0581268542
H   4.2807546680  2.8744025252 -0.6314702014
17
Image 28  Energy = -421.91777239
C  -1.8519789566  0.2871746681  0.4558730134
O  -2.0099278417  1.4116026472  0.8585203571
C  -0.7048066809 -0.2289515221 -0.3404582124
C   0.5398373773  0.6536836584 -0.4224678695
C   1.8056524082 -0.1832327239 -0.1238366978
O   1.8701392663 -1.2778476541 -0.7420530337
C   2.7044036216  0.3735360157  0.7689269099
O   4.8465048113  2.1141606031 -0.4200257035
H  -2.6468413923 -0.4651874239  0.6694086527
H  -0.4068580498 -1.1973385880  0.0664345547
H  -1.1171776164 -0.4690527893 -1.3261007010
H   0.4493927771  1.4999566422  0.2543081164
H   0.6455409680  1.0477261497 -1.4326372202
H   2.3802006662  1.2055986753  1.3858669006
H   4.2013332714  1.4557538942 -0.0790446478
H   3.5616632271 -0.2056120352  1.0998318331
H   4.2829258644  2.8480278690 -0.6725457835
17
Image 29  Energy = -421.91711419
C  -1.8230427584  0.2709512479  0.4820360736
O  -1.9808724108  1.3896252578  0.8996035695
C  -0.7009643175 -0.2207566537 -0.3647161598
C   0.5434723929  0.6626922408 -0.4500635222
C   1.8067533950 -0.1690409570 -0.1293553058
O   1.9098991649 -1.2399714679 -0.7831742135
C   2.6569112615  0.3659071841  0.8221864262
O   4.8570270514  2.1101692606 -0.4219843754
H  -2.6009345110 -0.4928800136  0.7159624311
H  -0.3948134401 -1.2043530245 -0.0031153139
H  -1.1463277707 -0.4196746412 -1.3454109876
H   0.4465556367  1.5219474825  0.2094671114
H   0.6552378777  1.0368389004 -1.4669283095
H   2.2867332939  1.1526826746  1.4714455291
H   4.2072673497  1.4629379320 -0.0762982206
H   3.5291047437 -0.1913850096  1.1506280590
H   4.2979971461  2.8343069400 -0.7102811132
17
Image 30  Energy = -421.93204856
C  -1.8068857711  0.2415759059  0.4880937938
O  -2.0018437139  1.3583771933  0.9077844087
C  -0.6923324769 -0.2080827720 -0.3774581918
C   0.5382400088  0.6914172738 -0.4572073464
C   1.7988249289 -0.1329917882 -0.1336875603
O   1.9524712746 -1.1635846383 -0.8561470548
C   2.5825455245  0.3276668397  0.9008181134
O   4.8950341981  2.1348817321 -0.4612203747
H  -2.5491838225 -0.5463690481  0.7366732993
H  -0.3720248648 -1.1972969200 -0.0431376897
H  -1.1511121792 -0.3895752704 -1.3545587891
H   0.4316777325  1.5488290065  0.2010789058
H   0.6462996470  1.0643592287 -1.4737595751
H   2.2122492895  1.1047161533  1.5587337709
H   4.3184819458  1.4239252785 -0.1231556761
H   3.4785352022 -0.2008504823  1.2085613882
H   4.2690231798  2.8130026289 -0.7214110392
