17
cyclopentene alkoxide product + H2O
 C                 -1.44302510    0.04691515    1.32543755
 O                 -2.11497604    1.15335409    1.44491474
 C                 -0.75000000   -0.35000000    0.00000000
 C                  0.55000000    0.45000000    0.00000000
 C                  1.08488921    0.89330503    1.35918144
 O                  2.15997844    1.39052410    1.57587558
 C                 -0.13438261    0.54957899    2.28709440
 O                  4.46023754    2.56442427    0.70549281
 H                 -1.98837666   -0.85393934    1.78184410
 H                 -0.53897357   -1.42416795    0.03210998
 H                 -1.31495524   -0.16319774   -0.91941856
 H                  0.43608195    1.36636683   -0.58880770
 H                  1.35614323   -0.12873275   -0.46325101
 H                  0.34125833   -0.31353973    2.93713544
 H                  4.54433019    1.60390227    0.97068314
 H                  0.07810710    1.41790221    3.16020547
 H                  4.80000000    3.10000000    0.00000000