17
4-oxopentanal + OH- (reactant complex)
C    -2.0000    0.5000    0.0000
O    -2.0000    1.7200    0.0000
C    -0.7500   -0.3500    0.0000
C     0.5500    0.4500    0.0000
C     1.8500   -0.3500    0.0000
O     1.9500   -1.5500    0.0000
C     3.0500    0.5500    0.0000
O     4.5000    2.2000    0.0000
H    -2.9500    0.0000    0.0000
H    -0.8000   -1.0000    0.8800
H    -0.8000   -1.0000   -0.8800
H     0.6000    1.1000    0.8800
H     0.6000    1.1000   -0.8800
H     3.0000    1.2000    0.8800
H     3.0000    1.2000   -0.8800
H     3.9500    0.0000    0.0000
H     4.8000    3.1000    0.0000