22
Image 0  Energy = -383.5281735566
C  -0.7781260000 -1.0675610000  0.3210590000
C   1.3025530000  0.0521200000 -0.0282990000
C  -0.9719930000  1.4562490000  0.8236570000
C   1.9812290000 -0.4184330000  1.2501750000
C   2.2640330000  0.4351680000 -1.1331070000
N   0.2911640000 -0.8768210000 -0.5003990000
N  -2.0191630000 -1.3720060000 -0.2331120000
O  -1.6647340000  1.6302230000 -0.4018370000
H  -2.2586320000  0.8701390000 -0.4758990000
H   0.0278490000 -0.6783120000 -1.4584950000
H  -0.6097590000 -1.3678560000  1.3411780000
H   0.6812640000  0.9183000000  0.2869410000
H  -2.5732630000 -2.0573610000  0.2574120000
H  -2.0524280000 -1.5045420000 -1.2338230000
H  -0.3689930000  2.3513920000  0.9917470000
H  -1.6396090000  1.2942150000  1.6746530000
H   2.7644490000  0.2914620000  1.5228460000
H   1.7251140000  0.7306950000 -2.0377940000
H   2.4355930000 -1.4060980000  1.1342150000
H   1.2730050000 -0.4472240000  2.0805790000
H   2.8503450000  1.2986970000 -0.8143220000
H   2.9600090000 -0.3688060000 -1.3889100000
22
Image 1  Energy = -383.5292433540
C  -0.7788470340 -1.0578435281  0.3220295896
C   1.3046338252  0.0514130730 -0.0285298744
C  -0.9795905345  1.4493897110  0.8249225420
C   1.9817324818 -0.4189914570  1.2489183045
C   2.2649762244  0.4341480467 -1.1335430255
N   0.2921717005 -0.8786231986 -0.5008733240
N  -2.0170230028 -1.3710667485 -0.2321390720
O  -1.6647874671  1.6299760160 -0.4014251025
H  -2.2583518675  0.8707545697 -0.4762128648
H   0.0275502079 -0.6779499025 -1.4580425113
H  -0.6096662240 -1.3683009845  1.3409795766
H   0.6825430428  0.9183669073  0.2859222305
H  -2.5728423659 -2.0566897015  0.2575499150
H  -2.0517562355 -1.5044585626 -1.2334716279
H  -0.3685339629  2.3499816220  0.9915746510
H  -1.6403187627  1.2955970052  1.6742955304
H   2.7643137996  0.2912053073  1.5227623632
H   1.7251996139  0.7305582976 -2.0375147939
H   2.4354758060 -1.4059710520  1.1342002219
H   1.2729090851 -0.4474107969  2.0803151799
H   2.8503562247  1.2983490070 -0.8143574700
H   2.9597624437 -0.3687936294 -1.3888954393
22
Image 2  Energy = -383.5301187376
C  -0.7795234672 -1.0483756376  0.3237964609
C   1.3060558692  0.0509723161 -0.0289069183
C  -0.9843202925  1.4441669746  0.8253227103
C   1.9821214588 -0.4194013412  1.2481690053
C   2.2657710939  0.4335052992 -1.1339216355
N   0.2933703851 -0.8800864431 -0.5011870008
N  -2.0154189688 -1.3702293774 -0.2315773241
O  -1.6652305849  1.6297572564 -0.4010577490
H  -2.2584275677  0.8711612268 -0.4768220344
H   0.0272826594 -0.6775534360 -1.4576793074
H  -0.6096085542 -1.3685212541  1.3404189723
H   0.6840838585  0.9181855539  0.2848008347
H  -2.5721645289 -2.0557904116  0.2577140853
H  -2.0509831288 -1.5042619211 -1.2328623654
H  -0.3689792793  2.3468133168  0.9912860342
H  -1.6422427686  1.2967037358  1.6749821602
H   2.7642104513  0.2909327504  1.5226653991
H   1.7253055717  0.7303859116 -2.0372330714
H   2.4354757191 -1.4060526656  1.1341491675
H   1.2729585436 -0.4475988226  2.0798282305
H   2.8504019706  1.2979601438 -0.8144249691
H   2.9597685560 -0.3690331740 -1.3889956832
22
Image 3  Energy = -383.5309524153
C  -0.7802511248 -1.0391380064  0.3257466795
C   1.3071616080  0.0506419522 -0.0293715773
C  -0.9878543219  1.4394916361  0.8253927299
C   1.9824678370 -0.4197337657  1.2476488381
C   2.2664857929  0.4330373180 -1.1342584965
N   0.2945669185 -0.8812927040 -0.5013263175
N  -2.0140495370 -1.3692949235 -0.2310762848
O  -1.6658672637  1.6296269900 -0.4007132845
H  -2.2587605730  0.8713961561 -0.4776188231
H   0.0270514842 -0.6771407963 -1.4573275060
H  -0.6095582824 -1.3685959149  1.3397845940
H   0.6857864425  0.9179140181  0.2836166142
H  -2.5713393678 -2.0547747056  0.2579293320
H  -2.0501180862 -1.5040054092 -1.2322086900
H  -0.3697281977  2.3428212692  0.9909648524
H  -1.6446661989  1.2976716543  1.6760227274
H   2.7641514406  0.2906668256  1.5225732674
H   1.7254194983  0.7301992258 -2.0369785550
H   2.4355370333 -1.4062410087  1.1340768190
H   1.2730582298 -0.4477923721  2.0792553806
H   2.8505035261  1.2975825450 -0.8145064373
H   2.9599101380 -0.3693999827 -1.3891608594
22
Image 4  Energy = -383.5317732090
C  -0.7810230889 -1.0301268337  0.3277447378
C   1.3081074442  0.0503634437 -0.0298730360
C  -0.9908747473  1.4349742750  0.8253488328
C   1.9828026056 -0.4200237965  1.2472345593
C   2.2671604732  0.4326511148 -1.1345729007
N   0.2956867529 -0.8822919716 -0.5013454218
N  -2.0128337281 -1.3682060129 -0.2305812459
O  -1.6666462062  1.6295490853 -0.4003761043
H  -2.2592714043  0.8715263712 -0.4785534813
H   0.0268625039 -0.6767223391 -1.4569478313
H  -0.6095151562 -1.3685428228  1.3391443333
H   0.6876065963  0.9176254456  0.2823888513
H  -2.5704108791 -2.0536863257  0.2582045974
H  -2.0491695354 -1.5037035553 -1.2315439367
H  -0.3705501690  2.3383615584  0.9906412951
H  -1.6472947074  1.2985483393  1.6771347629
H   2.7641382199  0.2904148934  1.5224924038
H   1.7255388004  0.7300067663 -2.0367588727
H   2.4356327654 -1.4064854286  1.1339906061
H   1.2731703932 -0.4479926611  2.0786534999
H   2.8506626135  1.2972311178 -0.8145950528
H   2.9601274492 -0.3698306642 -1.3893655957
22
Image 5  Energy = -383.5325887807
C  -0.7818245995 -1.0213374546  0.3297556323
C   1.3089659203  0.0501153859 -0.0303826919
C  -0.9936772622  1.4304810208  0.8252596299
C   1.9831395499 -0.4202890854  1.2468726510
C   2.2678170796  0.4323061249 -1.1348769073
N   0.2967096350 -0.8831216490 -0.5012776461
N  -2.0117503566 -1.3669495135 -0.2300809999
O  -1.6675403416  1.6294891748 -0.4000269401
H  -2.2599158738  0.8715926419 -0.4796009027
H   0.0267144684 -0.6763011450 -1.4565317603
H  -0.6094821915 -1.3683686463  1.3385180478
H   0.6895260784  0.9173568572  0.2811278737
H  -2.5693986969 -2.0525420739  0.2585371641
H  -2.0481441178 -1.5033635819 -1.2308723588
H  -0.3713501337  2.3335839700  0.9903274695
H  -1.6500094371  1.2993453158  1.6782120991
H   2.7641678271  0.2901777768  1.5224244102
H   1.7256641217  0.7298115797 -2.0365736409
H   2.4357492881 -1.4067598558  1.1338941657
H   1.2732815616 -0.4482000128  2.0780457636
H   2.8508748098  1.2969064613 -0.8146893663
H   2.9603896646 -0.3702932926 -1.3895966916
22
Image 6  Energy = -383.5334022057
C  -0.7826457525 -1.0127635294  0.3317683447
C   1.3097728497  0.0498906168 -0.0308859155
C  -0.9963971905  1.4259742242  0.8251418875
C   1.9834845791 -0.4205385219  1.2465400795
C   2.2684669733  0.4319847208 -1.1351768529
N   0.2976365857 -0.8838114261 -0.5011422151
N  -2.0107931700 -1.3655252149 -0.2295724941
O  -1.6685301795  1.6294242219 -0.3996515500
H  -2.2606700668  0.8716167644 -0.4807464126
H   0.0266031642 -0.6758774233 -1.4560819922
H  -0.6094620177 -1.3680780890  1.3379136715
H   0.6915374301  0.9171291859  0.2798401217
H  -2.5683146376 -2.0513503318  0.2589209189
H  -2.0470475005 -1.5029908651 -1.2301924219
H  -0.3720877125  2.3285577138  0.9900279760
H  -1.6527619337  1.3000609635  1.6792189629
H   2.7642361787  0.2899539586  1.5223691639
H   1.7257969389  0.7296145455 -2.0364199937
H   2.4358793896 -1.4070503191  1.1337892693
H   1.2733883265 -0.4484145023  2.0774412844
H   2.8511345589  1.2966047174 -0.8147899293
H   2.9606801786 -0.3707714107 -1.3898469005
22
Image 7  Energy = -383.5342154950
C  -0.7834806370 -1.0043970424  0.3337773276
C   1.3105476355  0.0496870311 -0.0313753944
C  -0.9990991433  1.4214493055  0.8249979664
C   1.9838401291 -0.4207763707  1.2462268564
C   2.2691157661  0.4316788155 -1.1354759831
N   0.2984752060 -0.8843849378 -0.5009510481
N  -2.0099585051 -1.3639369845 -0.2290535574
O  -1.6696013187  1.6293404354 -0.3992432587
H  -2.2615202582  0.8716101915 -0.4819798853
H   0.0265236704 -0.6754505609 -1.4556040104
H  -0.6094566880 -1.3676754041  1.3373355786
H   0.6936368352  0.9169555610  0.2785303492
H  -2.5671675739 -2.0501164150  0.2593492253
H  -2.0458847036 -1.5025899269 -1.2295020237
H  -0.3727459074  2.3233193791  0.9897441603
H  -1.6555319932  1.3006899965  1.6801467098
H   2.7643391700  0.2897411619  1.5223260157
H   1.7259387601  0.7294157733 -2.0362944980
H   2.4360191318 -1.4073490450  1.1336767786
H   1.2734911152 -0.4486360676  2.0768434590
H   2.8514367614  1.2963213338 -0.8148978185
H   2.9609895414 -0.3712562282 -1.3901119476
22
Image 8  Energy = -383.5350304533
C  -0.7843250769 -0.9962278357  0.3357784688
C   1.3113023040  0.0495038788 -0.0318479141
C  -1.0018137556  1.4169095442  0.8248278688
C   1.9842070760 -0.4210048095  1.2459284518
C   2.2697661098  0.4313843907 -1.1357756520
N   0.2992338000 -0.8848606451 -0.5007119852
N  -2.0092421321 -1.3621902136 -0.2285230002
O  -1.6707437763  1.6292301592 -0.3988019094
H  -2.2624575903  0.8715793854 -0.4832933622
H   0.0264712499 -0.6750198553 -1.4551031382
H  -0.6094678816 -1.3671644300  1.3367865724
H   0.6958208465  0.9168449119  0.2772026165
H  -2.5659651495 -2.0488443952  0.2598160637
H  -2.0446603278 -1.5021644153 -1.2287986335
H  -0.3733184958  2.3178915753  0.9894759825
H  -1.6583112330  1.3012272664  1.6809969681
H   2.7644732186  0.2895371992  1.5222943078
H   1.7260907906  0.7292151723 -2.0361939834
H   2.4361662284 -1.4076514249  1.1335571587
H   1.2735915974 -0.4488645447  2.0762534662
H   2.8517770044  1.2960520637 -0.8150141426
H   2.9613121873 -0.3717429778 -1.3903892006
22
Image 9  Energy = -383.5358488813
C  -0.7851760307 -0.9882437767  0.3377681715
C   1.3120451236  0.0493405339 -0.0323023901
C  -1.0045543297  1.4123564371  0.8246321226
C   1.9845854365 -0.4212249719  1.2456427254
C   2.2704191929  0.4310987012 -1.1360766655
N   0.2999196433 -0.8852524874 -0.5004305467
N  -2.0086386875 -1.3602911312 -0.2279794680
O  -1.6719509378  1.6290898059 -0.3983316962
H  -2.2634756706  0.8715283499 -0.4846801040
H   0.0264416516 -0.6745847831 -1.4545835674
H  -0.6094970524 -1.3665484166  1.3362683681
H   0.6980853440  0.9168034364  0.2758606550
H  -2.5647139913 -2.0475372726  0.2603161176
H  -2.0433785691 -1.5017171559 -1.2280800665
H  -0.3738044995  2.3122905664  0.9892229457
H  -1.6610963129  1.3016690737  1.6817748993
H   2.7646353168  0.2893401391  1.5222734873
H   1.7262539782  0.7290126019 -2.0361155498
H   2.4363193738 -1.4079546237  1.1334306774
H   1.2736917262 -0.4490996481  2.0756715780
H   2.8521517033  1.2957935058 -0.8151397804
H   2.9616445859 -0.3722288842 -1.3906769100
22
Image 10  Energy = -383.5366726671
C  -0.7860311210 -0.9804309237  0.3397439430
C   1.3127822074  0.0491961969 -0.0327387956
C  -1.0073246299  1.4077874310  0.8244117325
C   1.9849750277 -0.4214374990  1.2453683050
C   2.2710757107  0.4308197671 -1.1363793729
N   0.3005388936 -0.8855707236 -0.5001105704
N  -2.0081419521 -1.3582464306 -0.2274221101
O  -1.6732184114  1.6289182913 -0.3978389010
H  -2.2645694939  0.8714598783 -0.4861342438
H   0.0264310464 -0.6741449403 -1.4540486983
H  -0.6095455250 -1.3658299240  1.3357816837
H   0.7004253882  0.9168352417  0.2745079454
H  -2.5634199177 -2.0461972896  0.2608448692
H  -2.0420433032 -1.5012501769 -1.2273441398
H  -0.3742059409  2.3065288983  0.9889843901
H  -1.6638861935  1.3020133715  1.6824865862
H   2.7648229201  0.2891483638  1.5222631304
H   1.7264289000  0.7288079878 -2.0360567820
H   2.4364777658 -1.4082568045  1.1332975664
H   1.2737932595 -0.4493410128  2.0750978405
H   2.8525577719  1.2955427725 -0.8152754391
H   2.9619845907 -0.3727124725 -1.3909739369
22
Image 11  Energy = -383.5375037908
C  -0.7868885647 -0.9727737074  0.3417043461
C   1.3135180863  0.0490701413 -0.0331576930
C  -1.0101232824  1.4031959870  0.8241679273
C   1.9853755043 -0.4216428243  1.2451042422
C   2.2717360428  0.4305457875 -1.1366840083
N   0.3010967948 -0.8858227626 -0.4997552612
N  -2.0077454414 -1.3560631178 -0.2268502621
O  -1.6745430395  1.6287161516 -0.3973303973
H  -2.2657350566  0.8713759785 -0.4876506503
H   0.0264361395 -0.6737000863 -1.4535008306
H  -0.6096144744 -1.3650109459  1.3353265882
H   0.7028355807  0.9169426987  0.2731476784
H  -2.5620879091 -2.0448259729  0.2613984158
H  -2.0406580867 -1.5007648790 -1.2265888943
H  -0.3745266008  2.3006165930  0.9887596397
H  -1.6666807056  1.3022595570  1.6831377865
H   2.7650339190  0.2889605299  1.5222629236
H   1.7266159148  0.7286012983 -2.0360156105
H   2.4366409719 -1.4085567686  1.1331580351
H   1.2738977057 -0.4495881934  2.0745322086
H   2.8529926092  1.2952975301 -0.8154216404
H   2.9623308862 -0.3731929890 -1.3912795402
22
Image 12  Energy = -383.5383443027
C  -0.7877473032 -0.9652554420  0.3436491170
C   1.3142560076  0.0489616848 -0.0335600286
C  -1.0129463186  1.3985728826  0.8239016604
C   1.9857864094 -0.4218414101  1.2448498695
C   2.2724004306  0.4302752483 -1.1369908142
N   0.3015982159 -0.8860139129 -0.4993671676
N  -2.0074428317 -1.3537484201 -0.2262634183
O  -1.6759223316  1.6284845188 -0.3968125630
H  -2.2669689195  0.8712783958 -0.4892248252
H   0.0264540095 -0.6732500177 -1.4529417194
H  -0.6097049406 -1.3640929732  1.3349025918
H   0.7053103904  0.9171268091  0.2717827351
H  -2.5607220761 -2.0434241641  0.2619733494
H  -2.0392261523 -1.5002621354 -1.2258125671
H  -0.3747713744  2.2945615150  0.9885480066
H  -1.6694799155  1.3024080714  1.6837335319
H   2.7652666097  0.2887755951  1.5222726553
H   1.7268152193  0.7283925167 -2.0359902219
H   2.4368087434 -1.4088536768  1.1330122923
H   1.2740063789 -0.4498406987  2.0739745380
H   2.8534539819  1.2950558319 -0.8155787665
H   2.9626827592 -0.3736702131 -1.3915932522
22
Image 13  Energy = -383.5391963319
C  -0.7886067614 -0.9578585689  0.3455789880
C   1.3149981377  0.0488703937 -0.0339466934
C  -1.0157887163  1.3939073900  0.8236133734
C   1.9862075107 -0.4220335219  1.2446043928
C   2.2730692829  0.4300068376 -1.1373001044
N   0.3020475467 -0.8861480997 -0.4989485310
N  -2.0072278865 -1.3513091701 -0.2256616615
O  -1.6773539700  1.6282246747 -0.3962906725
H  -2.2682680834  0.8711687230 -0.4908528326
H   0.0264821181 -0.6727945414 -1.4523726173
H  -0.6098178135 -1.3630771487  1.3345089209
H   0.7078445010  0.9173874354  0.2704156349
H  -2.5593261203 -2.0419926526  0.2625669701
H  -2.0377504452 -1.4997424344 -1.2250135235
H  -0.3749458768  2.2883696397  0.9883487786
H  -1.6722837592  1.3024600224  1.6842779380
H   2.7655194932  0.2885926755  1.5222921582
H   1.7270268784  0.7281816199 -2.0359790129
H   2.4369809616 -1.4091470273  1.1328605678
H   1.2741202465 -0.4500980443  2.0734248352
H   2.8539399244  1.2948160063 -0.8157471122
H   2.9630398232 -0.3741442035 -1.3919147937
22
Image 14  Energy = -383.5400620294
C  -0.7894671084 -0.9505650987  0.3474953273
C   1.3157460610  0.0487960871 -0.0343188660
C  -1.0186454144  1.3891880903  0.8233031241
C   1.9866383887 -0.4222193878  1.2443672646
C   2.2737427180  0.4297393660 -1.1376120029
N   0.3024489857 -0.8862283325 -0.4985012418
N  -2.0070948434 -1.3487520468 -0.2250448904
O  -1.6788355337  1.6279378078 -0.3957688323
H  -2.2696299575  0.8710484108 -0.4925312411
H   0.0265182256 -0.6723334274 -1.4517944721
H  -0.6099538236 -1.3619643434  1.3341446590
H   0.7104330136  0.9177236205  0.2690485494
H  -2.5579030067 -2.0405317797  0.2631768465
H  -2.0362336417 -1.4992060321 -1.2241904933
H  -0.3750560235  2.2820453936  0.9881611944
H  -1.6750918709  1.3024168561  1.6847742265
H   2.7657913378  0.2884110548  1.5223213079
H   1.7272508600  0.7279686131 -2.0359806412
H   2.4371576306 -1.4094365299  1.1327030577
H   1.2742402066 -0.4503597366  2.0728830065
H   2.8544487999  1.2945767217 -0.8159268706
H   2.9634019878 -0.3746153019 -1.3922440089
22
Image 15  Energy = -383.5254040905
C  -0.7731287966 -1.0668235119  0.3136477923
C   1.3025722035  0.0480267315 -0.0293915338
C  -0.9634463842  1.4790366064  0.8317741664
C   1.9774528917 -0.4196670960  1.2474443827
C   2.2609462978  0.4339651998 -1.1316687334
N   0.3024140539 -0.8930969131 -0.5110702570
N  -1.9978168151 -1.4120327404 -0.2379982034
O  -1.6446637745  1.6365511930 -0.4074776985
H  -2.2359825831  0.8752243606 -0.4541036498
H   0.0238308834 -0.6813847272 -1.4641822995
H  -0.6051825098 -1.3941633730  1.3373624889
H   0.6544833880  0.9032682633  0.2953206833
H  -2.5888505531 -2.0712341726  0.2488111401
H  -2.0701321271 -1.5113599266 -1.2414548956
H  -0.3821385482  2.4168102458  0.9900214005
H  -1.6226472458  1.3141948603  1.6828646132
H   2.7579371334  0.2912004144  1.5205910362
H   1.7217910981  0.7321276552 -2.0337891522
H   2.4332767887 -1.4041971978  1.1363537564
H   1.2718018918 -0.4448592788  2.0819622658
H   2.8415823643  1.2981747995 -0.8114572157
H   2.9558073228 -0.3661213802 -1.3850950815
22
Image 16  Energy = -383.5259905387
C  -0.7728236200 -1.0621173964  0.3169683030
C   1.3030218827  0.0476533405 -0.0299711403
C  -0.9666040942  1.4776431636  0.8313819451
C   1.9778025282 -0.4199427254  1.2471111094
C   2.2614014181  0.4339769971 -1.1317674786
N   0.3016217002 -0.8931529523 -0.5099340318
N  -1.9984239614 -1.4108682096 -0.2384251352
O  -1.6451183892  1.6359158796 -0.4055798851
H  -2.2364873388  0.8754816009 -0.4553617374
H   0.0241486821 -0.6810661617 -1.4635197033
H  -0.6051891141 -1.3931437986  1.3348436748
H   0.6568906476  0.9030981755  0.2938361083
H  -2.5870010129 -2.0699183329  0.2493850272
H  -2.0687209197 -1.5108132976 -1.2405441397
H  -0.3834682554  2.4109297717  0.9896683253
H  -1.6244215895  1.3152714601  1.6828707994
H   2.7581115276  0.2911597408  1.5205006364
H   1.7217528542  0.7319340317 -2.0338223508
H   2.4334223046 -1.4047091779  1.1362684275
H   1.2717234624 -0.4451367110  2.0813451102
H   2.8420469993  1.2982161877 -0.8113906256
H   2.9562212684 -0.3667715742 -1.3853982293
22
Image 17  Energy = -383.5265123343
C  -0.7734992896 -1.0572482604  0.3188487422
C   1.3034508250  0.0472675138 -0.0304280112
C  -0.9697295462  1.4756566256  0.8311769063
C   1.9781615256 -0.4202097015  1.2467996335
C   2.2619139968  0.4338581804 -1.1319733504
N   0.3012788951 -0.8930639078 -0.5090121401
N  -1.9983113511 -1.4091843754 -0.2380883026
O  -1.6457044178  1.6355178180 -0.4041270053
H  -2.2371227135  0.8755501966 -0.4566178094
H   0.0243855413 -0.6807981657 -1.4627564648
H  -0.6050460780 -1.3924314210  1.3334089749
H   0.6592925573  0.9030144423  0.2923791497
H  -2.5853977588 -2.0688221038  0.2500343680
H  -2.0673142282 -1.5103598485 -1.2400365788
H  -0.3844220062  2.4055000507  0.9893772537
H  -1.6263532457  1.3162414299  1.6830279920
H   2.7582810322  0.2910938286  1.5204095523
H   1.7217513527  0.7317417863 -2.0338400440
H   2.4335634943 -1.4051859557  1.1361774306
H   1.2716625403 -0.4454161081  2.0807185451
H   2.8424998400  1.2982319415 -0.8113347533
H   2.9565660159 -0.3673139553 -1.3856790783
22
Image 18  Energy = -383.5270194934
C  -0.7743659894 -1.0522658769  0.3203101312
C   1.3039204130  0.0469173941 -0.0308011263
C  -0.9726926330  1.4732132405  0.8310850363
C   1.9785235997 -0.4204768450  1.2465110100
C   2.2624456024  0.4336777996 -1.1322218393
N   0.3011107152 -0.8929271693 -0.5082592564
N  -1.9981173695 -1.4073388656 -0.2376579844
O  -1.6464985888  1.6352389644 -0.4030422186
H  -2.2378273363  0.8755462374 -0.4578911840
H   0.0245865808 -0.6805448348 -1.4619836525
H  -0.6048711739 -1.3918175208  1.3324452084
H   0.6616727212  0.9030122546  0.2909567386
H  -2.5838796980 -2.0677818442  0.2507129075
H  -2.0658965272 -1.5099194920 -1.2395566877
H  -0.3851125402  2.4003430480  0.9891397317
H  -1.6284597153  1.3171275323  1.6833314492
H   2.7584505445  0.2910093977  1.5203192063
H   1.7217797540  0.7315500184 -2.0338527073
H   2.4337043017 -1.4056354504  1.1360823884
H   1.2716154090 -0.4456963411  2.0800898031
H   2.8429355732  1.2982080888 -0.8112964569
H   2.9568833383 -0.3677997245 -1.3859554860
22
Image 19  Energy = -383.5275262450
C  -0.7752477327 -1.0472030812  0.3216391389
C   1.3044423838  0.0466056254 -0.0311289137
C  -0.9754832636  1.4704048983  0.8310522798
C   1.9788882986 -0.4207446523  1.2462439461
C   2.2629843483  0.4334658077 -1.1324867905
N   0.3010309890 -0.8927652914 -0.5076011152
N  -1.9979485524 -1.4054097607 -0.2372171057
O  -1.6474738103  1.6350423464 -0.4022257107
H  -2.2385961782  0.8754941035 -0.4591939568
H   0.0247616581 -0.6802889628 -1.4612463808
H  -0.6047021867 -1.3912248654  1.3317278951
H   0.6640247156  0.9030831696  0.2895694849
H  -2.5824012919 -2.0667486988  0.2514017639
H  -2.0644712755 -1.5094776900 -1.2390652554
H  -0.3856108020  2.3953409149  0.9889457365
H  -1.6307203069  1.3179464569  1.6837472549
H   2.7586230189  0.2909095763  1.5202315853
H   1.7218332585  0.7313582361 -2.0338644389
H   2.4338470805 -1.4060635772  1.1359839142
H   1.2715786479 -0.4459769253  2.0794643764
H   2.8433564956  1.2981446041 -0.8112778964
H   2.9571914882 -0.3682522224 -1.3862348004
22
Image 20  Energy = -383.5129208019
C  -0.7493897889 -1.2385422418  0.2737505726
C   1.2829489936  0.0419565177 -0.0247638825
C  -0.9004293812  1.6254586284  0.8451017327
C   1.9653075577 -0.4183836398  1.2497683228
C   2.2432843853  0.4408174764 -1.1230952497
N   0.2919698942 -0.8997611170 -0.5201000011
N  -1.9867386432 -1.5036486360 -0.2598824755
O  -1.5912559337  1.6464870316 -0.4099946383
H  -2.1832079810  0.8832968511 -0.4009717399
H   0.0234228548 -0.6953152210 -1.4763300516
H  -0.5945564570 -1.4411388617  1.3247882340
H   0.5840467418  0.8786558572  0.3250505121
H  -2.6229798182 -2.1138872098  0.2322655321
H  -2.1124549610 -1.5271870269 -1.2661678448
H  -0.4039971028  2.5953409149  0.9907594061
H  -1.5491292623  1.3469566873  1.6784046413
H   2.7464377075  0.2960666526  1.5162419335
H   1.7116416961  0.7373554984 -2.0310254140
H   2.4280518513 -1.4010731449  1.1418638473
H   1.2659426388 -0.4386577315  2.0908255794
H   2.8246160376  1.3058975870 -0.8022303882
H   2.9463759395 -0.3570548538 -1.3757935950
22
Image 21  Energy = -383.5137952567
C  -0.7472655056 -1.2345495785  0.2783449126
C   1.2812061293  0.0420704921 -0.0244385614
C  -0.9072135423  1.6249593598  0.8427874019
C   1.9656688028 -0.4187973246  1.2494894730
C   2.2435389329  0.4409033491 -1.1230477595
N   0.2931608564 -0.9018317870 -0.5213593729
N  -1.9917617395 -1.5031210540 -0.2628867708
O  -1.5892375123  1.6461944401 -0.4062591626
H  -2.1825606942  0.8836740299 -0.4010837250
H   0.0235828298 -0.6951634072 -1.4756266550
H  -0.5943445846 -1.4414995574  1.3227399522
H   0.5878093502  0.8798260611  0.3239386310
H  -2.6208040939 -2.1134390960  0.2320738782
H  -2.1107909857 -1.5274015860 -1.2638288654
H  -0.4048640919  2.5925156215  0.9903202221
H  -1.5487977961  1.3484033979  1.6781488745
H   2.7462866111  0.2959717718  1.5159375788
H   1.7114774862  0.7371075564 -2.0308378266
H   2.4279965791 -1.4015395443  1.1418152265
H   1.2658920688 -0.4391198439  2.0901409613
H   2.8246628756  1.3057786137 -0.8020298571
H   2.9462649935 -0.3573018945 -1.3758735243
22
Image 22  Energy = -383.5144051864
C  -0.7480201142 -1.2310190755  0.2805945407
C   1.2797747376  0.0423363107 -0.0243242014
C  -0.9132342144  1.6257208618  0.8409754977
C   1.9658913835 -0.4191755946  1.2492449497
C   2.2435961608  0.4410127308 -1.1228555945
N   0.2951017857 -0.9038227002 -0.5223670541
N  -1.9938800096 -1.5011914319 -0.2632114307
O  -1.5877313377  1.6457469508 -0.4032193657
H  -2.1819431089  0.8839355863 -0.4012740049
H   0.0235851788 -0.6949736566 -1.4751753586
H  -0.5939158510 -1.4422285714  1.3221122347
H   0.5918464319  0.8807948519  0.3226538316
H  -2.6193849251 -2.1136526426  0.2320638962
H  -2.1094371765 -1.5279045126 -1.2633186167
H  -0.4056375766  2.5894421627  0.9897930652
H  -1.5488891978  1.3493263889  1.6783164642
H   2.7461782408  0.2958995128  1.5156406047
H   1.7113356191  0.7368624240 -2.0306641294
H   2.4279349971 -1.4019973145  1.1417113752
H   1.2658889899 -0.4396264185  2.0894952679
H   2.8247606864  1.3057026711 -0.8018333410
H   2.9460862671 -0.3575485130 -1.3758936001
22
Image 23  Energy = -383.5149408430
C  -0.7491289229 -1.2275833483  0.2822227643
C   1.2786995854  0.0426831965 -0.0242473700
C  -0.9187048884  1.6269962870  0.8397610836
C   1.9660502641 -0.4195125956  1.2489935735
C   2.2435754494  0.4411274123 -1.1226179960
N   0.2969300530 -0.9059371452 -0.5232165976
N  -1.9954866370 -1.4988633036 -0.2630416518
O  -1.5866923148  1.6452943254 -0.4009238630
H  -2.1813927907  0.8840684771 -0.4015057601
H   0.0235595754 -0.6947503298 -1.4748394335
H  -0.5934684219 -1.4431107543  1.3219343395
H   0.5960120185  0.8816682148  0.3212539621
H  -2.6181794634 -2.1140490105  0.2320716001
H  -2.1081463776 -1.5285206743 -1.2631729044
H  -0.4062372948  2.5864795415  0.9892320621
H  -1.5492748711  1.3499167401  1.6787428154
H   2.7460909471  0.2958303000  1.5153529384
H   1.7112112318  0.7366251744 -2.0304975458
H   2.4278639587 -1.4024359036  1.1415621677
H   1.2659015336 -0.4401612961  2.0888999392
H   2.8248862381  1.3056510961 -0.8016397085
H   2.9458380961 -0.3577763845 -1.3758593801
22
Image 24  Energy = -383.5154281262
C  -0.7502452418 -1.2242240741  0.2836330686
C   1.2779263677  0.0430131081 -0.0241935119
C  -0.9237716190  1.6284812992  0.8390228476
C   1.9661845955 -0.4198175598  1.2487404564
C   2.2435349821  0.4412416163 -1.1223778305
N   0.2985797139 -0.9080892726 -0.5239626580
N  -1.9969768787 -1.4963629763 -0.2627510141
O  -1.5860100215  1.6448967884 -0.3992331074
H  -2.1809307154  0.8840608989 -0.4017672039
H   0.0235302371 -0.6945107510 -1.4745556043
H  -0.5930431986 -1.4440769460  1.3219321189
H   0.6002164356  0.8824956387  0.3197721641
H  -2.6170535902 -2.1145024815  0.2320532000
H  -2.1068723137 -1.5292062201 -1.2631042584
H  -0.4066489024  2.5837501166  0.9886680622
H  -1.5498949450  1.3502701359  1.6793541239
H   2.7460177430  0.2957564635  1.5150769534
H   1.7110995516  0.7363982684 -2.0303348987
H   2.4277833731 -1.4028491591  1.1413739300
H   1.2659202681 -0.4407145049  2.0883494101
H   2.8250286725  1.3056138787 -0.8014511273
H   2.9455324526 -0.3579842481 -1.3757800836
22
Image 25  Energy = -383.5158797403
C  -0.7513208853 -1.2209440319  0.2849349969
C   1.2773972433  0.0432742506 -0.0241693758
C  -0.9285247988  1.6300434298  0.8386276632
C   1.9663139297 -0.4201013720  1.2484933975
C   2.2435035281  0.4413519876 -1.1221545697
N   0.3000698110 -0.9102099514 -0.5246180758
N  -1.9984279156 -1.4937687372 -0.2624101895
O  -1.5856015366  1.6445619321 -0.3979962623
H  -2.1805548698  0.8839259619 -0.4020553770
H   0.0235019161 -0.6942651238 -1.4742939056
H  -0.5926501275 -1.4450987266  1.3220073002
H   0.6044044232  0.8833025747  0.3182316144
H  -2.6159620174 -2.1149669585  0.2319954551
H  -2.1056027333 -1.5299428756 -1.2630433765
H  -0.4068869391  2.5812799401  0.9881183519
H  -1.5507123875  1.3504463971  1.6801046085
H   2.7459571010  0.2956757801  1.5148145184
H   1.7109971773  0.7361828097 -2.0301749036
H   2.4276957895 -1.4032365391  1.1411526821
H   1.2659418559 -0.4412792756  2.0878361456
H   2.8251826564  1.3055856420 -0.8012689520
H   2.9451857473 -0.3581770964 -1.3756667076
22
Image 26  Energy = -383.5163035930
C  -0.7523530108 -1.2177432601  0.2861692052
C   1.2770639827  0.0434479388 -0.0241788698
C  -0.9330239469  1.6316238398  0.8384721398
C   1.9664475744 -0.4203722992  1.2482570522
C   2.2434950620  0.4414549772 -1.1219572979
N   0.3014223182 -0.9122591952 -0.5251901386
N  -1.9998556512 -1.4911168488 -0.2620396816
O  -1.5854077749  1.6442808205 -0.3970881607
H  -2.1802554584  0.8836837208 -0.4023695308
H   0.0234762537 -0.6940194634 -1.4740366402
H  -0.5922915758 -1.4461611220  1.3221146516
H   0.6085412901  0.8841021928  0.3166496600
H  -2.6148866021 -2.1154228452  0.2318966485
H  -2.1043328968 -1.5307197186 -1.2629665796
H  -0.4069765935  2.5790558466  0.9875917591
H  -1.5516967633  1.3504881372  1.6809576225
H   2.7459092195  0.2955880147  1.5145668239
H   1.7109019257  0.7359791383 -2.0300172659
H   2.4276049903 -1.4036008922  1.1409040524
H   1.2659650807 -0.4418508629  2.0873533340
H   2.8253452966  1.3055631703 -0.8010936562
H   2.9448142482 -0.3583612728 -1.3755300900
22
Image 27  Energy = -383.5167050112
C  -0.7533449113 -1.2146193641  0.2873548099
C   1.2768880757  0.0435338632 -0.0242218644
C  -0.9373106571  1.6331965045  0.8384838478
C   1.9665899591 -0.4206361527  1.2480331887
C   2.2435157882  0.4415469912 -1.1217895962
N   0.3026542992 -0.9142161761 -0.5256854579
N  -2.0012629531 -1.4884281753 -0.2616489981
O  -1.5853858880  1.6440420687 -0.3964133623
H  -2.1800216213  0.8833532072 -0.4027089223
H   0.0234540140 -0.6937772817 -1.4737733183
H  -0.5919674200 -1.4472550268  1.3222307551
H   0.6126050766  0.8849010616  0.3150397531
H  -2.6138190612 -2.1158607429  0.2317591326
H  -2.1030604147 -1.5315289257 -1.2628642964
H  -0.4069451605  2.5770505524  0.9870921206
H  -1.5528206014  1.3504277064  1.6818817280
H   2.7458745707  0.2954934840  1.5143344521
H   1.7108125106  0.7357871045 -2.0298621984
H   2.4275148158 -1.4039462080  1.1406331704
H   1.2659894566 -0.4424259194  2.0868953963
H   2.8255148251  1.3055441105 -0.8009253358
H   2.9444322661 -0.3585426649 -1.3753799693
22
Image 28  Energy = -383.5170872238
C  -0.7543001209 -1.2115692105  0.2885019882
C   1.2768388590  0.0435405235 -0.0242955683
C  -0.9414147624  1.6347499821  0.8386142044
C   1.9667428544 -0.4208965721  1.2478217878
C   2.2435676860  0.4416248718 -1.1216522525
N   0.3037787432 -0.9160710400 -0.5261099086
N  -2.0026493432 -1.4857165125 -0.2612439207
O  -1.5855043326  1.6438360300 -0.3959019737
H  -2.1798435059  0.8829504282 -0.4030722440
H   0.0234354061 -0.6935405597 -1.4734983068
H  -0.5916765797 -1.4483742431  1.3223429110
H   0.6165817695  0.8857021811  0.3134125995
H  -2.6127553740 -2.1162757400  0.2315867204
H  -2.1017839194 -1.5323643189 -1.2627329099
H  -0.4068184430  2.5752335759  0.9866205138
H  -1.5540592394  1.3502904845  1.6828502367
H   2.7458534497  0.2953925176  1.5141175579
H   1.7107282933  0.7356062014 -2.0297100851
H   2.4274288023 -1.4042767790  1.1403445181
H   1.2660148420 -0.4430020483  2.0864578157
H   2.8256901018  1.3055264898 -0.8007639482
H   2.9440517841 -0.3587262444 -1.3752246992
22
Image 29  Energy = -383.5174524649
C  -0.7552215122 -1.2085897860  0.2896166332
C   1.2768922791  0.0434797354 -0.0243959323
C  -0.9453581196  1.6362787061  0.8388307680
C   1.9669066696 -0.4211558781  1.2476218166
C   2.2436506601  0.4416860763 -1.1215446449
N   0.3048054759 -0.9178199748 -0.5264687303
N  -2.0040134712 -1.4829920268 -0.2608284777
O  -1.5857397369  1.6436553080 -0.3955039450
H  -2.1797124868  0.8824886242 -0.4034575968
H   0.0234202719 -0.6933104144 -1.4732089760
H  -0.5914175979 -1.4495140952  1.3224440932
H   0.6204623136  0.8865068183  0.3117769836
H  -2.6116935328 -2.1166649945  0.2313836144
H  -2.1005025905 -1.5332207123 -1.2625716997
H  -0.4066191776  2.5735762611  0.9861766842
H  -1.5553912191  1.3500966824  1.6838414329
H   2.7458459786  0.2952853844  1.5139160155
H   1.7106490995  0.7354356915 -2.0295612999
H   2.4273498876 -1.4045964201  1.1400419265
H   1.2660411855 -0.4435775236  2.0860370319
H   2.8258702392  1.3055083821 -0.8006095029
H   2.9436823540 -0.3589158265 -1.3750711600
22
Image 30  Energy = -383.5178022196
C  -0.7561114296 -1.2056785380  0.2907020697
C   1.2770291456  0.0433638692 -0.0245185584
C  -0.9491568991  1.6377793207  0.8391115205
C   1.9670812487 -0.4214153182  1.2474321090
C   2.2437638487  0.4417286150 -1.1214653395
N   0.3057421958 -0.9194623512 -0.5267665252
N  -2.0053536047 -1.4802627489 -0.2604057588
O  -1.5860742055  1.6434949039 -0.3951837892
H  -2.1796214620  0.8819783313 -0.4038626679
H   0.0234082070 -0.6930874610 -1.4729045400
H  -0.5911889017 -1.4506707796  1.3225306768
H   0.6242409098  0.8873153809  0.3101402320
H  -2.6106326093 -2.1170267160  0.2311540747
H  -2.0992159301 -1.5340935506 -1.2623813605
H  -0.4063667302  2.5720534366  0.9857597694
H  -1.5567984092  1.3498624736  1.6848383039
H   2.7458518910  0.2951720919  1.5137294661
H   1.7105749699  0.7352747258 -2.0294162816
H   2.4272803759 -1.4049083432  1.1397286067
H   1.2660686236 -0.4441510733  2.0856300012
H   2.8260544621  1.3054878681 -0.8004620988
H   2.9433312704 -0.3591141197 -1.3749248759
22
Image 31  Energy = -383.5181374387
C  -0.7569718567 -1.2028334248  0.2917604394
C   1.2772342041  0.0432045037 -0.0246591984
C  -0.9528231908  1.6392490735  0.8394410173
C   1.9672659862 -0.4216756443  1.2472512251
C   2.2439054494  0.4417510656 -1.1214127135
N   0.3065953618 -0.9209991237 -0.5270072392
N  -2.0066680660 -1.4775354960 -0.2599781768
O  -1.5864938738  1.6433514849 -0.3949165996
H  -2.1795645040  0.8814281150 -0.4042849210
H   0.0233986055 -0.6928719865 -1.4725854538
H  -0.5909889203 -1.4518409669  1.3226008553
H   0.6279139671  0.8881278471  0.3085085204
H  -2.6095722591 -2.1173596021  0.2309021795
H  -2.0979236521 -1.5349787270 -1.2621633840
H  -0.4060772689  2.5706437403  0.9853687107
H  -1.5582658249  1.3496008475  1.6858280909
H   2.7458709005  0.2950526542  1.5135574919
H   1.7105062426  0.7351223429 -2.0292752743
H   2.4272219983 -1.4052150789  1.1394072512
H   1.2660972705 -0.4447217691  2.0852343178
H   2.8262422532  1.3054632235 -0.8003218709
H   2.9430041473 -0.3593230623 -1.3747902360
22
Image 32  Energy = -383.5184589807
C  -0.7578044297 -1.2000528721  0.2927934523
C   1.2774952288  0.0430119236 -0.0248139713
C  -0.9563663224  1.6406852487  0.8398079924
C   1.9674601458 -0.4219371987  1.2470778025
C   2.2440737042  0.4417523877 -1.1213848640
N   0.3073704587 -0.9224321733 -0.5271946518
N  -2.0079552513 -1.4748161098 -0.2595479456
O  -1.5869878794  1.6432227880 -0.3946849467
H  -2.1795365804  0.8808451119 -0.4047217568
H   0.0233908143 -0.6926640948 -1.4722527436
H  -0.5908161541 -1.4530216360  1.3226538690
H   0.6314795167  0.8889440209  0.3068871030
H  -2.6085125720 -2.1176627277  0.2306318123
H  -2.0966256567 -1.5358725098 -1.2619195363
H  -0.4057640234  2.5693294593  0.9850024511
H  -1.5597812200  1.3493222136  1.6868015021
H   2.7459025917  0.2949270205  1.5133996034
H   1.7104432700  0.7349775636 -2.0291385961
H   2.4271759566 -1.4055185250  1.1390800689
H   1.2661272647 -0.4452889251  2.0848480002
H   2.8264331847  1.3054328152 -0.8001890142
H   2.9427049263 -0.3595437648 -1.3746706010
22
Image 33  Energy = -383.5187673189
C  -0.7586105117 -1.1973355331  0.2938023250
C   1.2778021156  0.0427949345 -0.0249794905
C  -0.9597936863  1.6420852948  0.8402038052
C   1.9676630577 -0.4222000541  1.2469106960
C   2.2442668021  0.4417321219 -1.1213801226
N   0.3080723464 -0.9237638702 -0.5273321571
N  -2.0092136181 -1.4721097213 -0.2591169589
O  -1.5875473020  1.6431074488 -0.3944766089
H  -2.1795335486  0.8802351529 -0.4051706282
H   0.0233841377 -0.6924637388 -1.4719078133
H  -0.5906691576 -1.4542100375  1.3226897538
H   0.6349368522  0.8897635715  0.3052804400
H  -2.6074538822 -2.1179353769  0.2303465851
H  -2.0953220169 -1.5367715010 -1.2616517982
H  -0.4054378690  2.5680957745  0.9846599733
H  -1.5613346231  1.3490349216  1.6877520602
H   2.7459464166  0.2947950447  1.5132552603
H   1.7103865316  0.7348393752 -2.0290063611
H   2.4271430014 -1.4058200035  1.1387488621
H   1.2661587390 -0.4458520390  2.0844694523
H   2.8266268647  1.3053950775 -0.8000637655
H   2.9424363247 -0.3597768265 -1.3745684773
22
Image 34  Energy = -383.5190630532
C  -0.7593913456 -1.1946802633  0.2947884173
C   1.2781466894  0.0425609946 -0.0251528821
C  -0.9631114820  1.6434466159  0.8406215750
C   1.9678739304 -0.4224640695  1.2467489307
C   2.2444827066  0.4416899906 -1.1213966548
N   0.3087056455 -0.9249968620 -0.5274232815
N  -2.0104420227 -1.4694209826 -0.2586870741
O  -1.5881646866  1.6430046909 -0.3942830306
H  -2.1795519775  0.8796030598 -0.4056291066
H   0.0233779241 -0.6922707959 -1.4715520920
H  -0.5905465612 -1.4554036395  1.3227089189
H   0.6382862160  0.8905861460  0.3036923010
H  -2.6063966824 -2.1181769706  0.2300498117
H  -2.0940128891 -1.5376725874 -1.2613620778
H  -0.4051075446  2.5669305396  0.9843403408
H  -1.5629179407  1.3487456411  1.6886754344
H   2.7460018343  0.2946566204  1.5131239302
H   1.7103364820  0.7347067989 -2.0288787501
H   2.4271235503 -1.4061204711  1.1384150808
H   1.2661918756 -0.4464107481  2.0840972883
H   2.8268231417  1.3053487486 -0.7999463384
H   2.9422001112 -0.3600224420 -1.3744857081
22
Image 35  Energy = -383.5193466439
C  -0.7601479111 -1.1920859167  0.2957528508
C   1.2785219621  0.0423163511 -0.0253317026
C  -0.9663250669  1.6447669753  0.8410557129
C   1.9680920781 -0.4227290333  1.2465915990
C   2.2447195966  0.4416260567 -1.1214328440
N   0.3092746362 -0.9261340766 -0.5274712057
N  -2.0116395099 -1.4667540733 -0.2582597972
O  -1.5888338445  1.6429138404 -0.3940982353
H  -2.1795888489  0.8789530744 -0.4060949502
H   0.0233715151 -0.6920850247 -1.4711871801
H  -0.5904470676 -1.4566001545  1.3227121459
H   0.6415287415  0.8914112385  0.3021258306
H  -2.6053415479 -2.1183870170  0.2297444447
H  -2.0926985589 -1.5385729644 -1.2610523566
H  -0.4047801162  2.5658235719  0.9840426771
H  -1.5645245461  1.3484596676  1.6895688938
H   2.7460683154  0.2945116591  1.5130050990
H   1.7102936093  0.7345788715 -2.0287558281
H   2.4271177304 -1.4064204947  1.1380798872
H   1.2662267642 -0.4469647950  2.0837304872
H   2.8270218928  1.3052926994 -0.7998369705
H   2.9419971493 -0.3602804413 -1.3744235271
22
Image 36  Energy = -383.5196186296
C  -0.7608811814 -1.1895513598  0.2966969532
C   1.2789220954  0.0420661709 -0.0255140185
C  -0.9694392433  1.6460443744  0.8415016396
C   1.9683167556 -0.4229947325  1.2464379884
C   2.2449756771  0.4415407177 -1.1214870359
N   0.3097835360 -0.9271786845 -0.5274790833
N  -2.0128052226 -1.4641125694 -0.2578365481
O  -1.5895493084  1.6428346257 -0.3939180837
H  -2.1796417840  0.8782886007 -0.4065661364
H   0.0233643006 -0.6919061089 -1.4708146068
H  -0.5903694189 -1.4577974812  1.3227002952
H   0.6446661896  0.8922383833  0.3005836774
H  -2.6042892852 -2.1185653068  0.2294332493
H  -2.0913794121 -1.5394701208 -1.2607246472
H  -0.4044612313  2.5647664122  0.9837661535
H  -1.5661490016  1.3481811894  1.6904308913
H   2.7461453666  0.2943601357  1.5128982689
H   1.7102583063  0.7344546911 -2.0286377011
H   2.4271254315 -1.4067203472  1.1377441982
H   1.2662635396 -0.4475140098  2.0833681832
H   2.8272230937  1.3052259518 -0.7997358897
H   2.9418277699 -0.3605505157 -1.3743827216
22
Image 37  Energy = -383.5198794879
C  -0.7615919376 -1.1870753381  0.2976219136
C   1.2793421783  0.0418147132 -0.0256981055
C  -0.9724584831  1.6472772053  0.8419554146
C   1.9685472544 -0.4232608002  1.2462875049
C   2.2452492568  0.4414344495 -1.1215577685
N   0.3102363855 -0.9281340294 -0.5274498983
N  -2.0139387669 -1.4614998159 -0.2574185926
O  -1.5903064011  1.6427666674 -0.3937396895
H  -2.1797086418  0.8776127155 -0.4070408430
H   0.0233556917 -0.6917336585 -1.4704359010
H  -0.5903123858 -1.4589937743  1.3226744943
H   0.6477008696  0.8930670117  0.2990679774
H  -2.6032406105 -2.1187115925  0.2291186022
H  -2.0900558850 -1.5403617995 -1.2603808163
H  -0.4041553527  2.5637519634  0.9835099917
H  -1.5677868449  1.3479134575  1.6912608022
H   2.7462324708  0.2942020241  1.5128029491
H   1.7102309615  0.7343333994 -2.0285244481
H   2.4271463661 -1.4070201276  1.1374087194
H   1.2663023453 -0.4480582948  2.0830096483
H   2.8274268110  1.3051477579 -0.7996432751
H   2.9416916915 -0.3608321171 -1.3743636538
22
Image 38  Energy = -383.5201297008
C  -0.7622810345 -1.1846565248  0.2985289710
C   1.2797780155  0.0415654254 -0.0258826589
C  -0.9753869843  1.6484642300  0.8424137198
C   1.9687829684 -0.4235268901  1.2461396176
C   2.2455386407  0.4413079509 -1.1216436447
N   0.3106370599 -0.9290035483 -0.5273867137
N  -2.0150396264 -1.4589185697 -0.2570071621
O  -1.5911009400  1.6427096885 -0.3935610540
H  -2.1797876767  0.8769279863 -0.4075174732
H   0.0233452103 -0.6915672670 -1.4700523302
H  -0.5902747939 -1.4601873795  1.3226358668
H   0.6506354994  0.8938965617  0.2975804719
H  -2.6021964381 -2.1188259108  0.2288027240
H  -2.0887284812 -1.5412460040 -1.2600226142
H  -0.4038659755  2.5627742492  0.9832734339
H  -1.5694343996  1.3476589669  1.6920586203
H   2.7463291647  0.2940373716  1.5127186766
H   1.7102119315  0.7342141891 -2.0284161046
H   2.4271801260 -1.4073197905  1.1370739653
H   1.2663432198 -0.4485975946  2.0826544026
H   2.8276331817  1.3050575288 -0.7995592955
H   2.9415883049 -0.3611246517 -1.3743663924
22
Image 39  Energy = -383.5242439948
C  -0.7766590736 -1.1321078501  0.3182954659
C   1.2930140067  0.0343854878 -0.0308557043
C  -1.0363360938  1.6735326786  0.8549804610
C   1.9749856277 -0.4299176905  1.2430358716
C   2.2541564236  0.4366125199 -1.1253170808
N   0.3148477011 -0.9419719633 -0.5223132767
N  -2.0387916978 -1.3991263007 -0.2473588119
O  -1.6144590900  1.6423606816 -0.3905655982
H  -2.1833199977  0.8589842952 -0.4195363056
H   0.0231125115 -0.6881832731 -1.4601544385
H  -0.5912736635 -1.4888802711  1.3204574374
H   0.7118939783  0.9138027024  0.2637751070
H  -2.5775655110 -2.1190836717  0.2204605468
H  -2.0568062181 -1.5623379873 -1.2498519800
H  -0.3967203281  2.5448548958  0.9794413901
H  -1.6108483114  1.3414898369  1.7089311544
H   2.7495249301  0.2896193047  1.5117314999
H   1.7103046481  0.7317981798 -2.0262094489
H   2.4290212462 -1.4143323699  1.1289302419
H   1.2674466512 -0.4610549647  2.0747207329
H   2.8327458454  1.3022174800 -0.7981930913
H   2.9416333623 -0.3690216645 -1.3759391955
22
Image 40  Energy = -383.5243635003
C  -0.7765603091 -1.1313300805  0.3194411964
C   1.2930543582  0.0348312466 -0.0307929555
C  -1.0375478811  1.6738165941  0.8548669804
C   1.9752835249 -0.4301480461  1.2428785294
C   2.2546708733  0.4360278465 -1.1256241472
N   0.3143309606 -0.9409709209 -0.5216815788
N  -2.0393063478 -1.3985924050 -0.2481365086
O  -1.6155832010  1.6424129565 -0.3896960530
H  -2.1833749452  0.8585796809 -0.4198253569
H   0.0229867975 -0.6881196675 -1.4598397954
H  -0.5917270512 -1.4895304233  1.3197440455
H   0.7126438636  0.9144484685  0.2632123058
H  -2.5764698320 -2.1178576255  0.2202552177
H  -2.0554382078 -1.5624337752 -1.2484171368
H  -0.3976275203  2.5435767805  0.9795901291
H  -1.6121048055  1.3419672615  1.7087098828
H   2.7498109386  0.2892916272  1.5118696427
H   1.7105307710  0.7316349624 -2.0262233047
H   2.4293625807 -1.4146691243  1.1287104599
H   1.2675604435 -0.4614573080  2.0743485935
H   2.8330200194  1.3017301903 -0.7983462401
H   2.9423919172 -0.3695681841 -1.3765789295
22
Image 41  Energy = -383.5244645974
C  -0.7768001402 -1.1304651426  0.3200618162
C   1.2932248983  0.0351668456 -0.0307899895
C  -1.0388440437  1.6738827290  0.8549129671
C   1.9755627358 -0.4303621885  1.2427200485
C   2.2551496042  0.4354582156 -1.1259045564
N   0.3138763460 -0.9400066310 -0.5210526095
N  -2.0393486328 -1.3976804083 -0.2482211119
O  -1.6167089305  1.6425512638 -0.3890526244
H  -2.1834819547  0.8581036448 -0.4200928292
H   0.0228407592 -0.6880498937 -1.4595146057
H  -0.5921168127 -1.4902892515  1.3193560633
H   0.7133723792  0.9151631795  0.2626920400
H  -2.5756016719 -2.1168641447  0.2201629713
H  -2.0541005222 -1.5626497561 -1.2476250876
H  -0.3983869069  2.5425086557  0.9797482596
H  -1.6133619994  1.3424272539  1.7085296758
H   2.7500967888  0.2889639064  1.5120092290
H   1.7107695999  0.7314618210 -2.0262474273
H   2.4296819628 -1.4149745086  1.1284755294
H   1.2676763403 -0.4618614876  2.0739939335
H   2.8333119117  1.3012418574 -0.7985096471
H   2.9430952382 -0.3700859053 -1.3771870665
22
Image 42  Energy = -383.5245600300
C  -0.7770670651 -1.1295476113  0.3205890310
C   1.2934552344  0.0354537815 -0.0308037049
C  -1.0401228676  1.6738401367  0.8550212941
C   1.9758346668 -0.4305668091  1.2425628912
C   2.2556107282  0.4349013441 -1.1261757478
N   0.3134503742 -0.9390869528 -0.5204780010
N  -2.0392789258 -1.3966346596 -0.2481547043
O  -1.6178598077  1.6427172832 -0.3885627888
H  -2.1836144171  0.8576048664 -0.4203513211
H   0.0226905892 -0.6879722344 -1.4591856693
H  -0.5924803635 -1.4910742828  1.3190822417
H   0.7141027677  0.9159038738  0.2622001583
H  -2.5748533810 -2.1159851361  0.2201451722
H  -2.0527838109 -1.5628987188 -1.2470639107
H  -0.3990652798  2.5415586659  0.9799148350
H  -1.6146566774  1.3428576438  1.7084230309
H   2.7503816758  0.2886361830  1.5121496476
H   1.7110186100  0.7312794032 -2.0262795029
H   2.4299831188 -1.4152535955  1.1282292767
H   1.2677921025 -0.4622658328  2.0736526749
H   2.8336182197  1.3007514727 -0.7986810372
H   2.9437514575 -0.3705787662 -1.3777688879
22
Image 43  Energy = -383.5246521508
C  -0.7773040111 -1.1285903979  0.3211094785
C   1.2937163097  0.0357148815 -0.0308262298
C  -1.0413644154  1.6737294205  0.8551509680
C   1.9761018637 -0.4307643726  1.2424089355
C   2.2560605339  0.4343588471 -1.1264414955
N   0.3130529050 -0.9382094312 -0.5199444051
N  -2.0391948571 -1.3955439675 -0.2480590787
O  -1.6190283225  1.6428956919 -0.3881734484
H  -2.1837666675  0.8570950330 -0.4206067644
H   0.0225358721 -0.6878833922 -1.4588641497
H  -0.5928251737 -1.4918645272  1.3188686173
H   0.7148431388  0.9166514563  0.2617297835
H  -2.5741760587 -2.1151622024  0.2201721283
H  -2.0514836099 -1.5631563161 -1.2466111212
H  -0.3996936077  2.5406839066  0.9800877929
H  -1.6159904847  1.3432613527  1.7083841418
H   2.7506657439  0.2883089967  1.5122907482
H   1.7112757832  0.7310886581 -2.0263190968
H   2.4302691727 -1.4155112392  1.1279734938
H   1.2679075363 -0.4626695116  2.0733224410
H   2.8339376794  1.3002593493 -0.7988596805
H   2.9443676195 -0.3710521818 -1.3783280788
22
Image 44  Energy = -383.5255513443
C  -0.7790429533 -1.1186459737  0.3278487296
C   1.2976668224  0.0377203956 -0.0313961558
C  -1.0534598253  1.6738614743  0.8572646663
C   1.9793622817 -0.4331604850  1.2409015705
C   2.2617734913  0.4280689082 -1.1299797622
N   0.3070466113 -0.9270987390 -0.5127301567
N  -2.0401623699 -1.3833227611 -0.2484400573
O  -1.6333390551  1.6447053944 -0.3834903269
H  -2.1858848276  0.8506635394 -0.4241640228
H   0.0211066888 -0.6871250882 -1.4548718955
H  -0.5972117390 -1.5010387334  1.3150274886
H   0.7222103033  0.9248764783  0.2555507677
H  -2.5652041922 -2.1052992129  0.2189714219
H  -2.0367314856 -1.5666100644 -1.2387023952
H  -0.4058803219  2.5323568441  0.9821787388
H  -1.6319897376  1.3469336961  1.7076442581
H   2.7539588483  0.2846938576  1.5139922088
H   1.7138878982  0.7293571819 -2.0266499417
H   2.4337001809 -1.4185810289  1.1250404580
H   1.2691326813 -0.4671507550  2.0697684783
H   2.8372810244  1.2950974157 -0.8006803691
H   2.9516866225 -0.3766622815 -1.3846187239
22
Image 45  Energy = -383.5256712047
C  -0.7799310083 -1.1172015604  0.3277020363
C   1.2977877122  0.0381694105 -0.0313532864
C  -1.0549622841  1.6726807247  0.8573199999
C   1.9795761670 -0.4332780476  1.2407733976
C   2.2619889804  0.4277259352 -1.1301015714
N   0.3074716761 -0.9267273772 -0.5128728558
N  -2.0391386862 -1.3812759937 -0.2470436016
O  -1.6343332041  1.6450837133 -0.3836965838
H  -2.1861646777  0.8501179747 -0.4242830317
H   0.0208311327 -0.6869158777 -1.4546405648
H  -0.5972477532 -1.5020194075  1.3158789097
H   0.7233345238  0.9254096334  0.2552834323
H  -2.5655415076 -2.1053202249  0.2196553865
H  -2.0355997322 -1.5671048539 -1.2402639907
H  -0.4060860081  2.5322046957  0.9824046512
H  -1.6333790051  1.3472744051  1.7080627369
H   2.7542346281  0.2843626595  1.5141411059
H   1.7142662031  0.7290414077 -2.0267789801
H   2.4338424294 -1.4186277554  1.1247184471
H   1.2692665347 -0.4675449164  2.0695141901
H   2.8377548589  1.2945363187 -0.8009630067
H   2.9519359666 -0.3769508015 -1.3849918431
22
Image 46  Energy = -383.5257543665
C  -0.7800600146 -1.1158181033  0.3282397188
C   1.2980146151  0.0384954338 -0.0313633478
C  -1.0560819153  1.6718786566  0.8573720949
C   1.9797723824 -0.4333710988  1.2406454865
C   2.2622379040  0.4273946191 -1.1302313129
N   0.3076620046 -0.9264177633 -0.5128447369
N  -2.0389443018 -1.3799766542 -0.2467714717
O  -1.6354409038  1.6453023235 -0.3838504898
H  -2.1864120006  0.8496746302 -0.4244563162
H   0.0205749119 -0.6866671486 -1.4544854948
H  -0.5973515997 -1.5028065500  1.3162914320
H   0.7243810248  0.9260150494  0.2550432116
H  -2.5655524643 -2.1049087077  0.2201291848
H  -2.0344688124 -1.5673694001 -1.2407995180
H  -0.4065153656  2.5317290334  0.9826036680
H  -1.6348456164  1.3475848896  1.7085043728
H   2.7545133773  0.2840396501  1.5142927064
H   1.7146315476  0.7287342056 -2.0269186327
H   2.4339865281 -1.4186890636  1.1243843201
H   1.2693989982 -0.4679354431  2.0692694329
H   2.8382411852  1.2939989415 -0.8012439721
H   2.9521654607 -0.3772474382 -1.3853453605
22
Image 47  Energy = -383.5258317457
C  -0.7800674534 -1.1144818327  0.3288806817
C   1.2982964541  0.0387478925 -0.0314088366
C  -1.0570900327  1.6712065972  0.8574316542
C   1.9799671092 -0.4334571477  1.2405186019
C   2.2625131737  0.4270685448 -1.1303769181
N   0.3077630603 -0.9261024944 -0.5127142476
N  -2.0389280281 -1.3789403180 -0.2467349144
O  -1.6365493179  1.6454799634 -0.3839267568
H  -2.1866740620  0.8492433697 -0.4246622018
H   0.0203270030 -0.6864044527 -1.4543356085
H  -0.5974675741 -1.5035205271  1.3165593736
H   0.7253786958  0.9266467338  0.2548145502
H  -2.5654303254 -2.1043041727  0.2204877626
H  -2.0333443789 -1.5675677921 -1.2410084798
H  -0.4070355984  2.5311157698  0.9827876181
H  -1.6363130453  1.3478997486  1.7089027128
H   2.7547934750  0.2837240890  1.5144460996
H   1.7149875603  0.7284339200 -2.0270643639
H   2.4341302177 -1.4187565988  1.1240429612
H   1.2695282114 -0.4683211675  2.0690327080
H   2.8387387736  1.2934833726 -0.8015227635
H   2.9523830283 -0.3775534353 -1.3856846583
22
Image 48  Energy = -383.5259068249
C  -0.7800863136 -1.1131877294  0.3295194056
C   1.2986047691  0.0389615631 -0.0314707371
C  -1.0580615284  1.6705821497  0.8575041970
C   1.9801654537 -0.4335424124  1.2403933922
C   2.2628085477  0.4267458267 -1.1305389343
N   0.3078114711 -0.9257674839 -0.5125301025
N  -2.0389191359 -1.3780094709 -0.2467496147
O  -1.6376454947  1.6456357493 -0.3839401635
H  -2.1869519822  0.8488152755 -0.4248908949
H   0.0200883819 -0.6861370704 -1.4541662914
H  -0.5975853564 -1.5041886496  1.3167513570
H   0.7263448119  0.9272817039  0.2545901945
H  -2.5652510770 -2.1036060633  0.2207830783
H  -2.0322302140 -1.5677415247 -1.2410750588
H  -0.4075984432  2.5304320957  0.9829627495
H  -1.6377653979  1.3482248804  1.7092511143
H   2.7550742941  0.2834153288  1.5146007104
H   1.7153364019  0.7281396339 -2.0272146534
H   2.4342734770 -1.4188281839  1.1236970196
H   1.2696544118 -0.4687016984  2.0688015442
H   2.8392457627  1.2929863391 -0.8017996855
H   2.9525941066 -0.3778701977 -1.3860136505
22
Image 49  Energy = -383.5263555082
C  -0.7816916962 -1.1054455011  0.3336917889
C   1.3011568510  0.0389890303 -0.0321201917
C  -1.0671255408  1.6728065401  0.8592938220
C   1.9818252294 -0.4348975256  1.2396152844
C   2.2655677418  0.4241623246 -1.1321164436
N   0.3059144976 -0.9229038868 -0.5094514125
N  -2.0414315468 -1.3691613011 -0.2464608807
O  -1.6446282229  1.6461697135 -0.3819427138
H  -2.1880236164  0.8451040472 -0.4271863958
H   0.0195786342 -0.6855626125 -1.4519407192
H  -0.5992251347 -1.5096507115  1.3150070688
H   0.7338916336  0.9318170510  0.2496659168
H  -2.5599262788 -2.0998869254  0.2195304852
H  -2.0244351251 -1.5705936566 -1.2369930830
H  -0.4093115835  2.5258698737  0.9833722904
H  -1.6468195794  1.3490156231  1.7103138047
H   2.7565042728  0.2817907022  1.5151285144
H   1.7162588758  0.7273379644 -2.0271704999
H   2.4356295365 -1.4204838868  1.1219760562
H   1.2701736587 -0.4712915511  2.0669176012
H   2.8408782308  1.2909670123 -0.8023364995
H   2.9551461045 -0.3805122555 -1.3883288213
22
Image 50  Energy = -383.5264320243
C  -0.7820074676 -1.1042390163  0.3340570528
C   1.3013772243  0.0393129812 -0.0321401904
C  -1.0680952457  1.6717377564  0.8593257820
C   1.9820164636 -0.4349559889  1.2394964516
C   2.2658037736  0.4238635554 -1.1322608847
N   0.3061402326 -0.9225041039 -0.5094218127
N  -2.0408329553 -1.3681021633 -0.2460944190
O  -1.6456984222  1.6463559351 -0.3820814419
H  -2.1883230767  0.8447385906 -0.4273507121
H   0.0192955138 -0.6852722034 -1.4517606752
H  -0.5993034892 -1.5102630110  1.3154070105
H   0.7347818974  0.9323408517  0.2495898228
H  -2.5601036214 -2.0993356249  0.2200567516
H  -2.0233842984 -1.5707482611 -1.2375779041
H  -0.4098402220  2.5253577947  0.9835960003
H  -1.6482073318  1.3494027830  1.7106691477
H   2.7567962039  0.2814713944  1.5153026139
H   1.7166661750  0.7270024108 -2.0273589329
H   2.4357514824 -1.4204927336  1.1216204080
H   1.2703121036 -0.4716519532  2.0667078052
H   2.8414452272  1.2904242065 -0.8026662511
H   2.9553167774 -0.3808031310 -1.3886506507
22
Image 51  Energy = -383.5265025080
C  -0.7820414798 -1.1030550801  0.3346012972
C   1.3016434538  0.0395814338 -0.0321811309
C  -1.0689276338  1.6708179164  0.8593526557
C   1.9822044135 -0.4350088877  1.2393781862
C   2.2660658367  0.4235705775 -1.1324146384
N   0.3062395066 -0.9221243426 -0.5092896421
N  -2.0405335673 -1.3673449606 -0.2460556075
O  -1.6467731750  1.6465025312 -0.3821514780
H  -2.1886411679  0.8443811507 -0.4275508040
H   0.0190262546 -0.6849644274 -1.4515936316
H  -0.5994028282 -1.5107906740  1.3156451801
H   0.7356333634  0.9328899053  0.2495188976
H  -2.5601408656 -2.0985879329  0.2204706327
H  -2.0223417307 -1.5708227052 -1.2378060008
H  -0.4104605184  2.5247014166  0.9838039378
H  -1.6496154251  1.3497821213  1.7110058142
H   2.7570892095  0.2811610845  1.5154773985
H   1.7170609460  0.7266766272 -2.0275547538
H   2.4358755342 -1.4205131634  1.1212590946
H   1.2704481501 -0.4720073369  2.0665028332
H   2.8420191475  1.2899024443 -0.8029933855
H   2.9554795214 -0.3811076286 -1.3889598832
22
Image 52  Energy = -383.5265714409
C  -0.7820299348 -1.1018965750  0.3351651618
C   1.3019328859  0.0398170047 -0.0322328343
C  -1.0697177471  1.6699518627  0.8593887616
C   1.9823951805 -0.4350621108  1.2392615164
C   2.2663463590  0.4232801133 -1.1325803781
N   0.3062831721 -0.9217350621 -0.5091073080
N  -2.0402925722 -1.3666887146 -0.2460904663
O  -1.6478361010  1.6466292568 -0.3821643144
H  -2.1889779730  0.8440223699 -0.4277758242
H   0.0187679442 -0.6846504342 -1.4514119381
H  -0.5995042607 -1.5112725278  1.3158136804
H   0.7364589936  0.9334445783  0.2494472045
H  -2.5601218664 -2.0977573302  0.2208261064
H  -2.0213091744 -1.5708737054 -1.2378972598
H  -0.4111183515  2.5239743696  0.9840023412
H  -1.6510181104  1.3501646358  1.7113048210
H   2.7573822730  0.2808585749  1.5156522639
H   1.7174462910  0.7263591719 -2.0277548924
H   2.4360009252 -1.4205416560  1.1208943771
H   1.2705817397 -0.4723574581  2.0663013287
H   2.8425989936  1.2893994417 -0.8033179581
H   2.9556382798 -0.3814257366 -1.3892594176
22
Image 53  Energy = -383.5266395589
C  -0.7820234031 -1.1007612117  0.3357183575
C   1.3022337004  0.0400344460 -0.0322887285
C  -1.0704930628  1.6691053260  0.8594364508
C   1.9825903836 -0.4351177899  1.2391469501
C   2.2666403508  0.4229916928 -1.1327567146
N   0.3062940865 -0.9213306161 -0.5088963275
N  -2.0400496446 -1.3660692780 -0.2461385978
O  -1.6488884670  1.6467389901 -0.3821341089
H  -2.1893296714  0.8436640993 -0.4280202442
H   0.0185194307 -0.6843331221 -1.4512106367
H  -0.5996037780 -1.5117195621  1.3159392823
H   0.7372664175  0.9339957033  0.2493723618
H  -2.5600775132 -2.0968861223  0.2211470069
H  -2.0202869935 -1.5709172459 -1.2379202957
H  -0.4117920694  2.5232059917  0.9841945957
H  -1.6524117377  1.3505509399  1.7115690749
H   2.7576749529  0.2805629741  1.5158268616
H   1.7178241165  0.7260490715 -2.0279579773
H   2.4361275532 -1.4205767860  1.1205275804
H   1.2707134577 -0.4727023934  2.0661020032
H   2.8431834429  1.2889122619 -0.8036406628
H   2.9557953941 -0.3817572999 -1.3895512574
22
Image 54  Energy = -383.5271702563
C  -0.7819637446 -1.0934960623  0.3403504033
C   1.3046003518  0.0420638853 -0.0326210007
C  -1.0761899385  1.6633652482  0.8598288057
C   1.9844316440 -0.4358562385  1.2381691226
C   2.2696683981  0.4197870168 -1.1346853496
N   0.3044466444 -0.9153471777 -0.5056793521
N  -2.0378924861 -1.3619154891 -0.2474228184
O  -1.6581576138  1.6476382351 -0.3804871796
H  -2.1918755523  0.8406395641 -0.4300890343
H   0.0166816615 -0.6822989724 -1.4491710533
H  -0.6014015753 -1.5153979402  1.3151396957
H   0.7418942523  0.9386825226  0.2484901499
H  -2.5580898959 -2.0884844289  0.2228262568
H  -2.0113930995 -1.5710813078 -1.2353552177
H  -0.4180055233  2.5164892389  0.9859972597
H  -1.6634597539  1.3541517716  1.7121259595
H   2.7601976610  0.2780137556  1.5173634653
H   1.7207702518  0.7238219906 -2.0293718545
H   2.4377296019 -1.4213802675  1.1178099753
H   1.2717905807 -0.4755020606  2.0642437957
H   2.8474731869  1.2847860169 -0.8061213261
H   2.9586519101 -0.3850392280 -1.3928757224
22
Image 55  Energy = -383.5272490505
C  -0.7823620970 -1.0921834438  0.3403300276
C   1.3049025564  0.0422731753 -0.0326496026
C  -1.0771831068  1.6621483666  0.8599683143
C   1.9846441953 -0.4359199188  1.2380754480
C   2.2699432379  0.4195733669 -1.1348568588
N   0.3046068367 -0.9150499115 -0.5055932024
N  -2.0371674984 -1.3607166733 -0.2465854462
O  -1.6590514913  1.6477790123 -0.3804730840
H  -2.1923852733  0.8401977867 -0.4304036702
H   0.0164620680 -0.6819382855 -1.4488415672
H  -0.6013550917 -1.5158197697  1.3155743315
H   0.7427985220  0.9391319427  0.2483997380
H  -2.5583647101 -2.0879255439  0.2232449202
H  -2.0104526386 -1.5713446862 -1.2361618452
H  -0.4184461218  2.5158812672  0.9861725844
H  -1.6648248713  1.3545038374  1.7123737607
H   2.7604767592  0.2777623852  1.5175282729
H   1.7211314269  0.7235279764 -2.0296087601
H   2.4378199992 -1.4213988299  1.1174176898
H   1.2719184051 -0.4758159212  2.0640698149
H   2.8481088666  1.2843740585 -0.8064576924
H   2.9586869865 -0.3854001193 -1.3930581948
22
Image 56  Energy = -383.5273176986
C  -0.7824003095 -1.0909431155  0.3407515287
C   1.3052213237  0.0424623772 -0.0326866120
C  -1.0779803523  1.6611026315  0.8600842670
C   1.9848530721 -0.4359768451  1.2379835285
C   2.2702294665  0.4193587117 -1.1350318211
N   0.3046957770 -0.9147536199 -0.5054593975
N  -2.0368322358 -1.3598764836 -0.2464261235
O  -1.6600263333  1.6478059886 -0.3804431142
H  -2.1928577853  0.8398430888 -0.4307406280
H   0.0162527813 -0.6815587398 -1.4485592920
H  -0.6013473060 -1.5161090043  1.3157621548
H   0.7436697305  0.9395924832  0.2483126882
H  -2.5584916127 -2.0871821924  0.2235890973
H  -2.0095314673 -1.5714649546 -1.2363948014
H  -0.4189899118  2.5151101894  0.9863400980
H  -1.6662373378  1.3548357097  1.7126476342
H   2.7607561044  0.2775142398  1.5176928292
H   1.7214879799  0.7232405341 -2.0298432819
H   2.4379172847 -1.4214308045  1.1170259904
H   1.2720480533 -0.4761259234  2.0638941259
H   2.8487425226  1.2839683647 -0.8067945740
H   2.9587275137 -0.3857725636 -1.3932393185
22
Image 57  Energy = -383.5273850105
C  -0.7823779632 -1.0897391204  0.3412485159
C   1.3055511983  0.0426372910 -0.0327347243
C  -1.0787231074  1.6601097166  0.8601898940
C   1.9850631494 -0.4360326782  1.2378919214
C   2.2705253686  0.4191418562 -1.1352106335
N   0.3047603070 -0.9144383331 -0.5052758643
N  -2.0365936975 -1.3591655795 -0.2464122464
O  -1.6610074014  1.6478037597 -0.3803795864
H  -2.1933319466  0.8395047903 -0.4310913025
H   0.0160462291 -0.6811696173 -1.4482923698
H  -0.6013480830 -1.5163457771  1.3158748840
H   0.7445146119  0.9400558746  0.2482259816
H  -2.5585489190 -2.0863453652  0.2238819046
H  -2.0086178218 -1.5715434959 -1.2364469350
H  -0.4195730778  2.5142631711  0.9865030964
H  -1.6676542653  1.3551653590  1.7129078539
H   2.7610355063  0.2772691955  1.5178572070
H   1.7218409032  0.7229589027 -2.0300748285
H   2.4380194674 -1.4214713973  1.1166359451
H   1.2721785030 -0.4764319662  2.0637179115
H   2.8493745854  1.2835686204 -0.8071321741
H   2.9587734096 -0.3861551352 -1.3934194739
22
Image 58  Energy = -383.5274519281
C  -0.7823598923 -1.0885615870  0.3417490165
C   1.3058871999  0.0428061908 -0.0327870516
C  -1.0794499282  1.6591306737  0.8602937734
C   1.9852763962 -0.4360891916  1.2378000145
C   2.2708292353  0.4189219647 -1.1353940064
N   0.3048078671 -0.9141010900 -0.5050649765
N  -2.0363677045 -1.3585029833 -0.2464300428
O  -1.6619839059  1.6477882717 -0.3802895411
H  -2.1938127890  0.8391715912 -0.4314517312
H   0.0158443011 -0.6807759197 -1.4480240219
H  -0.6013516112 -1.5165488218  1.3159532710
H   0.7453384419  0.9405174364  0.2481382372
H  -2.5585728637 -2.0854617683  0.2241456108
H  -2.0077103607 -1.5716065559 -1.2364224270
H  -0.4201726823  2.5133713590  0.9866636648
H  -1.6690655664  1.3554964260  1.7131474114
H   2.7613148929  0.2770269652  1.5180213537
H   1.7221909940  0.7226824817 -2.0303032561
H   2.4381256990 -1.4215184526  1.1162481166
H   1.2723094751 -0.4767340779  2.0635411054
H   2.8500050265  1.2831739927 -0.8074704379
H   2.9588247301 -0.3865468336 -1.3935991065
22
Image 59  Energy = -383.5272774998
C  -0.7826082572 -1.0911470746  0.3412918187
C   1.3052562367  0.0420442789 -0.0328250982
C  -1.0786966362  1.6639315136  0.8603049576
C   1.9847607796 -0.4361615331  1.2379739545
C   2.2701616700  0.4192044023 -1.1349369125
N   0.3044688795 -0.9151245999 -0.5053765857
N  -2.0385229093 -1.3588296945 -0.2467917625
O  -1.6599691581  1.6480673776 -0.3807410482
H  -2.1919389518  0.8395783346 -0.4304118069
H   0.0164658905 -0.6822599193 -1.4488593043
H  -0.6017525323 -1.5174606270  1.3154716212
H   0.7441995251  0.9398941579  0.2471571610
H  -2.5571070219 -2.0884630763  0.2228818757
H  -2.0094179960 -1.5720937098 -1.2355379360
H  -0.4178986596  2.5163186254  0.9861226849
H  -1.6658208997  1.3541106431  1.7129776446
H   2.7605137411  0.2775600321  1.5174638133
H   1.7210212906  0.7235622869 -2.0292865853
H   2.4379813402 -1.4216606563  1.1174072575
H   1.2719055536 -0.4762165554  2.0638002876
H   2.8477526549  1.2841912810 -0.8061935427
H   2.9591524211 -0.3854054109 -1.3934275157
22
Image 60  Energy = -383.5273458894
C  -0.7827894959 -1.0899684516  0.3415076373
C   1.3055281812  0.0422580846 -0.0328512143
C  -1.0795702425  1.6628346058  0.8603817096
C   1.9849730984 -0.4362160483  1.2378822120
C   2.2704611971  0.4189973094 -1.1351270387
N   0.3045258719 -0.9147987825 -0.5052052763
N  -2.0379910754 -1.3580604489 -0.2463778738
O  -1.6608440020  1.6481343133 -0.3805493762
H  -2.1924360013  0.8392057725 -0.4307464791
H   0.0162500810 -0.6818859573 -1.4485301878
H  -0.6017458959 -1.5177351265  1.3156612835
H   0.7450501948  0.9403145890  0.2471017434
H  -2.5572483721 -2.0876406237  0.2231915007
H  -2.0084987055 -1.5722105034 -1.2358742373
H  -0.4185160286  2.5155175376  0.9862870705
H  -1.6671350819  1.3545128221  1.7131268829
H   2.7607982600  0.2773125451  1.5176361925
H   1.7213806433  0.7232676479 -2.0295425063
H   2.4380757976 -1.4216847866  1.1170099676
H   1.2720324002 -0.4765219327  2.0636306689
H   2.8484116222  1.2837913212 -0.8065348440
H   2.9591945144 -0.3857838114 -1.3936128560
22
Image 61  Energy = -383.5274119966
C  -0.7828082095 -1.0888310228  0.3419375019
C   1.3058265387  0.0424482284 -0.0328878900
C  -1.0803230273  1.6618192250  0.8604729371
C   1.9851819661 -0.4362665369  1.2377912126
C   2.2707608453  0.4187873680 -1.1353155509
N   0.3045578718 -0.9144609962 -0.5050093584
N  -2.0376270275 -1.3574296330 -0.2463087728
O  -1.6617858381  1.6481279582 -0.3803933289
H  -2.1929105723  0.8388881014 -0.4310934027
H   0.0160397595 -0.6815006156 -1.4482280341
H  -0.6017547914 -1.5179375729  1.3157366550
H   0.7458695848  0.9407505381  0.2470493860
H  -2.5573345508 -2.0867547064  0.2234805224
H  -2.0075940571 -1.5722596647 -1.2359312886
H  -0.4191723641  2.5146369041  0.9864489594
H  -1.6684849287  1.3548945479  1.7133030321
H   2.7610822854  0.2770680866  1.5178077251
H   1.7217378967  0.7229792011 -2.0297946025
H   2.4381754290 -1.4217188468  1.1166136794
H   1.2721616074 -0.4768237527  2.0634596009
H   2.8490671151  1.2833957576 -0.8068775097
H   2.9592414258 -0.3861724922 -1.3937964945
22
Image 62  Energy = -383.5274779154
C  -0.7827969867 -1.0877134927  0.3424023415
C   1.3061396806  0.0426266429 -0.0329319843
C  -1.0810367767  1.6608218374  0.8605681510
C   1.9853922986 -0.4363174529  1.2377002412
C   2.2710642977  0.4185737568 -1.1355049597
N   0.3045815917 -0.9141048930 -0.5047871868
N  -2.0373099468 -1.3568473320 -0.2463134486
O  -1.6627401034  1.6481042129 -0.3802441457
H  -2.1933897105  0.8385783001 -0.4314489247
H   0.0158321979 -0.6811083708 -1.4479356200
H  -0.6017659104 -1.5181065852  1.3157793314
H   0.7466655384  0.9411918637  0.2469969781
H  -2.5573910740 -2.0858310650  0.2237485370
H  -2.0066961929 -1.5722902763 -1.2359008573
H  -0.4198361684  2.5137206360  0.9866099501
H  -1.6698468304  1.3552667679  1.7134837758
H   2.7613655621  0.2768263584  1.5179784014
H   1.7220931680  0.7226962802 -2.0300424900
H   2.4382789312 -1.4217595313  1.1162194557
H   1.2722920561 -0.4771218848  2.0632876916
H   2.8497189850  1.2830037205 -0.8072216003
H   2.9592923521 -0.3865694178 -1.3939786614
22
Image 63  Energy = -383.5275438254
C  -0.7827854361 -1.0866098982  0.3428670035
C   1.3064612243  0.0428011401 -0.0329783382
C  -1.0817352797  1.6598223641  0.8606657178
C   1.9856057042 -0.4363698862  1.2376091039
C   2.2713722265  0.4183563832 -1.1356962940
N   0.3045986550 -0.9137306330 -0.5045506103
N  -2.0370030619 -1.3562798816 -0.2463335023
O  -1.6636961088  1.6480731450 -0.3800960249
H  -2.1938770830  0.8382690517 -0.4318114135
H   0.0156287614 -0.6807117281 -1.4476437814
H  -0.6017767830 -1.5182510517  1.3158084154
H   0.7474429607  0.9416335790  0.2469432168
H  -2.5574321246 -2.0848874446  0.2240033100
H  -2.0058039918 -1.5723148444 -1.2358332593
H  -0.4204976094  2.5127825365  0.9867709215
H  -1.6712136358  1.3556328679  1.7136625958
H   2.7616481320  0.2765870776  1.5181482482
H   1.7224466669  0.7224183498 -2.0302862235
H   2.4383858522 -1.4218055320  1.1158277461
H   1.2724234654 -0.4774163629  2.0631148723
H   2.8503672754  1.2826145094 -0.8075670431
H   2.9593471480 -0.3869736661 -1.3941596829
22
Image 64  Energy = -383.5269888230
C  -0.7838069265 -1.0950641539  0.3407114180
C   1.3040682058  0.0405221239 -0.0330500382
C  -1.0796007656  1.6742693609  0.8604592177
C   1.9837806598 -0.4363146670  1.2382948812
C   2.2689563646  0.4197991896 -1.1342205912
N   0.3043554950 -0.9181951832 -0.5063172209
N  -2.0420519766 -1.3571427567 -0.2457228996
O  -1.6572870250  1.6495570627 -0.3809237083
H  -2.1878034468  0.8393703193 -0.4280847647
H   0.0170008246 -0.6855054768 -1.4500271958
H  -0.6030852885 -1.5223062919  1.3153878703
H   0.7451120978  0.9390798913  0.2442632618
H  -2.5547355330 -2.0952507715  0.2206332985
H  -2.0111962445 -1.5738851266 -1.2359412638
H  -0.4141564493  2.5249027628  0.9851869379
H  -1.6604972479  1.3518035228  1.7128808832
H   2.7593160555  0.2780412480  1.5166975039
H   1.7190986121  0.7247182512 -2.0278132077
H   2.4375584037 -1.4215584326  1.1189438798
H   1.2711189933 -0.4760399859  2.0642636575
H   2.8440826457  1.2856628669 -0.8036944125
H   2.9596795015 -0.3828236521 -1.3934624938
22
Image 65  Energy = -383.5270534976
C  -0.7837122057 -1.0940494019  0.3410722903
C   1.3044141251  0.0406506094 -0.0331053298
C  -1.0801847779  1.6735146028  0.8606232663
C   1.9839645485 -0.4363503043  1.2381856537
C   2.2692524224  0.4195870806 -1.1344199638
N   0.3043015721 -0.9178506540 -0.5059999348
N  -2.0417330824 -1.3570488195 -0.2458516899
O  -1.6581989035  1.6495465691 -0.3807182848
H  -2.1882316703  0.8391097338 -0.4283815949
H   0.0167574843 -0.6851420126 -1.4496888012
H  -0.6030947026 -1.5225270016  1.3153742265
H   0.7457791911  0.9396006719  0.2443381196
H  -2.5547591327 -2.0940671266  0.2208237510
H  -2.0102846476 -1.5737865935 -1.2357405910
H  -0.4151531952  2.5238423590  0.9853188209
H  -1.6616984319  1.3523065025  1.7129575674
H   2.7595981277  0.2778008352  1.5168840530
H   1.7194696037  0.7244150972 -2.0281134775
H   2.4376582854 -1.4216099968  1.1185252576
H   1.2712425117 -0.4763414174  2.0640974008
H   2.8447786486  1.2852732910 -0.8040480813
H   2.9597411858 -0.3832339223 -1.3936676429
22
Image 66  Energy = -383.5271168930
C  -0.7836972421 -1.0930728840  0.3414703807
C   1.3047293000  0.0408196163 -0.0331456305
C  -1.0808370171  1.6726535627  0.8607411587
C   1.9841648008 -0.4363983704  1.2380838609
C   2.2695582720  0.4193680232 -1.1346265898
N   0.3042832689 -0.9174743854 -0.5057246105
N  -2.0412968258 -1.3567944882 -0.2459398740
O  -1.6591008876  1.6495422111 -0.3805168367
H  -2.1886698030  0.8388422802 -0.4286789493
H   0.0165230014 -0.6847781893 -1.4493441849
H  -0.6031023203 -1.5227227522  1.3153468036
H   0.7464530780  0.9400850122  0.2443970192
H  -2.5548469038 -2.0929897525  0.2210677029
H  -2.0093870546 -1.5737193182 -1.2356199236
H  -0.4160583210  2.5228761708  0.9854648060
H  -1.6629193406  1.3527913647  1.7130626602
H   2.7598761935  0.2775609304  1.5170674245
H   1.7198397315  0.7241168424 -2.0284046193
H   2.4377591346 -1.4216608041  1.1181115853
H   1.2713665386 -0.4766388792  2.0639275631
H   2.8454653671  1.2848815935 -0.8044043222
H   2.9598039844 -0.3836476813 -1.3938704098
22
Image 67  Energy = -383.5271799030
C  -0.7836886526 -1.0921091146  0.3418818794
C   1.3050330098  0.0410082843 -0.0331805929
C  -1.0815041571  1.6717425117  0.8608382683
C   1.9843726089 -0.4364518136  1.2379861144
C   2.2698682793  0.4191467429 -1.1348341459
N   0.3042762148 -0.9170806407 -0.5054534436
N  -2.0408419347 -1.3564745126 -0.2460055700
O  -1.6600075298  1.6495323368 -0.3803294737
H  -2.1891160699  0.8385733267 -0.4289813142
H   0.0162938532 -0.6844092470 -1.4490051696
H  -0.6031082148 -1.5228999575  1.3153173373
H   0.7471259389  0.9405495453  0.2444453912
H  -2.5549547408 -2.0919505179  0.2213271358
H  -2.0084971804 -1.5736687480 -1.2355356551
H  -0.4169096351  2.5219538115  0.9856186655
H  -1.6641631612  1.3532575975  1.7131926321
H   2.7601521935  0.2773222757  1.5172486977
H   1.7202090285  0.7238232947 -2.0286882957
H   2.4378621674 -1.4217139380  1.1177014953
H   1.2714920094 -0.4769330461  2.0637551499
H   2.8461446256  1.2844886755 -0.8047635070
H   2.9598683008 -0.3840667624 -1.3940705847
22
Image 68  Energy = -383.5272426982
C  -0.7836727634 -1.0911506243  0.3422982216
C   1.3053343129  0.0412067025 -0.0332128604
C  -1.0821696008  1.6708027498  0.8609267401
C   1.9845846470 -0.4365076277  1.2378904319
C   2.2701800402  0.4189237681 -1.1350409633
N   0.3042735090 -0.9166732287 -0.5051817419
N  -2.0403932257 -1.3561191195 -0.2460607228
O  -1.6609199575  1.6495162542 -0.3801559014
H  -2.1895716242  0.8383019033 -0.4292903233
H   0.0160697916 -0.6840349319 -1.4486712836
H  -0.6031117023 -1.5230610542  1.3152907994
H   0.7477941514  0.9410022036  0.2444859485
H  -2.5550685752 -2.0909280576  0.2215905374
H  -2.0076134748 -1.5736285176 -1.2354664567
H  -0.4177247643  2.5210524210  0.9857771666
H  -1.6654267412  1.3537076678  1.7133403418
H   2.7604271378  0.2770851561  1.5174284502
H   1.7205774651  0.7235342687 -2.0289654593
H   2.4379676251 -1.4217700675  1.1172944209
H   1.2716190575 -0.4772242437  2.0635808914
H   2.8468178532  1.2840955924 -0.8051253318
H   2.9599337910 -0.3844911103 -1.3942678937
22
Image 69  Energy = -383.5259593076
C  -0.7844169167 -1.1218470571  0.3383395107
C   1.2982201510  0.0361651181 -0.0337808828
C  -1.0758498910  1.7182209165  0.8596887324
C   1.9788074526 -0.4356111736  1.2392910445
C   2.2637620784  0.4216585647 -1.1324917511
N   0.3026338154 -0.9280175176 -0.5082101821
N  -2.0460420924 -1.3700106882 -0.2471350696
O  -1.6494460470  1.6594061776 -0.3793026193
H  -2.1673912780  0.8402137078 -0.4130897978
H   0.0145612043 -0.7006103991 -1.4534552421
H  -0.6111161188 -1.5488800834  1.3142037956
H   0.7429946716  0.9371560593  0.2411964352
H  -2.5522295026 -2.1146162271  0.2139951371
H  -2.0159219920 -1.5741886729 -1.2389497014
H  -0.4162049040  2.5689419484  0.9830706166
H  -1.6339112882  1.3509246413  1.7088631194
H   2.7559677605  0.2777533625  1.5162146106
H   1.7148301594  0.7261424337 -2.0264448578
H   2.4355535005 -1.4190025056  1.1222749958
H   1.2680246706 -0.4768755830  2.0669210328
H   2.8339936088  1.2881325965 -0.7957519980
H   2.9630878638 -0.3714153009 -1.3969816642
22
Image 70  Energy = -383.5260150584
C  -0.7843454140 -1.1209983919  0.3385650649
C   1.2985606023  0.0364377728 -0.0337298406
C  -1.0770450497  1.7173444514  0.8601148987
C   1.9790987058 -0.4357952258  1.2392082047
C   2.2641642100  0.4214564848 -1.1327575261
N   0.3027416449 -0.9277479794 -0.5077678134
N  -2.0455745157 -1.3696275112 -0.2470929823
O  -1.6500684249  1.6593194623 -0.3792318177
H  -2.1678165513  0.8400126143 -0.4133374361
H   0.0144108839 -0.7002677185 -1.4528841340
H  -0.6107718079 -1.5491807485  1.3140908155
H   0.7434037385  0.9376188575  0.2412998315
H  -2.5526238853 -2.1137224359  0.2140863022
H  -2.0151819830 -1.5743302063 -1.2391116113
H  -0.4170338343  2.5685608211  0.9831204673
H  -1.6347135966  1.3515437318  1.7090192700
H   2.7561038880  0.2776426495  1.5163558343
H   1.7151411507  0.7259535513 -2.0267616017
H   2.4356539634 -1.4192772347  1.1217969446
H   1.2681201736 -0.4771191772  2.0666870971
H   2.8346386036  1.2878979661 -0.7961708789
H   2.9630444044 -0.3720814162 -1.3970338243
22
Image 71  Energy = -383.5260680975
C  -0.7842586945 -1.1201886408  0.3389109440
C   1.2988897461  0.0367146685 -0.0336801524
C  -1.0779626742  1.7166961672  0.8603511519
C   1.9793822017 -0.4359592599  1.2391212235
C   2.2645320700  0.4212607014 -1.1330060593
N   0.3028691307 -0.9274498373 -0.5073861875
N  -2.0451650328 -1.3692771077 -0.2471737799
O  -1.6507239103  1.6591949623 -0.3791279199
H  -2.1682541519  0.8398090487 -0.4136067919
H   0.0142689607 -0.6999205820 -1.4523341012
H  -0.6104451130 -1.5494554353  1.3139526965
H   0.7438298939  0.9380574904  0.2413951329
H  -2.5529850430 -2.1128069922  0.2141777987
H  -2.0144452639 -1.5744500895 -1.2391782689
H  -0.4179323406  2.5680631007  0.9831767747
H  -1.6356700864  1.3520677262  1.7093381560
H   2.7562501910  0.2775215897  1.5165010564
H   1.7154640294  0.7257570883 -2.0270596798
H   2.4357547475 -1.4195362186  1.1213256044
H   1.2682218355 -0.4773676765  2.0664528866
H   2.8352814156  1.2876482832 -0.7965965405
H   2.9630049940 -0.3727386697 -1.3970886783
22
Image 72  Energy = -383.5261202166
C  -0.7841744118 -1.1194008373  0.3392819889
C   1.2992122879  0.0369891797 -0.0336374168
C  -1.0787821496  1.7161101101  0.8605269984
C   1.9796592510 -0.4361090710  1.2390301933
C   2.2648800872  0.4210664302 -1.1332389735
N   0.3030024933 -0.9271344158 -0.5070222621
N  -2.0447793081 -1.3689343204 -0.2472803890
O  -1.6513931257  1.6590651182 -0.3790173830
H  -2.1687049822  0.8395913036 -0.4138849105
H   0.0141300146 -0.6995654658 -1.4518129927
H  -0.6101304598 -1.5497214028  1.3138237761
H   0.7442686486  0.9384799258  0.2414848074
H  -2.5533227490 -2.1118767845  0.2142669442
H  -2.0137078322 -1.5745645484 -1.2392148229
H  -0.4188328983  2.5675421596  0.9832387523
H  -1.6366893209  1.3525522123  1.7097070212
H   2.7564065300  0.2773921635  1.5166500020
H   1.7157943647  0.7255551266 -2.0273439599
H   2.4358549279 -1.4197785257  1.1208603981
H   1.2683285955 -0.4776202533  2.0662193885
H   2.8359222490  1.2873859023 -0.7970278868
H   2.9629646928 -0.3733836897 -1.3971440089
22
Image 73  Energy = -383.5261717662
C  -0.7840936106 -1.1186302740  0.3396572187
C   1.2995302548  0.0372597186 -0.0336001026
C  -1.0795595249  1.7155370317  0.8606846064
C   1.9799311962 -0.4362473813  1.2389356878
C   2.2652151692  0.4208711094 -1.1334594857
N   0.3031334352 -0.9268062895 -0.5066704655
N  -2.0444048744 -1.3685882831 -0.2473920787
O  -1.6520726653  1.6589342298 -0.3789072731
H  -2.1691655214  0.8393617803 -0.4141674830
H   0.0139941680 -0.6992028162 -1.4513169745
H  -0.6098267308 -1.5499816998  1.3137092022
H   0.7447171854  0.9388905110  0.2415700228
H  -2.5536433471 -2.1109385155  0.2143559235
H  -2.0129692949 -1.5746777530 -1.2392378912
H  -0.4197181300  2.5670224977  0.9833056603
H  -1.6377401837  1.3530162385  1.7100880244
H   2.7565722490  0.2772555236  1.5168022238
H   1.7161297460  0.7253488138 -2.0276170161
H   2.4359544413 -1.4200048751  1.1204008163
H   1.2684396266 -0.4778761968  2.0659870605
H   2.8365614411  1.2871129151 -0.7974635069
H   2.9629218762 -0.3740159683 -1.3971989059
22
Image 74  Energy = -383.5255733669
C  -0.7840772004 -1.1407840760  0.3387534529
C   1.2957538487  0.0342778755 -0.0338092758
C  -1.0828492169  1.7573937149  0.8621336197
C   1.9767808273 -0.4367817759  1.2395343457
C   2.2618962921  0.4226809002 -1.1329505931
N   0.3040815153 -0.9377188365 -0.5066420085
N  -2.0465333220 -1.3794307745 -0.2491412995
O  -1.6455882686  1.6668411760 -0.3772847949
H  -2.1517136649  0.8395939840 -0.4008715665
H   0.0113146665 -0.7118425723 -1.4505653595
H  -0.6134141695 -1.5776217941  1.3115182047
H   0.7456898601  0.9387730661  0.2391955352
H  -2.5552428627 -2.1260289371  0.2072694525
H  -2.0150868852 -1.5765082162 -1.2437818070
H  -0.4266597629  2.6099387040  0.9805330107
H  -1.6151255332  1.3548585328  1.7096901969
H   2.7532433191  0.2771860089  1.5168128266
H   1.7133594632  0.7260659690 -2.0281706755
H   2.4339596344 -1.4196027506  1.1204935033
H   1.2657755882 -0.4798225004  2.0672142337
H   2.8303949705  1.2894637930 -0.7923598796
H   2.9639477532 -0.3672909604 -1.3991056163
22
Image 75  Energy = -383.5256208160
C  -0.7838770772 -1.1403368232  0.3392075810
C   1.2960515504  0.0346072995 -0.0337312473
C  -1.0836607766  1.7569181901  0.8623723076
C   1.9770813370 -0.4369276259  1.2394120029
C   2.2621939002  0.4224201423 -1.1331216020
N   0.3041427446 -0.9371521915 -0.5061961959
N  -2.0462018098 -1.3791589452 -0.2495208225
O  -1.6462145140  1.6665747166 -0.3772286699
H  -2.1521279780  0.8394469682 -0.4011183574
H   0.0112998748 -0.7114662811 -1.4501145169
H  -0.6129902025 -1.5778720586  1.3112700677
H   0.7458077350  0.9390570482  0.2392932919
H  -2.5555599394 -2.1250376347  0.2071953133
H  -2.0144573251 -1.5766792697 -1.2435445864
H  -0.4275402391  2.6097147856  0.9805820476
H  -1.6159477779  1.3553652453  1.7100747765
H   2.7533839203  0.2770704404  1.5169696687
H   1.7137042431  0.7259195739 -2.0283173560
H   2.4340885535 -1.4198918067  1.1200551932
H   1.2659096561 -0.4800689119  2.0669157354
H   2.8309356019  1.2891775945 -0.7929002460
H   2.9638853753 -0.3680399263 -1.3990888797
22
Image 76  Energy = -383.5256666924
C  -0.7837396263 -1.1398651302  0.3395423683
C   1.2963373549  0.0349271347 -0.0336518756
C  -1.0843990318  1.7565030625  0.8625432943
C   1.9773779812 -0.4370676233  1.2392899867
C   2.2624883789  0.4221603795 -1.1332853069
N   0.3042052813 -0.9366040853 -0.5057859175
N  -2.0458306003 -1.3788365123 -0.2497034784
O  -1.6468054226  1.6663639354 -0.3771416108
H  -2.1525818627  0.8392330644 -0.4013683350
H   0.0112844908 -0.7110866470 -1.4496694603
H  -0.6125717982 -1.5781540901  1.3111021767
H   0.7459516854  0.9393465439  0.2393937855
H  -2.5558803781 -2.1240571672  0.2071304834
H  -2.0138126685 -1.5768795782 -1.2434590861
H  -0.4284318026  2.6094628769  0.9806306312
H  -1.6168202409  1.3558370716  1.7104955886
H   2.7535368031  0.2769484203  1.5171296335
H   1.7140448848  0.7257651573 -2.0284682082
H   2.4342125990 -1.4201545456  1.1196196458
H   1.2660439545 -0.4803196574  2.0666256649
H   2.8314845808  1.2888867411 -0.7934352821
H   2.9638122895 -0.3687688215 -1.3990691907
22
Image 77  Energy = -383.5257117495
C  -0.7836129147 -1.1393884144  0.3398533178
C   1.2966138110  0.0352385921 -0.0335724623
C  -1.0851029094  1.7561049457  0.8626987809
C   1.9776689508 -0.4371999597  1.2391701499
C   2.2627767955  0.4219038142 -1.1334428733
N   0.3042667510 -0.9360750638 -0.5054103866
N  -2.0454561060 -1.3784853522 -0.2498423795
O  -1.6473935751  1.6661677859 -0.3770476462
H  -2.1530477482  0.8389960288 -0.4016176358
H   0.0112689350 -0.7107016118 -1.4492393471
H  -0.6121641356 -1.5784453379  1.3109676351
H   0.7461192146  0.9396410995  0.2394968217
H  -2.5562029572 -2.1230919607  0.2070848085
H  -2.0131600728 -1.5770860902 -1.2434206065
H  -0.4293170672  2.6092065632  0.9806801321
H  -1.6177175990  1.3562919992  1.7109195096
H   2.7537005152  0.2768202499  1.5172919157
H   1.7143822166  0.7256029251 -2.0286216453
H   2.4343334686 -1.4203955601  1.1191864066
H   1.2661791480 -0.4805743491  2.0663431905
H   2.8320409653  1.2885913734 -0.7939648073
H   2.9637311665 -0.3694811479 -1.3990473696
22
Image 78  Energy = -383.5257562416
C  -0.7834856251 -1.1389118531  0.3401594145
C   1.2968828677  0.0355420616 -0.0334951851
C  -1.0857875338  1.7557097483  0.8628511870
C   1.9779539613 -0.4373245183  1.2390529174
C   2.2630586333  0.4216513987 -1.1335949442
N   0.3043279719 -0.9355637357 -0.5050605431
N  -2.0450896530 -1.3781178240 -0.2499708765
O  -1.6479856326  1.6659758953 -0.3769507598
H  -2.1535179171  0.8387478942 -0.4018648640
H   0.0112519523 -0.7103101345 -1.4488282633
H  -0.6117679024 -1.5787396648  1.3108530248
H   0.7463078726  0.9399401866  0.2396019917
H  -2.5565235516 -2.1221365029  0.2070557919
H  -2.0125014803 -1.5772930067 -1.2434006588
H  -0.4301912631  2.6089524278  0.9807309626
H  -1.6186309686  1.3567361773  1.7113364800
H   2.7538737783  0.2766863551  1.5174559554
H   1.7147165265  0.7254333606 -2.0287768180
H   2.4344521484 -1.4206178164  1.1187552591
H   1.2663152659 -0.4808325206  2.0660681713
H   2.8326038526  1.2882917411 -0.7944888431
H   2.9636435514 -0.3701791405 -1.3990238908
22
Image 79  Energy = -383.5258934720
C  -0.7818660883 -1.1560055162  0.3455460641
C   1.2972405534  0.0367772572 -0.0329178220
C  -1.1040755473  1.8006623642  0.8677918594
C   1.9788368225 -0.4402569195  1.2377510481
C   2.2643891978  0.4192240296 -1.1362517761
N   0.3060448338 -0.9405941598 -0.4983509391
N  -2.0413344332 -1.3846936185 -0.2543681772
O  -1.6524885008  1.6737938041 -0.3724776306
H  -2.1388267360  0.8343275586 -0.3894036662
H   0.0063454023 -0.7201216131 -1.4403362903
H  -0.6114901741 -1.6203209972  1.3059092904
H   0.7537553475  0.9465030863  0.2373636833
H  -2.5625962242 -2.1242124827  0.1983820706
H  -2.0015013811 -1.5825812002 -1.2480278738
H  -0.4547751173  2.6570169138  0.9785837120
H  -1.6075259487  1.3675619265  1.7166242049
H   2.7531086022  0.2735939470  1.5204828427
H   1.7172927439  0.7228222217 -2.0328579703
H   2.4341777932 -1.4238387337  1.1111370619
H   1.2652296032 -0.4883815632  2.0629270393
H   2.8350987333  1.2854085357 -0.7963626406
H   2.9648673045 -0.3730440332 -1.4026782640
22
Image 80  Energy = -383.5259319360
C  -0.7816243898 -1.1559072129  0.3459365082
C   1.2974406280  0.0370183097 -0.0328391893
C  -1.1045934787  1.8002727241  0.8678726706
C   1.9790960000 -0.4402871557  1.2376362640
C   2.2645353235  0.4189367553 -1.1362646169
N   0.3060227368 -0.9399480912 -0.4982005534
N  -2.0410384508 -1.3841725810 -0.2545367106
O  -1.6530575982  1.6734105968 -0.3724234132
H  -2.1392582546  0.8341610105 -0.3895717769
H   0.0064827440 -0.7196042935 -1.4402306840
H  -0.6110803043 -1.6205242789  1.3057834586
H   0.7537455616  0.9466310420  0.2375065838
H  -2.5628984421 -2.1233035768  0.1983548042
H  -2.0009421362 -1.5828786386 -1.2480090460
H  -0.4555114751  2.6570852742  0.9786365397
H  -1.6083528590  1.3679032387  1.7170398696
H   2.7533674086  0.2734144129  1.5206725463
H   1.7176099573  0.7226446118 -2.0328493098
H   2.4342997596 -1.4238816395  1.1107693095
H   1.2654157496 -0.4886579927  2.0626655262
H   2.8356079317  1.2850324065 -0.7969712656
H   2.9646403794 -0.3737041146 -1.4025116880
22
Image 81  Energy = -383.5259693441
C  -0.7814016277 -1.1557595913  0.3461859774
C   1.2976254760  0.0372670829 -0.0327562438
C  -1.1050894146  1.7999140829  0.8679688834
C   1.9793492262 -0.4403189300  1.2375262061
C   2.2646909965  0.4186601107 -1.1362866861
N   0.3060004869 -0.9393426653 -0.4980282039
N  -2.0407566924 -1.3836806773 -0.2546524638
O  -1.6535743803  1.6731138719 -0.3723507395
H  -2.1397324642  0.8339103376 -0.3897361924
H   0.0066053883 -0.7190849474 -1.4401223245
H  -0.6106661247 -1.6207624346  1.3057236186
H   0.7537587483  0.9467729071  0.2376525879
H  -2.5631855522 -2.1223717518  0.1983226654
H  -2.0003705061 -1.5831722202 -1.2479979520
H  -0.4562772974  2.6571075983  0.9786789382
H  -1.6091761044  1.3682490492  1.7174269423
H   2.7536286739  0.2732378427  1.5208597564
H   1.7179124622  0.7224620693 -2.0328574426
H   2.4344262484 -1.4239271570  1.1103996854
H   1.2655967169 -0.4889335225  2.0624182444
H   2.8361269058  1.2846641336 -0.7975613937
H   2.9644156266 -0.3743643805 -1.4023480364
22
Image 82  Energy = -383.5260062573
C  -0.7811917996 -1.1555934549  0.3463915540
C   1.2978024691  0.0375198249 -0.0326690902
C  -1.1055740742  1.7995705231  0.8680788496
C   1.9795973884 -0.4403512058  1.2374215106
C   2.2648510689  0.4183923761 -1.1363163316
N   0.3059853131 -0.9387669087 -0.4978677673
N  -2.0404832601 -1.3832004093 -0.2547651795
O  -1.6540777063  1.6728416620 -0.3722685640
H  -2.1402151084  0.8336350199 -0.3898958712
H   0.0067194667 -0.7185661070 -1.4400061376
H  -0.6102557046 -1.6210106104  1.3056815741
H   0.7537913272  0.9469292565  0.2378016217
H  -2.5634671319 -2.1214352415  0.1982985698
H  -1.9997929746 -1.5834593961 -1.2479795153
H  -0.4570571899  2.6571031161  0.9787162432
H  -1.6099964158  1.3685983080  1.7177893329
H   2.7538910881  0.2730631887  1.5210442513
H   1.7182028314  0.7222746596 -2.0328796580
H   2.4345561782 -1.4239739387  1.1100283678
H   1.2657737835 -0.4892082765  2.0621837837
H   2.8366543947  1.2843025414 -0.7981345072
H   2.9641928484 -0.3750241184 -1.4021872099
22
Image 83  Energy = -383.5260426666
C  -0.7809908754 -1.1554179395  0.3465790884
C   1.2979748277  0.0377741055 -0.0325805005
C  -1.1060539375  1.7992340706  0.8681958437
C   1.9798410577 -0.4403841099  1.2373220441
C   2.2650138953  0.4181329960 -1.1363518284
N   0.3059788862 -0.9382165374 -0.4977193275
N  -2.0402165499 -1.3827269076 -0.2548800771
O  -1.6545772225  1.6725773216 -0.3721782569
H  -2.1406966352  0.8333516542 -0.3900502678
H   0.0068255785 -0.7180471303 -1.4398857380
H  -0.6098516338 -1.6212611735  1.3056424405
H   0.7538411549  0.9470993801  0.2379533031
H  -2.5637453794 -2.1204978587  0.1982843750
H  -1.9992115893 -1.5837411372 -1.2479559012
H  -0.4578432395  2.6570818848  0.9787508207
H  -1.6108154180  1.3689491496  1.7181321032
H   2.7541538879  0.2728899210  1.5212260253
H   1.7184828592  0.7220825567 -2.0329138130
H   2.4346887253 -1.4240209258  1.1096556727
H   1.2659478266 -0.4894823135  2.0619611283
H   2.8371890639  1.2839462755 -0.7986922776
H   2.9639715110 -0.3756824724 -1.4020290277
22
Image 84  Energy = -383.5265963504
C  -0.7777619383 -1.1654851171  0.3550531417
C   1.3010531360  0.0423168446 -0.0312351407
C  -1.1292818085  1.8320509127  0.8738048329
C   1.9840052263 -0.4436797316  1.2347194984
C   2.2691295027  0.4117493742 -1.1397314235
N   0.3062003156 -0.9334946825 -0.4888966336
N  -2.0335237642 -1.3804356533 -0.2597367325
O  -1.6674562906  1.6765873285 -0.3665600353
H  -2.1340841556  0.8254623714 -0.3820894734
H   0.0033460147 -0.7204113290 -1.4305053986
H  -0.6062146797 -1.6608257290  1.3004592749
H   0.7620660320  0.9562212327  0.2367157497
H  -2.5705027580 -2.1096972181  0.1910370085
H  -1.9802333809 -1.5918056589 -1.2506303757
H  -0.4887812856  2.6953333029  0.9780313522
H  -1.6142563660  1.3830321606  1.7263283605
H   2.7571835370  0.2674679218  1.5262614933
H   1.7246790764  0.7172691294 -2.0369038907
H   2.4366355704 -1.4278519454  1.0984313862
H   1.2672855140 -0.4998447985  2.0559790066
H   2.8460891158  1.2761811786 -0.8070746788
H   2.9643301281 -0.3864988426 -1.4049912176
22
Image 85  Energy = -383.5266284534
C  -0.7775181392 -1.1654721026  0.3551360036
C   1.3011700417  0.0424838531 -0.0311628347
C  -1.1297645950  1.8315408775  0.8739655975
C   1.9841797175 -0.4436309576  1.2346931837
C   2.2692031966  0.4115971720 -1.1397031217
N   0.3062448573 -0.9332209439 -0.4889758330
N  -2.0333694855 -1.3799863152 -0.2598402972
O  -1.6678529347  1.6762274561 -0.3664719893
H  -2.1344755595  0.8252832566 -0.3820778725
H   0.0034754916 -0.7197485452 -1.4306153006
H  -0.6058357805 -1.6609338993  1.3003418884
H   0.7622066676  0.9563479491  0.2369477292
H  -2.5707778882 -2.1087593288  0.1911174681
H  -1.9797347586 -1.5920866438 -1.2505915739
H  -0.4895230001  2.6954188965  0.9780152519
H  -1.6149063836  1.3833774553  1.7264548029
H   2.7575073287  0.2672714537  1.5264296290
H   1.7248412021  0.7170065871 -2.0369522114
H   2.4367658992 -1.4277072683  1.0980834119
H   1.2674729284 -0.5001186866  2.0559066866
H   2.8466835943  1.2758224239 -0.8075491967
H   2.9639143398 -0.3870716375 -1.4046853167
22
Image 86  Energy = -383.5266598598
C  -0.7772988064 -1.1654385043  0.3551659802
C   1.3012822386  0.0426589342 -0.0310845127
C  -1.1301531630  1.8311432778  0.8740586995
C   1.9843532444 -0.4435884080  1.2346641085
C   2.2692769730  0.4114452156 -1.1396843631
N   0.3063003639 -0.9329360108 -0.4890591424
N  -2.0331918112 -1.3795323380 -0.2599415804
O  -1.6682275646  1.6759110128 -0.3663694686
H  -2.1348953147  0.8250477043 -0.3820727941
H   0.0035991982 -0.7190952181 -1.4306935254
H  -0.6054565856 -1.6610550344  1.3002432635
H   0.7623461317  0.9564799573  0.2371750279
H  -2.5710588310 -2.1078311713  0.1912065475
H  -1.9792397791 -1.5923658784 -1.2505470156
H  -0.4903030407  2.6954403410  0.9779985970
H  -1.6156018098  1.3836815212  1.7266392486
H   2.7578241443  0.2670820581  1.5265945032
H   1.7249999785  0.7167452340 -2.0370022736
H   2.4369027503 -1.4275804496  1.0977361217
H   1.2676586866 -0.5003883645  2.0558406552
H   2.8472759761  1.2754710883 -0.8080117354
H   2.9635137624 -0.3876539138 -1.4043902381
22
Image 87  Energy = -383.5266908806
C  -0.7770867559 -1.1653939378  0.3551758420
C   1.3013928790  0.0428402365 -0.0310035200
C  -1.1305117436  1.8307822522  0.8741368211
C   1.9845263440 -0.4435524686  1.2346340191
C   2.2693540625  0.4112929086 -1.1396717474
N   0.3063645394 -0.9326439668 -0.4891412341
N  -2.0330079430 -1.3790814093 -0.2600451569
O  -1.6685991921  1.6756090292 -0.3662685544
H  -2.1353226023  0.8247904564 -0.3820694009
H   0.0037168214 -0.7184483947 -1.4307511874
H  -0.6050806715 -1.6611796675  1.3001459463
H   0.7624843089  0.9566184003  0.2373985269
H  -2.5713400559 -2.1069057774  0.1913009167
H  -1.9787489263 -1.5926433334 -1.2504987250
H  -0.4910895316  2.6954424263  0.9779831391
H  -1.6163127954  1.3839703621  1.7268387900
H   2.7581337782  0.2668986543  1.5267559501
H   1.7251551849  0.7164853448 -2.0370548752
H   2.4370446165 -1.4274683525  1.0973896301
H   1.2678437849 -0.5006542268  2.0557796601
H   2.8478652306  1.2751250130 -0.8084639215
H   2.9631254087 -0.3882424949 -1.4041048167
22
Image 88  Energy = -383.5267215817
C  -0.7768770774 -1.1653418739  0.3551767799
C   1.3015039635  0.0430264712 -0.0309213801
C  -1.1308610753  1.8304343875  0.8742122991
C   1.9846994297 -0.4435228647  1.2346036749
C   2.2694353983  0.4111400426 -1.1396637193
N   0.3064355409 -0.9323471222 -0.4892194762
N  -2.0328222469 -1.3786348408 -0.2601509296
O  -1.6689725748  1.6753123811 -0.3661710471
H  -2.1357506883  0.8245229403 -0.3820662249
H   0.0038283063 -0.7178065080 -1.4307939143
H  -0.6047090981 -1.6613047033  1.3000445952
H   0.7626214404  0.9567635377  0.2376186202
H  -2.5716200012 -2.1059813734  0.1913995507
H  -1.9782624257 -1.5929194770 -1.2504490506
H  -0.4918729604  2.6954386603  0.9779694757
H  -1.6170303197  1.3842518353  1.7270408955
H   2.7584362204  0.2667203354  1.5269139476
H   1.7253072332  0.7162268817 -2.0371098427
H   2.4371904172 -1.4273686654  1.0970440718
H   1.2680288157 -0.5009166455  2.0557228554
H   2.8484510060  1.2747829782 -0.8089068594
H   2.9627474367 -0.3888353237 -1.4038282168
22
Image 89  Energy = -383.5274300720
C  -0.7684201302 -1.1899792552  0.3613320924
C   1.3035666584  0.0497152224 -0.0277900522
C  -1.1573775696  1.8743796241  0.8813376244
C   1.9897567457 -0.4457700046  1.2321779703
C   2.2722478875  0.4040972554 -1.1420412786
N   0.3089142426 -0.9283728631 -0.4828221304
N  -2.0217121111 -1.3794666192 -0.2683711812
O  -1.6822563073  1.6771534065 -0.3584924585
H  -2.1279950806  0.8143917780 -0.3664049950
H   0.0012029755 -0.7146848180 -1.4228093139
H  -0.5951397640 -1.7132538159  1.2922539606
H   0.7690150322  0.9660731845  0.2425779455
H  -2.5875129748 -2.0862959464  0.1831042911
H  -1.9553070228 -1.6049293743 -1.2561747413
H  -0.5407352512  2.7568477517  0.9755852945
H  -1.6174943122  1.4050303987  1.7372192968
H   2.7648303143  0.2587139705  1.5348003612
H   1.7327587883  0.7073080999 -2.0428149746
H   2.4401572672 -1.4282244477  1.0801616866
H   1.2712288754 -0.5156942168  2.0502226457
H   2.8647746676  1.2627526228 -0.8230469107
H   2.9554037289 -0.4061505524 -1.4015386237
22
Image 90  Energy = -383.5274575531
C  -0.7682307261 -1.1897213535  0.3609243602
C   1.3036662958  0.0498279358 -0.0276982740
C  -1.1578552873  1.8740283213  0.8812232860
C   1.9898966165 -0.4458040682  1.2322013525
C   2.2723161544  0.4040155888 -1.1420293451
N   0.3090580776 -0.9282218259 -0.4829192587
N  -2.0217060778 -1.3790169444 -0.2682967966
O  -1.6823666078  1.6769726365 -0.3582189956
H  -2.1282592891  0.8141113511 -0.3662091724
H   0.0013183479 -0.7140050992 -1.4227714152
H  -0.5947659902 -1.7133422602  1.2919629593
H   0.7691628984  0.9662209878  0.2426880585
H  -2.5875722954 -2.0853608953  0.1831368214
H  -1.9550284617 -1.6053253474 -1.2560231646
H  -0.5416142528  2.7566690747  0.9754874137
H  -1.6179417838  1.4053250910  1.7372457255
H   2.7650280184  0.2586089509  1.5348685754
H   1.7327363115  0.7070578130 -2.0428029800
H   2.4403771286 -1.4281861010  1.0798860193
H   1.2714473497 -0.5159006918  2.0503183218
H   2.8652415849  1.2624631259 -0.8232867185
H   2.9549986463 -0.4067748889 -1.4012202648
22
Image 91  Energy = -383.5274836937
C  -0.7680533227 -1.1895248502  0.3606873075
C   1.3037728095  0.0499545807 -0.0276014876
C  -1.1582526229  1.8737270132  0.8811992943
C   1.9900393027 -0.4458389096  1.2322218168
C   2.2723875467  0.4039065533 -1.1420124303
N   0.3092169636 -0.9280501367 -0.4830669136
N  -2.0216392136 -1.3785051246 -0.2683586743
O  -1.6825694968  1.6767071695 -0.3580676306
H  -2.1285029601  0.8138731314 -0.3660260661
H   0.0014347201 -0.7133284352 -1.4227435158
H  -0.5944061850 -1.7133928015  1.2916150339
H   0.7693089673  0.9663642290  0.2427995930
H  -2.5876805723 -2.0844955287  0.1832318037
H  -1.9547661731 -1.6057064560 -1.2558466020
H  -0.5424697738  2.7565116674  0.9753973583
H  -1.6184202617  1.4055870693  1.7373056400
H   2.7652224860  0.2585050982  1.5349360149
H   1.7327190059  0.7068109972 -2.0427915252
H   2.4405937870 -1.4281482063  1.0796144069
H   1.2716683832 -0.5161076112  2.0504092084
H   2.8657070686  1.2621763519 -0.8235253654
H   2.9545961988 -0.4073843990 -1.4009107584
22
Image 92  Energy = -383.5275092254
C  -0.7678755849 -1.1893449250  0.3605004964
C   1.3038835717  0.0500861869 -0.0275067599
C  -1.1586196393  1.8734392275  0.8812009949
C   1.9901836353 -0.4458741105  1.2322396121
C   2.2724618674  0.4037858502 -1.1419910806
N   0.3093774548 -0.9278688646 -0.4832112024
N  -2.0215584837 -1.3779834340 -0.2684446140
O  -1.6828039517  1.6764262623 -0.3579683572
H  -2.1287508068  0.8136267689 -0.3658534529
H   0.0015451684 -0.7126508581 -1.4227320119
H  -0.5940535225 -1.7134356851  1.2912596382
H   0.7694531222  0.9665060424  0.2429126321
H  -2.5878013020 -2.0836458772  0.1833491940
H  -1.9545084155 -1.6060825579 -1.2556873041
H  -0.5432950513  2.7563869919  0.9753146628
H  -1.6189219893  1.4058240173  1.7373920637
H   2.7654143424  0.2584025090  1.5350030861
H   1.7327077036  0.7065661714 -2.0427783581
H   2.4408076925 -1.4281113208  1.0793463063
H   1.2718915881 -0.5163149065  2.0504959543
H   2.8661696842  1.2618885948 -0.8237644862
H   2.9541995746 -0.4079846804 -1.4006105047
22
Image 93  Energy = -383.5275343190
C  -0.7676968565 -1.1891705061  0.3603341973
C   1.3039973501  0.0502201862 -0.0274135478
C  -1.1589712092  1.8731566107  0.8812112622
C   1.9903293801 -0.4459092409  1.2322549229
C   2.2725384963  0.4036587435 -1.1419670384
N   0.3095344298 -0.9276794429 -0.4833495625
N  -2.0214724893 -1.3774642376 -0.2685366911
O  -1.6830546910  1.6761420550 -0.3578958307
H  -2.1290054931  0.8133663479 -0.3656906887
H   0.0016504256 -0.7119734159 -1.4227301010
H  -0.5937060032 -1.7134786291  1.2909094825
H   0.7695957878  0.9666473158  0.2430269757
H  -2.5879264458 -2.0828003029  0.1834796788
H  -1.9542530600 -1.6064544374 -1.2555460662
H  -0.5440931272  2.7562915486  0.9752385337
H  -1.6194414447  1.4060418364  1.7374970059
H   2.7656040314  0.2583012360  1.5350699582
H   1.7327025922  0.7063227814 -2.0427627335
H   2.4410191510 -1.4280756733  1.0790813864
H   1.2721165372 -0.5165224949  2.0505789329
H   2.8666293551  1.2615990727 -0.8240041846
H   2.9538099392 -0.4085779517 -1.4003193824
22
Image 94  Energy = -383.5279409767
C  -0.7615049871 -1.2055376257  0.3620442260
C   1.3051708014  0.0543769825 -0.0250319567
C  -1.1757380833  1.9007643803  0.8854637761
C   1.9934996237 -0.4472638193  1.2311675952
C   2.2738515217  0.3998825063 -1.1430113686
N   0.3126082398 -0.9267922070 -0.4807973916
N  -2.0144694503 -1.3781490202 -0.2740202682
O  -1.6898384252  1.6761920642 -0.3529984229
H  -2.1242156632  0.8069187079 -0.3542059574
H   0.0004911194 -0.7077164779 -1.4179561639
H  -0.5858687055 -1.7453911816  1.2845081000
H   0.7734527800  0.9720740901  0.2472160909
H  -2.5992682583 -2.0686937656  0.1786304190
H  -1.9411572947 -1.6150463265 -1.2591814212
H  -0.5773918015  2.7960169253  0.9728873622
H  -1.6186221391  1.4195194800  1.7438738132
H   2.7696690815  0.2535314271  1.5398838368
H   1.7365486569  0.7000361183 -2.0463638272
H   2.4432834542 -1.4281712959  1.0678919078
H   1.2747469989 -0.5259334181  2.0482846982
H   2.8780400533  1.2539413675 -0.8329913740
H   2.9466190733 -0.4209172887 -1.3968269084
22
Image 95  Energy = -383.5279653343
C  -0.7613406747 -1.2052942895  0.3618220117
C   1.3053097165  0.0544463375 -0.0249440637
C  -1.1761635962  1.9004390782  0.8853791999
C   1.9936471559 -0.4473483291  1.2311944441
C   2.2739626747  0.3997183305 -1.1429603778
N   0.3127132001 -0.9265413281 -0.4808881110
N  -2.0144759274 -1.3776955037 -0.2739832444
O  -1.6900182489  1.6759411143 -0.3528564406
H  -2.1243291527  0.8066938217 -0.3539678421
H   0.0005979871 -0.7070355133 -1.4179500388
H  -0.5855744475 -1.7453686554  1.2839669636
H   0.7735287214  0.9721806618  0.2472363746
H  -2.5991320889 -2.0677773836  0.1786870082
H  -1.9410565739 -1.6154762617 -1.2589949857
H  -0.5782160249  2.7958376914  0.9727830652
H  -1.6189890018  1.4197575776  1.7438891385
H   2.7697869056  0.2534616267  1.5398991760
H   1.7364874195  0.6998206113 -2.0462430111
H   2.4435291328 -1.4281590296  1.0677108581
H   1.2750181648 -0.5261151544  2.0483971462
H   2.8783541784  1.2536211675 -0.8331411723
H   2.9462670758 -0.4214649465 -1.3965693349
22
Image 96  Energy = -383.5279886755
C  -0.7611967468 -1.2050504324  0.3616156696
C   1.3054412460  0.0545291129 -0.0248490464
C  -1.1765319767  1.9001555480  0.8853321482
C   1.9937933447 -0.4474239327  1.2312171340
C   2.2740555322  0.3995470754 -1.1429105329
N   0.3128177465 -0.9262885161 -0.4810065195
N  -2.0144026459 -1.3771715219 -0.2740443997
O  -1.6902311998  1.6756784291 -0.3527792392
H  -2.1244571368  0.8064463111 -0.3537458363
H   0.0007027831 -0.7063570940 -1.4179458416
H  -0.5852769168 -1.7453605716  1.2834624017
H   0.7736149517  0.9722810167  0.2472610061
H  -2.5990675905 -2.0669429818  0.1788130968
H  -1.9409600664 -1.6158921009 -1.2587998124
H  -0.5790175902  2.7956824569  0.9726842427
H  -1.6193867895  1.4199620496  1.7439393609
H   2.7699086240  0.2533938309  1.5399163761
H   1.7364341501  0.6996050649 -2.0461228527
H   2.4437740452 -1.4281513745  1.0675312962
H   1.2752860428 -0.5262991501  2.0485083801
H   2.8786786524  1.2533106381 -0.8332880536
H   2.9459281388 -0.4220122344 -1.3963222141
22
Image 97  Energy = -383.5280114166
C  -0.7610529690 -1.2048023527  0.3614161491
C   1.3055670653  0.0546169366 -0.0247530007
C  -1.1768741061  1.8998868647  0.8853002515
C   1.9939384865 -0.4474942350  1.2312372133
C   2.2741406964  0.3993735061 -1.1428592533
N   0.3129230681 -0.9260353777 -0.4811320139
N  -2.0143178633 -1.3766347387 -0.2741287942
O  -1.6904607982  1.6754141478 -0.3527334127
H  -2.1245983773  0.8061767202 -0.3535382863
H   0.0008030132 -0.7056788124 -1.4179496669
H  -0.5849793382 -1.7453642268  1.2829871224
H   0.7737082413  0.9723796831  0.2472907919
H  -2.5990287072 -2.0661321559  0.1789681426
H  -1.9408608271 -1.6163005163 -1.2586242187
H  -0.5797925413  2.7955581460  0.9725911118
H  -1.6198061457  1.4201430514  1.7440115480
H   2.7700338118  0.2533280181  1.5399352734
H   1.7363869149  0.6993900104 -2.0460050720
H   2.4440171003 -1.4281457080  1.0673530900
H   1.2755514015 -0.5264849474  2.0486178855
H   2.8790094853  1.2530046906 -0.8334340918
H   2.9455989865 -0.4225570804 -1.3960840031
22
Image 98  Energy = -383.5280337152
C  -0.7609073685 -1.2045521745  0.3612240713
C   1.3056891566  0.0547069358 -0.0246574298
C  -1.1772010505  1.8996253105  0.8852760468
C   1.9940830329 -0.4475609550  1.2312554921
C   2.2742230145  0.3991993388 -1.1428065226
N   0.3130284059 -0.9257818009 -0.4812616682
N  -2.0142351492 -1.3761001306 -0.2742220376
O  -1.6907020193  1.6751479550 -0.3527039329
H  -2.1247498174  0.8058902530 -0.3533441823
H   0.0008988530 -0.7050006424 -1.4179604768
H  -0.5846829401 -1.7453765261  1.2825349505
H   0.7738069607  0.9724785158  0.2473258257
H  -2.5990031221 -2.0653298960  0.1791407248
H  -1.9407582333 -1.6167023960 -1.2584683949
H  -0.5805433469  2.7954617035  0.9725032388
H  -1.6202415835  1.4203066681  1.7440975960
H   2.7701619250  0.2532639662  1.5399556105
H   1.7363449975  0.6991756565 -2.0458900389
H   2.4442578186 -1.4281407393  1.0671761535
H   1.2758145777 -0.5266722340  2.0487254640
H   2.8793447426  1.2527010731 -0.8335800501
H   2.9452777426 -0.4230982570 -1.3958536750
22
Image 99  Energy = -383.5288223051
C  -0.7498437395 -1.2257217827  0.3594449838
C   1.3093984390  0.0610779533 -0.0194686859
C  -1.2097712249  1.9422660215  0.8909040037
C   2.0010700068 -0.4513331744  1.2302555235
C   2.2772826744  0.3902939836 -1.1426720503
N   0.3191090934 -0.9210593415 -0.4802952968
N  -2.0058171344 -1.3652899505 -0.2831055870
O  -1.7032286642  1.6706434455 -0.3445453508
H  -2.1173981212  0.7908861612 -0.3308523394
H   0.0018205842 -0.6871966486 -1.4118962722
H  -0.5682591358 -1.7949542251  1.2624869132
H   0.7817834337  0.9819551225  0.2514254896
H  -2.6114913882 -2.0323416368  0.1730455181
H  -1.9212625600 -1.6390399240 -1.2595028298
H  -0.6420246255  2.8558541152  0.9663319272
H  -1.6236200952  1.4418362279  1.7546429861
H   2.7775284020  0.2455017997  1.5465681421
H   1.7393868470  0.6867018570 -2.0471575023
H   2.4523691188 -1.4284021901  1.0486923379
H   1.2846511252 -0.5439800918  2.0478320690
H   2.8994840021  1.2363433800 -0.8475980127
H   2.9287394685 -0.4503991332 -1.3860688266
22
Image 100  Energy = -383.5288458698
C  -0.7497987418 -1.2252402449  0.3590723429
C   1.3094983052  0.0610927970 -0.0193819098
C  -1.2104268821  1.9414041461  0.8911487567
C   2.0011822028 -0.4513801433  1.2302601782
C   2.2773589579  0.3900313921 -1.1426010611
N   0.3190164118 -0.9207308893 -0.4803615633
N  -2.0051500378 -1.3649371318 -0.2836229893
O  -1.7034552667  1.6704471962 -0.3445639106
H  -2.1173903564  0.7906152336 -0.3307098063
H   0.0017925830 -0.6865567916 -1.4119397662
H  -0.5680790414 -1.7949955449  1.2621356532
H   0.7818247690  0.9819675831  0.2515227394
H  -2.6116784055 -2.0318280076  0.1736739441
H  -1.9214033124 -1.6391878975 -1.2593064444
H  -0.6425733395  2.8560182686  0.9662520734
H  -1.6237125916  1.4422087447  1.7543868251
H   2.7776292573  0.2455031649  1.5465583978
H   1.7393921466  0.6865164174 -2.0469895630
H   2.4526036929 -1.4284126920  1.0486507015
H   1.2849255877 -0.5441628307  2.0479452357
H   2.8997460101  1.2360176585 -0.8476228615
H   2.9286045572 -0.4507484595 -1.3860398313
22
Image 101  Energy = -383.5288641993
C  -0.7496979504 -1.2248097653  0.3588418648
C   1.3095878725  0.0611115840 -0.0192972298
C  -1.2107803632  1.9409615464  0.8911678678
C   2.0013037887 -0.4514346234  1.2302723067
C   2.2774401951  0.3897968863 -1.1425278570
N   0.3189884082 -0.9203849555 -0.4804853542
N  -2.0048148064 -1.3647540472 -0.2838384208
O  -1.7037100653  1.6702084422 -0.3445526552
H  -2.1174011038  0.7903264510 -0.3306040429
H   0.0017711854 -0.6859193416 -1.4119763909
H  -0.5679153934 -1.7949968669  1.2617279153
H   0.7818778696  0.9819817336  0.2516199739
H  -2.6116908413 -2.0311132763  0.1741563548
H  -1.9215070705 -1.6393856137 -1.2592901849
H  -0.6432343180  2.8559830495  0.9661788081
H  -1.6239465155  1.4424200309  1.7543527256
H   2.7777272526  0.2455018205  1.5465469183
H   1.7393976059  0.6863329628 -2.0468288735
H   2.4528352076 -1.4284186350  1.0486079232
H   1.2851946415 -0.5443443488  2.0480581123
H   2.9000052068  1.2356861114 -0.8476506679
H   2.9284756992 -0.4511071772 -1.3860119527
22
Image 102  Energy = -383.5288817841
C  -0.7495935521 -1.2244087373  0.3586683917
C   1.3096779958  0.0611364360 -0.0192166318
C  -1.2110414708  1.9406392331  0.8911272165
C   2.0014287141 -0.4514933853  1.2302889203
C   2.2775257107  0.3895783971 -1.1424550780
N   0.3189869149 -0.9200424483 -0.4806261006
N  -2.0045716094 -1.3645962578 -0.2839891996
O  -1.7039735577  1.6699667248 -0.3445421254
H  -2.1174267873  0.7900152401 -0.3305139656
H   0.0017501223 -0.6852801291 -1.4120178840
H  -0.5677518753 -1.7949851048  1.2613098144
H   0.7819409476  0.9819993926  0.2517183585
H  -2.6116685886 -2.0303606630  0.1746035131
H  -1.9215995361 -1.6395988474 -1.2593163628
H  -0.6439126824  2.8559102517  0.9661074462
H  -1.6242309343  1.4425734779  1.7543902501
H   2.7778238339  0.2454987813  1.5465343255
H   1.7394038187  0.6861520660 -2.0466746477
H   2.4530649867 -1.4284228169  1.0485636782
H   1.2854592817 -0.5445249297  2.0481706141
H   2.9002657869  1.2353548231 -0.8476798212
H   2.9283489836 -0.4514695352 -1.3859835677
22
Image 103  Energy = -383.5288989833
C  -0.7494937440 -1.2240255259  0.3585173106
C   1.3097712391  0.0611660571 -0.0191393315
C  -1.2112704166  1.9403536799  0.8910734831
C   2.0015546453 -0.4515542868  1.2303080245
C   2.2776152768  0.3893701557 -1.1423843930
N   0.3189967078 -0.9197089295 -0.4807710032
N  -2.0043639261 -1.3644338207 -0.2841253103
O  -1.7042427347  1.6697255247 -0.3445369955
H  -2.1174622302  0.7896887295 -0.3304337994
H   0.0017282655 -0.6846387850 -1.4120641274
H  -0.5675846528 -1.7949701241  1.2608969974
H   0.7820129903  0.9820212104  0.2518181166
H  -2.6116427900 -2.0296053885  0.1750389705
H  -1.9216864099 -1.6398194336 -1.2593524760
H  -0.6445843895  2.8558412433  0.9660367469
H  -1.6245380491  1.4427008853  1.7544532452
H   2.7779197204  0.2454943916  1.5465211616
H   1.7394112888  0.6859739526 -2.0465261850
H   2.4532936234 -1.4284265532  1.0485178698
H   1.2857199207 -0.5447046637  2.0482825962
H   2.9005294995  1.2350263912 -0.8477097264
H   2.9282226705 -0.4518327421 -1.3859540339
22
Image 104  Energy = -383.5290411992
C  -0.7441418366 -1.2442053927  0.3563952808
C   1.3098573007  0.0625002873 -0.0164077173
C  -1.2303508312  1.9826949767  0.8946702817
C   2.0037688420 -0.4541012160  1.2301506941
C   2.2777152558  0.3845450546 -1.1415634893
N   0.3216056449 -0.9209229709 -0.4806241106
N  -2.0003583459 -1.3638751234 -0.2906664419
O  -1.7080412594  1.6709061829 -0.3399372591
H  -2.1038215081  0.7808497752 -0.3121447655
H   0.0006712099 -0.6804285903 -1.4092077964
H  -0.5614254378 -1.8342108773  1.2479443619
H   0.7862447956  0.9863776441  0.2522276749
H  -2.6174810626 -2.0195649906  0.1706369816
H  -1.9145312658 -1.6526404041 -1.2618464231
H  -0.6797561659  2.9086420562  0.9612166654
H  -1.6144836980  1.4543794685  1.7591463326
H   2.7798252863  0.2419226142  1.5493902507
H   1.7392262252  0.6799578325 -2.0459464591
H   2.4573629840 -1.4287018402  1.0402218724
H   1.2897791040 -0.5548679013  2.0488915227
H   2.9069922596  1.2269008771 -0.8512167807
H   2.9212489437 -0.4625152144 -1.3828632210
22
Image 105  Energy = -383.5290836278
C  -0.7439529659 -1.2437049521  0.3561409120
C   1.3099911676  0.0623862906 -0.0163817083
C  -1.2315500510  1.9811020217  0.8947489858
C   2.0038974136 -0.4541851590  1.2301917373
C   2.2778040933  0.3843744678 -1.1414984885
N   0.3214583064 -0.9206130300 -0.4805195116
N  -2.0001227644 -1.3640693100 -0.2903653695
O  -1.7080488668  1.6706407563 -0.3394086301
H  -2.1035144434  0.7811505321 -0.3119987941
H   0.0006264618 -0.6797905647 -1.4092516650
H  -0.5612744936 -1.8340254830  1.2472806609
H   0.7861600820  0.9863078197  0.2523932380
H  -2.6173789493 -2.0186691075  0.1709770336
H  -1.9147167729 -1.6528144246 -1.2620665883
H  -0.6805867128  2.9084311147  0.9610646774
H  -1.6140419047  1.4553449803  1.7584737652
H   2.7798924574  0.2419442594  1.5493659952
H   1.7392555730  0.6798315271 -2.0457895288
H   2.4575754415 -1.4286939341  1.0402278806
H   1.2900270923 -0.5550299380  2.0489783046
H   2.9072285127  1.2265977730 -0.8512373727
H   2.9211777636 -0.4628733919 -1.3828580785
22
Image 106  Energy = -383.5291098736
C  -0.7438462318 -1.2432442680  0.3559916291
C   1.3100985152  0.0623292124 -0.0163172841
C  -1.2321374508  1.9803352004  0.8946449500
C   2.0040293191 -0.4542621371  1.2302267499
C   2.2779009117  0.3841821551 -1.1414416247
N   0.3213722699 -0.9202737964 -0.4805793533
N  -1.9998054101 -1.3641471132 -0.2903479001
O  -1.7081277364  1.6704066317 -0.3391073632
H  -2.1033213734  0.7812376704 -0.3118988665
H   0.0005984952 -0.6791724795 -1.4092469347
H  -0.5611025326 -1.8338586459  1.2466688328
H   0.7861077636  0.9862175050  0.2525513527
H  -2.6173722775 -2.0179010607  0.1714074751
H  -1.9149162529 -1.6529549835 -1.2621481224
H  -0.6815741596  2.9079255832  0.9609194992
H  -1.6138695820  1.4559563723  1.7582483884
H   2.7799597045  0.2419636819  1.5493414643
H   1.7392838089  0.6797081509 -2.0456417702
H   2.4577932799 -1.4286961826  1.0402333070
H   1.2902669804 -0.5551917575  2.0490683130
H   2.9074687242  1.2263006189 -0.8512538890
H   2.9210996771 -0.4632181111 -1.3828513983
22
Image 107  Energy = -383.5291317472
C  -0.7437642940 -1.2427902614  0.3558567311
C   1.3101963541  0.0622984420 -0.0162455940
C  -1.2325127785  1.9798199422  0.8945109843
C   2.0041587442 -0.4543369117  1.2302589055
C   2.2780007862  0.3839888300 -1.1413845041
N   0.3213249002 -0.9199372294 -0.4806775812
N  -1.9995113303 -1.3641812186 -0.2904010784
O  -1.7082406781  1.6702107084 -0.3389511930
H  -2.1031954438  0.7811929904 -0.3118195798
H   0.0005690495 -0.6785552027 -1.4092457216
H  -0.5609149878 -1.8337170963  1.2461119852
H   0.7860769831  0.9861249104  0.2527069743
H  -2.6173872850 -2.0171688245  0.1718560284
H  -1.9151106974 -1.6530946028 -1.2622015665
H  -0.6825500035  2.9074222535  0.9607798679
H  -1.6138195787  1.4564060910  1.7582114060
H   2.7800281096  0.2419819714  1.5493173514
H   1.7393123791  0.6795863936 -2.0455007202
H   2.4580143064 -1.4287046129  1.0402373311
H   1.2905016668 -0.5553532607  2.0491603964
H   2.9077119888  1.2260058486 -0.8512694958
H   2.9210182511 -0.4635569131 -1.3828434717
22
Image 108  Energy = -383.5291514041
C  -0.7436923029 -1.2423421749  0.3557252013
C   1.3102926437  0.0622821364 -0.0161732665
C  -1.2328008562  1.9793873692  0.8943823813
C   2.0042854293 -0.4544105360  1.2302894089
C   2.2781019771  0.3837996389 -1.1413267800
N   0.3213006743 -0.9196100184 -0.4807915272
N  -1.9992531881 -1.3641867549 -0.2904775316
O  -1.7083801397  1.6700302302 -0.3388857320
H  -2.1031094428  0.7810710949 -0.3117556437
H   0.0005371016 -0.6779358506 -1.4092533523
H  -0.5607165375 -1.8335946658  1.2455984812
H   0.7860624908  0.9860368933  0.2528616652
H  -2.6174092276 -2.0164531489  0.1723069257
H  -1.9152976934 -1.6532400529 -1.2622499976
H  -0.6834761772  2.9069896749  0.9606456328
H  -1.6138399802  1.4567633659  1.7582680625
H   2.7800974367  0.2419989747  1.5492937789
H   1.7393422050  0.6794658391 -2.0453647672
H   2.4582371045 -1.4287168996  1.0402397367
H   1.2907322329 -0.5555143757  2.0492537637
H   2.9079584457  1.2257131581 -0.8512849000
H   2.9209342453 -0.4638916500 -1.3828340860
22
Image 109  Energy = -383.5291618174
C  -0.7456847310 -1.2291717615  0.3576957331
C   1.3114269474  0.0634996610 -0.0172161539
C  -1.2229973418  1.9525184808  0.8929635064
C   2.0043862434 -0.4529648805  1.2299252391
C   2.2790603968  0.3854992669 -1.1421713673
N   0.3206749243 -0.9164232986 -0.4807044783
N  -2.0009735680 -1.3591575890 -0.2875517306
O  -1.7098022805  1.6673625687 -0.3418676888
H  -2.1157756428  0.7834812692 -0.3232877926
H   0.0021589031 -0.6766155055 -1.4103323122
H  -0.5617579873 -1.8109341776  1.2533306538
H   0.7850043950  0.9854331389  0.2531702480
H  -2.6152904276 -2.0162025104  0.1743848263
H  -1.9149040389 -1.6479953438 -1.2592603294
H  -0.6662331062  2.8745200162  0.9639830622
H  -1.6277627199  1.4500213859  1.7580806325
H   2.7808901400  0.2427551137  1.5487378127
H   1.7405735612  0.6813159629 -2.0463452249
H   2.4567735205 -1.4285530589  1.0422600986
H   1.2894894823 -0.5510268738  2.0480832976
H   2.9080513667  1.2284443835 -0.8526844732
H   2.9225984433 -0.4621641711 -1.3827263018
22
Image 110  Energy = -383.5291787013
C  -0.7456085691 -1.2287681433  0.3575627798
C   1.3115408649  0.0634972455 -0.0171612670
C  -1.2232529682  1.9521716438  0.8928655977
C   2.0045034327 -0.4530364679  1.2299598729
C   2.2791974882  0.3853148231 -1.1421103940
N   0.3206668682 -0.9161320087 -0.4808175531
N  -2.0007592299 -1.3592296890 -0.2876986706
O  -1.7100528169  1.6671246147 -0.3417735440
H  -2.1157405198  0.7832123000 -0.3232439785
H   0.0020783503 -0.6759862021 -1.4103663130
H  -0.5616376103 -1.8108559916  1.2528720311
H   0.7851066337  0.9854476593  0.2533050830
H  -2.6152382844 -2.0154147012  0.1748391841
H  -1.9150756956 -1.6481275785 -1.2592677202
H  -0.6669152963  2.8744065343  0.9639004281
H  -1.6280015004  1.4501818524  1.7580851702
H   2.7809674842  0.2427661658  1.5487089747
H   1.7405946159  0.6811502490 -2.0462198663
H   2.4569866950 -1.4285450019  1.0422482595
H   1.2897412748 -0.5511984439  2.0481992515
H   2.9083013542  1.2281004114 -0.8526752094
H   2.9225039120 -0.4624371945 -1.3827448581
22
Image 111  Energy = -383.5291949762
C  -0.7455500928 -1.2283737606  0.3574277331
C   1.3116532178  0.0635034021 -0.0171016052
C  -1.2234640872  1.9518682493  0.8927896390
C   2.0046213064 -0.4531036479  1.2299912940
C   2.2793161861  0.3851344381 -1.1420553828
N   0.3206675935 -0.9158413314 -0.4809527986
N  -2.0005341021 -1.3592373480 -0.2878264126
O  -1.7103151601  1.6668954699 -0.3417249104
H  -2.1157223462  0.7829124950 -0.3232064766
H   0.0020023343 -0.6753586063 -1.4103924103
H  -0.5615087926 -1.8107872865  1.2524402313
H   0.7852192020  0.9854609495  0.2534372866
H  -2.6152179887 -2.0146665103  0.1753044812
H  -1.9152407098 -1.6482797761 -1.2593075334
H  -0.6675892297  2.8742999694  0.9638171760
H  -1.6282639876  1.4503134515  1.7581185098
H   2.7810447294  0.2427753059  1.5486809087
H   1.7406207979  0.6809877383 -2.0460947416
H   2.4572019829 -1.4285426324  1.0422346475
H   1.2899875332 -0.5513689769  2.0483157139
H   2.9085615392  1.2277702386 -0.8526645057
H   2.9224165581 -0.4627197540 -1.3827635861
22
Image 112  Energy = -383.5292108480
C  -0.7454921704 -1.2279885302  0.3572948191
C   1.3117641817  0.0635139698 -0.0170411524
C  -1.2236556586  1.9515803344  0.8927243279
C   2.0047392175 -0.4531694074  1.2300206383
C   2.2794279917  0.3849581172 -1.1420025162
N   0.3206736492 -0.9155547734 -0.4810942984
N  -2.0003232146 -1.3592088203 -0.2879464348
O  -1.7105844966  1.6666707957 -0.3416996223
H  -2.1157150404  0.7825941261 -0.3231745405
H   0.0019283395 -0.6747302195 -1.4104182149
H  -0.5613734087 -1.8107245093  1.2520287105
H   0.7853398864  0.9854754757  0.2535677624
H  -2.6152127668 -2.0139388666  0.1757694694
H  -1.9153998627 -1.6484447392 -1.2593606891
H  -0.6682487435  2.8742111600  0.9637342505
H  -1.6285422700  1.4504258216  1.7581681047
H   2.7811223754  0.2427831040  1.5486537822
H   1.7406497975  0.6808292579 -2.0459725552
H   2.4574183563 -1.4285438303  1.0422194428
H   1.2902294339 -0.5515382980  2.0484315334
H   2.9088282943  1.2274494845 -0.8526541281
H   2.9223325966 -0.4630075740 -1.3827814334
22
Image 113  Energy = -383.5292263782
C  -0.7454324618 -1.2276130319  0.3571647128
C   1.3118746855  0.0635269458 -0.0169810645
C  -1.2238367243  1.9512993474  0.8926646611
C   2.0048568590 -0.4532348628  1.2300485967
C   2.2795378340  0.3847856197 -1.1419509556
N   0.3206830681 -0.9152727253 -0.4812382419
N  -2.0001307048 -1.3591552119 -0.2880635252
O  -1.7108589362  1.6664473432 -0.3416865964
H  -2.1157152343  0.7822641005 -0.3231479135
H   0.0018558138 -0.6741007643 -1.4104446939
H  -0.5612324933 -1.8106658494  1.2516339755
H   0.7854673081  0.9854923430  0.2536969207
H  -2.6152165048 -2.0132246497  0.1762300633
H  -1.9155540810 -1.6486189921 -1.2594177762
H  -0.6688940735  2.8741400987  0.9636518857
H  -1.6288323118  1.4505239811  1.7582274016
H   2.7812005210  0.2427896941  1.5486276146
H   1.7406810097  0.6806749492 -2.0458538497
H   2.4576352733 -1.4285475271  1.0422027458
H   1.2904677289 -0.5517063457  2.0485460112
H   2.9090997826  1.2271359137 -0.8526448396
H   2.9222501317 -0.4632982980 -1.3827978747
22
Image 114  Energy = -383.5300320316
C  -0.7356361121 -1.2266799629  0.3507389259
C   1.3183038608  0.0686776063 -0.0113346854
C  -1.2511704672  1.9633263666  0.8941190344
C   2.0138096036 -0.4575514330  1.2303323747
C   2.2854618758  0.3726925111 -1.1397437066
N   0.3248468394 -0.9009822181 -0.4859205982
N  -1.9879236632 -1.3472899517 -0.2981960803
O  -1.7286988987  1.6541471479 -0.3356991454
H  -2.1141038904  0.7614751122 -0.3084274721
H   0.0014022042 -0.6387111893 -1.4084351134
H  -0.5447739480 -1.8369667447  1.2251747143
H   0.7940961372  0.9922983928  0.2609226530
H  -2.6227059249 -1.9645710328  0.1880436499
H  -1.9071072943 -1.6695243178 -1.2598465119
H  -0.7296873848  2.9055627647  0.9572441822
H  -1.6443664560  1.4676955942  1.7665288952
H   2.7896486043  0.2376368363  1.5522513235
H   1.7434670374  0.6667186869 -2.0421571704
H   2.4706796255 -1.4282354420  1.0291417411
H   1.3050479154 -0.5685333358  2.0518845258
H   2.9323257181  1.2051225472 -0.8628813489
H   2.9069911042 -0.4926656603 -1.3752727362
22
Image 115  Energy = -383.5300459452
C  -0.7356827338 -1.2265231375  0.3507343701
C   1.3184481442  0.0687109021 -0.0112990097
C  -1.2508887305  1.9635213401  0.8941911931
C   2.0139072974 -0.4576353112  1.2303349906
C   2.2856277901  0.3726037070 -1.1397791954
N   0.3248776221 -0.9007624310 -0.4862201140
N  -1.9881628623 -1.3471234805 -0.2981923000
O  -1.7291280509  1.6539725694 -0.3359250088
H  -2.1141570213  0.7608968987 -0.3086434471
H   0.0012765876 -0.6381602811 -1.4082711177
H  -0.5446077819 -1.8369055810  1.2251278122
H   0.7944666971  0.9923389566  0.2610481275
H  -2.6227668894 -1.9640841955  0.1883309266
H  -1.9073578582 -1.6697614308 -1.2599019430
H  -0.7301314998  2.9056057837  0.9571320831
H  -1.6448880995  1.4674134557  1.7667987165
H   2.7896945304  0.2376483017  1.5522184327
H   1.7436261742  0.6667032366 -2.0421274389
H   2.4708773731 -1.4283024191  1.0291726791
H   1.3051871529 -0.5686544641  2.0519413863
H   2.9326563247  1.2049268981 -0.8628274810
H   2.9070323203 -0.4927870399 -1.3753762128
22
Image 116  Energy = -383.5300577516
C  -0.7357075897 -1.2263607424  0.3506760663
C   1.3185992813  0.0687176202 -0.0112911952
C  -1.2508295255  1.9634360786  0.8942298085
C   2.0140069751 -0.4577236707  1.2303387339
C   2.2857998960  0.3725300636 -1.1397946928
N   0.3248850870 -0.9005783725 -0.4863715810
N  -1.9883163301 -1.3469368173 -0.2982404035
O  -1.7295065651  1.6538026290 -0.3360142000
H  -2.1141764976  0.7603901711 -0.3088402306
H   0.0011236880 -0.6375825388 -1.4081890499
H  -0.5444471429 -1.8368367343  1.2250668821
H   0.7948238264  0.9923936241  0.2611739189
H  -2.6228669752 -1.9636328463  0.1886385716
H  -1.9076142564 -1.6699836652 -1.2599026512
H  -0.7305182880  2.9057583061  0.9570249799
H  -1.6453291310  1.4672289077  1.7669412081
H   2.7897397163  0.2376556783  1.5521865618
H   1.7437834341  0.6666923630 -2.0421023224
H   2.4710720415 -1.4283643169  1.0292028374
H   1.3053277206 -0.5687744573  2.0519935764
H   2.9329815457  1.2047265024 -0.8627803500
H   2.9070755758 -0.4929155051 -1.3754790191
22
Image 117  Energy = -383.5300689491
C  -0.7357241477 -1.2262049102  0.3506086797
C   1.3187526468  0.0687122161 -0.0112872291
C  -1.2508485208  1.9632675877  0.8942470295
C   2.0141095416 -0.4578125322  1.2303421697
C   2.2859732139  0.3724585723 -1.1398037068
N   0.3248773139 -0.9003995132 -0.4864863929
N  -1.9884352149 -1.3467501712 -0.2982941376
O  -1.7298668086  1.6536184737 -0.3360378822
H  -2.1141743538  0.7599337015 -0.3090269565
H   0.0009655762 -0.6369996470 -1.4081258129
H  -0.5442950911 -1.8367571631  1.2249884684
H   0.7951725547  0.9924536675  0.2612976182
H  -2.6229753826 -1.9631869512  0.1889449350
H  -1.9078709640 -1.6702007948 -1.2598805508
H  -0.7309044776  2.9059132606  0.9569206883
H  -1.6457325481  1.4670902926  1.7670264297
H   2.7897846463  0.2376592189  1.5521559181
H   1.7439412042  0.6666851654 -2.0420782346
H   2.4712649363 -1.4284236698  1.0292322574
H   1.3054686634 -0.5688933864  2.0520413544
H   2.9333041770  1.2045259640 -0.8627365252
H   2.9071195192 -0.4930471031 -1.3755806696
22
Image 118  Energy = -383.5300798268
C  -0.7357363060 -1.2260551043  0.3505390466
C   1.3189053884  0.0687007101 -0.0112822631
C  -1.2509009123  1.9630730225  0.8942514304
C   2.0142143853 -0.4579015945  1.2303451848
C   2.2861463302  0.3723861606 -1.1398100435
N   0.3248597095 -0.9002186240 -0.4865901703
N  -1.9885350381 -1.3465679859 -0.2983429364
O  -1.7302157235  1.6534266770 -0.3360275532
H  -2.1141600191  0.7595074715 -0.3092053721
H   0.0008068382 -0.6364165876 -1.4080671606
H  -0.5441507220 -1.8366696166  1.2248968963
H   0.7955152485  0.9925155664  0.2614186206
H  -2.6230849925 -1.9627396980  0.1892457459
H  -1.9081260656 -1.6704154063 -1.2598448586
H  -0.7313032877  2.9060452695  0.9568180565
H  -1.6461134709  1.4669789028  1.7670801802
H   2.7898298928  0.2376595092  1.5521266146
H   1.7441001696  0.6666811012 -2.0420538769
H   2.4714566488 -1.4284815257  1.0292609489
H   1.3056097158 -0.5690113376  2.0520850609
H   2.9336248219  1.2043261637 -0.8626949739
H   2.9071638729 -0.4931807950 -1.3756811267
22
Image 119  Energy = -383.5302908923
C  -0.7301667796 -1.2382780151  0.3461373173
C   1.3205856708  0.0697300117 -0.0082433398
C  -1.2689230056  1.9910405789  0.8963035760
C   2.0175864875 -0.4608553204  1.2307595586
C   2.2877338653  0.3669025209 -1.1384219026
N   0.3275324624 -0.8982603782 -0.4888436125
N  -1.9834361782 -1.3458739314 -0.3044957746
O  -1.7358179335  1.6507675045 -0.3314843486
H  -2.1029965931  0.7489855282 -0.2940688584
H  -0.0009103561 -0.6233153514 -1.4058618152
H  -0.5360335631 -1.8657905253  1.2089958378
H   0.8004516761  0.9956604706  0.2645039217
H  -2.6290562266 -1.9444571559  0.1913765657
H  -1.9058190598 -1.6834434317 -1.2624382174
H  -0.7698332922  2.9468670427  0.9511578300
H  -1.6404880659  1.4787594618  1.7708664208
H   2.7923550523  0.2350203618  1.5540540772
H   1.7445721156  0.6600670392 -2.0403687420
H   2.4777254618 -1.4286007178  1.0222803596
H   1.3120684880 -0.5791921185  2.0543524708
H   2.9433732335  1.1939384551 -0.8656545979
H   2.8994029823 -0.5060295267 -1.3724390241
22
Image 120  Energy = -383.5303023088
C  -0.7301753785 -1.2381960996  0.3461334522
C   1.3207585020  0.0696521613 -0.0082576107
C  -1.2690661589  1.9907402039  0.8961170146
C   2.0176976345 -0.4609783063  1.2307529540
C   2.2879803596  0.3668137099 -1.1384287708
N   0.3273990820 -0.8980133678 -0.4888888184
N  -1.9836298176 -1.3458621375 -0.3044643186
O  -1.7360565277  1.6505660026 -0.3312509570
H  -2.1028260189  0.7488777301 -0.2942746875
H  -0.0010677545 -0.6227933161 -1.4057161151
H  -0.5358941276 -1.8655745231  1.2088112263
H   0.8007267633  0.9956428662  0.2646141866
H  -2.6290369338 -1.9439898259  0.1914846481
H  -1.9061704835 -1.6835978907 -1.2622162877
H  -0.7704729386  2.9466092820  0.9510005957
H  -1.6406474945  1.4788525642  1.7708777063
H   2.7923866782  0.2350164036  1.5540316171
H   1.7447942505  0.6601594948 -2.0403373681
H   2.4779000969 -1.4286638979  1.0223611917
H   1.3121870743 -0.5792851616  2.0543111547
H   2.9436345794  1.1937450006 -0.8656399398
H   2.8994850557 -0.5060783898 -1.3725531744
22
Image 121  Energy = -383.5303127834
C  -0.7302182670 -1.2380877953  0.3460810956
C   1.3209231691  0.0695862549 -0.0082673165
C  -1.2691934812  1.9904290026  0.8960217428
C   2.0178109458 -0.4610900005  1.2307424460
C   2.2881901507  0.3667322381 -1.1384382274
N   0.3272847679 -0.8977756883 -0.4889199215
N  -1.9837197924 -1.3457658412 -0.3044389696
O  -1.7362966190  1.6504197585 -0.3311244350
H  -2.1026913966  0.7486889496 -0.2944687508
H  -0.0012357804 -0.6222658481 -1.4055956723
H  -0.5357503883 -1.8653864261  1.2086643046
H   0.8010073611  0.9956241194  0.2647217489
H  -2.6290936186 -1.9435914951  0.1916517627
H  -1.9065146312 -1.6837649388 -1.2620306590
H  -0.7710852520  2.9463988838  0.9508434618
H  -1.6408131431  1.4789345271  1.7708935019
H   2.7924176513  0.2350077740  1.5540091750
H   1.7450197980  0.6602488226 -2.0403017124
H   2.4780791123 -1.4287360776  1.0224391029
H   1.3122996959 -0.5793794660  2.0542756888
H   2.9439056829  1.1935622613 -0.8656191365
H   2.8995804765 -0.5061465123 -1.3726715302
22
Image 122  Energy = -383.5303229032
C  -0.7302604038 -1.2379663776  0.3460202163
C   1.3210814824  0.0695282559 -0.0082726811
C  -1.2693059189  1.9901211548  0.8959575623
C   2.0179246181 -0.4611965184  1.2307300638
C   2.2883825310  0.3666536262 -1.1384468020
N   0.3271826375 -0.8975427357 -0.4889552438
N  -1.9837883298 -1.3456407215 -0.3044108697
O  -1.7365423275  1.6502906254 -0.3310538048
H  -2.1025754215  0.7484632562 -0.2946574992
H  -0.0014077998 -0.6217365411 -1.4054876669
H  -0.5356081864 -1.8652117987  1.2085348571
H   0.8012905961  0.9956074347  0.2648276708
H  -2.6291772511 -1.9432157263  0.1918429688
H  -1.9068493780 -1.6839382072 -1.2618697059
H  -0.7716763044  2.9462228563  0.9506905357
H  -1.6409910335  1.4789984185  1.7709249507
H   2.7924497718  0.2349963641  1.5539874925
H   1.7452448425  0.6603368280 -2.0402664328
H   2.4782605366 -1.4288131225  1.0225144661
H   1.3124086167 -0.5794744283  2.0542435114
H   2.9441812367  1.1933849850 -0.8655942605
H   2.8996819290 -0.5062251248 -1.3727916289
22
Image 123  Energy = -383.5303328083
C  -0.7302955775 -1.2378370425  0.3459603967
C   1.3212354287  0.0694755570 -0.0082754396
C  -1.2694078361  1.9898179248  0.8959034982
C   2.0180379989 -0.4613006691  1.2307168514
C   2.2885663527  0.3665762686 -1.1384536954
N   0.3270892845 -0.8973133675 -0.4889975549
N  -1.9838550769 -1.3455044736 -0.3043813784
O  -1.7367932824  1.6501654036 -0.3310146966
H  -2.1024710983  0.7482182059 -0.2948433461
H  -0.0015818858 -0.6212062733 -1.4053882474
H  -0.5354687615 -1.8650455889  1.2084159722
H   0.8015747512  0.9955943851  0.2649325621
H  -2.6292728401 -1.9428487752  0.1920474279
H  -1.9071751179 -1.6841139861 -1.2617238219
H  -0.7722497510  2.9460741046  0.9505427985
H  -1.6411804703  1.4790457857  1.7709699367
H   2.7924835296  0.2349828459  1.5539667602
H   1.7454680912  0.6604241105 -2.0402328082
H   2.4784432663 -1.4288928849  1.0225874630
H   1.3125149398 -0.5795698095  2.0542135152
H   2.9444587542  1.1932106336 -0.8655663913
H   2.8997857433 -0.5063098515 -1.3729121029
