22
Image 0  Energy = -383.5303328083
C  -0.7302955775 -1.2378370425  0.3459603967
C   1.3212354287  0.0694755570 -0.0082754396
C  -1.2694078361  1.9898179248  0.8959034982
C   2.0180379989 -0.4613006691  1.2307168514
C   2.2885663527  0.3665762686 -1.1384536954
N   0.3270892845 -0.8973133675 -0.4889975549
N  -1.9838550769 -1.3455044736 -0.3043813784
O  -1.7367932824  1.6501654036 -0.3310146966
H  -2.1024710983  0.7482182059 -0.2948433461
H  -0.0015818858 -0.6212062733 -1.4053882474
H  -0.5354687615 -1.8650455889  1.2084159722
H   0.8015747512  0.9955943851  0.2649325621
H  -2.6292728401 -1.9428487752  0.1920474279
H  -1.9071751179 -1.6841139861 -1.2617238219
H  -0.7722497510  2.9460741046  0.9505427985
H  -1.6411804703  1.4790457857  1.7709699367
H   2.7924835296  0.2349828459  1.5539667602
H   1.7454680912  0.6604241105 -2.0402328082
H   2.4784432663 -1.4288928849  1.0225874630
H   1.3125149398 -0.5795698095  2.0542135152
H   2.9444587542  1.1932106336 -0.8655663913
H   2.8997857433 -0.5063098515 -1.3729121029
