7
Iter 1  Energy = -29.6072649425
C   0.8773241389  0.7831761468 -0.1627861751
H   0.6909910434  1.5541187239 -0.9219857337
O   0.5296758817  0.9763297343  1.1233886062
C   1.3488477447 -0.5563633120 -0.1922771017
H   0.7828222012 -0.2432783361  1.0660987829
H   1.0764122636 -1.2944567996 -0.9582139245
H   2.2951683494 -0.7291595047  0.3397147998
7
Iter 2  Energy = -29.6072657174
C   0.8772735103  0.7834033363 -0.1626999235
H   0.6911051001  1.5541397765 -0.9219567889
O   0.5296635364  0.9763836113  1.1233287821
C   1.3489140411 -0.5565012593 -0.1922856284
H   0.7827550991 -0.2435835902  1.0658764091
H   1.0762558867 -1.2945311296 -0.9579769995
H   2.2952744492 -0.7289440926  0.3396534035
7
Iter 3  Energy = -29.6072667009
C   0.8773449107  0.7832532662 -0.1624896147
H   0.6912048489  1.5542971443 -0.9220050970
O   0.5296565117  0.9763636597  1.1232302574
C   1.3489513718 -0.5563009111 -0.1922503388
H   0.7826568241 -0.2438225453  1.0656551326
H   1.0760456841 -1.2947210351 -0.9577781640
H   2.2953814715 -0.7287029262  0.3395770780
7
Iter 4  Energy = -29.6072682208
C   0.8772944266  0.7835485695 -0.1624992035
H   0.6913495392  1.5543107673 -0.9219445825
O   0.5296306779  0.9763594768  1.1232242032
C   1.3490409091 -0.5564812860 -0.1922860555
H   0.7825533396 -0.2441024816  1.0654501277
H   1.0758620613 -1.2948200693 -0.9575067887
H   2.2955106694 -0.7284483249  0.3395015514
7
Iter 5  Energy = -29.6072698599
C   0.8773737156  0.7834104536 -0.1623613807
H   0.6914552896  1.5544602778 -0.9219722173
O   0.5296117538  0.9763181451  1.1231650179
C   1.3490707218 -0.5562875760 -0.1922555407
H   0.7824514538 -0.2443144775  1.0652465512
H   1.0756557675 -1.2950108321 -0.9573059007
H   2.2956229211 -0.7282093387  0.3394227226
7
Iter 1  Energy = -29.6072649425
C   0.8773411649  0.7831555233 -0.1627739467
H   0.6909801973  1.5541187836 -0.9220098900
O   0.5296313096  0.9763066007  1.1233732025
C   1.3488891544 -0.5563212955 -0.1922740982
H   0.7828473029 -0.2432733828  1.0660906842
H   1.0763549262 -1.2944205061 -0.9581995857
H   2.2951975675 -0.7291990699  0.3397328883
7
Iter 2  Energy = -29.6072656578
C   0.8772853014  0.7834105148 -0.1627095897
H   0.6910959538  1.5541326987 -0.9219744135
O   0.5296190716  0.9763442874  1.1233249620
C   1.3489649261 -0.5564866861 -0.1922982130
H   0.7827731972 -0.2435578941  1.0658884172
H   1.0762020760 -1.2944927446 -0.9579639667
H   2.2953010965 -0.7289835228  0.3396720587
7
Iter 3  Energy = -29.6072667307
C   0.8773578207  0.7832570143 -0.1624962909
H   0.6911956188  1.5542911306 -0.9220228553
O   0.5296129084  0.9763254268  1.1232247452
C   1.3489988488 -0.5562829520 -0.1922622184
H   0.7826749182 -0.2437976109  1.0656663574
H   1.0759935922 -1.2946844491 -0.9577654053
H   2.2954079159 -0.7287419069  0.3395949227
7
Iter 4  Energy = -29.6072682655
C   0.8773067255  0.7835549168 -0.1625060001
H   0.6913407787  1.5543038589 -0.9219609152
O   0.5295875719  0.9763238845  1.1232182455
C   1.3490863278 -0.5564648407 -0.1922970068
H   0.7825718765 -0.2440804636  1.0654600020
H   1.0758118235 -1.2947841890 -0.9574934485
H   2.2955365191 -0.7284865136  0.3395183792
7
Iter 5  Energy = -29.6072698897
C   0.8773865781  0.7834147117 -0.1623660604
H   0.6914465947  1.5544540610 -0.9219884171
O   0.5295693853  0.9762842558  1.1231579571
C   1.3491136734 -0.5562689903 -0.1922651826
H   0.7824700975 -0.2442938972  1.0652552439
H   1.0756070664 -1.2949765817 -0.9572928338
H   2.2956482275 -0.7282469059  0.3394385489
7
Iter 6  Energy = -29.6072714990
C   0.8773531875  0.7836635181 -0.1623977004
H   0.6915870926  1.5544782124 -0.9219267053
O   0.5295387181  0.9762602639  1.1231668787
C   1.3491843236 -0.5564126673 -0.1922944875
H   0.7823670882 -0.2445349605  1.0650668189
H   1.0754337107 -1.2950827630 -0.9570364313
H   2.2957775022 -0.7280049496  0.3393608824
7
Iter 7  Energy = -29.6072731531
C   0.8774304896  0.7835451449 -0.1623049959
H   0.6916938430  1.5546184518 -0.9219384072
O   0.5295140874  0.9762041492  1.1231281810
C   1.3492097877 -0.5562429514 -0.1922726451
H   0.7822662290 -0.2447177408  1.0648849666
H   1.0752408742 -1.2952654495 -0.9568382347
H   2.2958863120 -0.7277749492  0.3392803912
7
Iter 8  Energy = -29.6072748518
C   0.8774082952  0.7837547408 -0.1623401977
H   0.6918298133  1.5546543256 -0.9218795871
O   0.5294810694  0.9761626314  1.1231392188
C   1.3492695565 -0.5563604113 -0.1923004925
H   0.7821637780 -0.2449250931  1.0647129647
H   1.0750754308 -1.2953753813 -0.9565937011
H   2.2960136804 -0.7275441573  0.3392010509
7
Iter 9  Energy = -29.6072764164
C   0.8774814868  0.7836538937 -0.1622773969
H   0.6919368250  1.5547879418 -0.9218800011
O   0.5294524296  0.9760924106  1.1231118739
C   1.3492956121 -0.5562142662 -0.1922885653
H   0.7820638075 -0.2450809581  1.0645519606
H   1.0748931496 -1.2955497378 -0.9563980756
H   2.2961183130 -0.7273226299  0.3391194604
7
Iter 10  Energy = -29.6072780258
C   0.8774666462  0.7838324548 -0.1623106279
H   0.6920688195  1.5548339581 -0.9218242056
O   0.5294179357  0.9760374570  1.1231207568
C   1.3493478804 -0.5563123821 -0.1923156432
H   0.7819625298 -0.2452607968  1.0643944262
H   1.0747348964 -1.2956622954 -0.9561637607
H   2.2962429159 -0.7271017420  0.3390383110
7
Iter 11  Energy = -29.6072796202
C   0.8775353721  0.7837457846 -0.1622689809
H   0.6921757854  1.5549626401 -0.9218158865
O   0.5293861831  0.9759562379  1.1231001014
C   1.3493752966 -0.5561860903 -0.1923121396
H   0.7818638642 -0.2453940699  1.0642517985
H   1.0745618947 -1.2958297757 -0.9559711764
H   2.2963432279 -0.7268880726  0.3389555400
7
Iter 12  Energy = -29.6072811252
C   0.8775255001  0.7838995942 -0.1622989212
H   0.6923043580  1.5550170347 -0.9217626871
O   0.5293503570  0.9758912338  1.1231056572
C   1.3494220182 -0.5562693589 -0.1923385642
H   0.7817642947 -0.2455513958  1.0641070686
H   1.0744101656 -1.2959442324 -0.9557460032
H   2.2964649303 -0.7266762218  0.3388727072
7
Iter 13  Energy = -29.6072825408
C   0.8775898902  0.7838243036 -0.1622731495
H   0.6924110893  1.5551418440 -0.9217474023
O   0.5293158611  0.9758018444  1.1230892466
C   1.3494507724 -0.5561593767 -0.1923419106
H   0.7816674066 -0.2456659485  1.0639804724
H   1.0742453705 -1.2961060297 -0.9555568551
H   2.2965612342 -0.7264699832  0.3387888565
7
Iter 14  Energy = -29.6072840309
C   0.8775833652  0.7839582500 -0.1622998292
H   0.6925367342  1.5552029881 -0.9216962780
O   0.5292786453  0.9757294745  1.1230913332
C   1.3494930867 -0.5562309785 -0.1923677161
H   0.7815699838 -0.2458047829  1.0638471056
H   1.0740996289 -1.2962217709 -0.9553399069
H   2.2966801802 -0.7262665252  0.3387045488
7
Iter 15  Energy = -29.6072854465
C   0.8776437076  0.7838920188 -0.1622863456
H   0.6926430964  1.5553246684 -0.9216753688
O   0.5292415621  0.9756343123  1.1230777564
C   1.3495229113 -0.5561343002 -0.1923765602
H   0.7814752833 -0.2459038847  1.0637344277
H   1.0739421472 -1.2963787763 -0.9551544221
H   2.2967729166 -0.7260673831  0.3386197698
7
Iter 16  Energy = -29.6072867578
C   0.8776393614  0.7840099768 -0.1623101602
H   0.6927662136  1.5553911818 -0.9216258512
O   0.5292028474  0.9755567794  1.1230766075
C   1.3495615870 -0.5561967189 -0.1924017119
H   0.7813803551 -0.2460275011  1.0636111194
H   1.0738019292 -1.2964953056 -0.9549449615
H   2.2968893306 -0.7258717573  0.3385342159
7
Iter 17  Energy = -29.6072881734
C   0.8776959575  0.7839509290 -0.1623062533
H   0.6928721076  1.5555102801 -0.9216003942
O   0.5291632978  0.9754577544  1.1230649077
C   1.3495921581 -0.5561109022 -0.1924149421
H   0.7812881596 -0.2461138116  1.0635105443
H   1.0736510331 -1.2966481936 -0.9547632620
H   2.2969789107 -0.7256794014  0.3384486577
7
Iter 18  Energy = -29.6072894251
C   0.8776929367  0.7840559195 -0.1623277276
H   0.6929930365  1.5555810160 -0.9215521386
O   0.5291229690  0.9753767914  1.1230609881
C   1.3496277588 -0.5561660397 -0.1924393971
H   0.7811959898 -0.2462248486  1.0633960751
H   1.0735159439 -1.2967650584 -0.9545605811
H   2.2970929900 -0.7254911244  0.3383620402
7
Iter 19  Energy = -29.6072906470
C   0.8777460747  0.7840025291 -0.1623313690
H   0.6930983918  1.5556979308 -0.9215229956
O   0.5290810564  0.9752753733  1.1230505492
C   1.3496587823 -0.5560890961 -0.1924560344
H   0.7811065522 -0.2463005039  1.0633059743
H   1.0733710139 -1.2969143164 -0.9543826964
H   2.2971797533 -0.7253052600  0.3382758314
7
Iter 20  Energy = -29.6072918391
C   0.8777437135  0.7840969931 -0.1623508852
H   0.6932173976  1.5557719429 -0.9214757183
O   0.5290390587  0.9751923172  1.1230441952
C   1.3496917549 -0.5561385009 -0.1924797615
H   0.7810173163 -0.2464010574  1.0631993256
H   1.0732407007 -1.2970311387 -0.9541862225
H   2.2972916831 -0.7251239000  0.3381883258
7
Iter 21  Energy = -29.6072930908
C   0.8777936503  0.7840481114 -0.1623603632
H   0.6933221433  1.5558869996 -0.9214436224
O   0.5289949210  0.9750896322  1.1230344430
C   1.3497229443 -0.5560688829 -0.1924989762
H   0.7809307754 -0.2464678307  1.0631183342
H   1.0731011998 -1.2971771315 -0.9540121332
H   2.2973759905 -0.7249442415  0.3381015774
7
Iter 22  Energy = -29.6072941488
C   0.8777914604  0.7841339991 -0.1623782973
H   0.6934394325  1.5559635301 -0.9213971313
O   0.5289512215  0.9750055344  1.1230260287
C   1.3497536072 -0.5561137999 -0.1925219431
H   0.7808445960 -0.2465596195  1.0630186036
H   1.0729753539 -1.2972935755 -0.9538213524
H   2.2974859529 -0.7247694116  0.3380133516
7
Iter 23  Energy = -29.6072952366
C   0.8778384557  0.7840886084 -0.1623923732
H   0.6935435184  1.5560769667 -0.9213626652
O   0.5289049524  0.9749025051  1.1230166621
C   1.3497847874 -0.5560502119 -0.1925430337
H   0.7807610469 -0.2466189518  1.0629455391
H   1.0728408205 -1.2974365723 -0.9536510016
H   2.2975680426 -0.7245956869  0.3379261326
7
Iter 24  Energy = -29.6072962648
C   0.8778360608  0.7841675089 -0.1624089979
H   0.6936592601  1.5561553779 -0.9213168099
O   0.5288595688  0.9748181502  1.1230064544
C   1.3498134072 -0.5560916483 -0.1925652114
H   0.7806779828 -0.2467033621  1.0628519728
H   1.0727191661 -1.2975523477 -0.9534654733
H   2.2976761782 -0.7244270214  0.3378373261
7
Iter 25  Energy = -29.6072974271
C   0.8778803400  0.7841248227 -0.1624266246
H   0.6937626434  1.5562673669 -0.9212804665
O   0.5288113025  0.9747154076  1.1229971939
C   1.3498443692 -0.5560330328 -0.1925876579
H   0.7805974782 -0.2467563814  1.0627858665
H   1.0725892116 -1.2976925552 -0.9532988009
H   2.2977562788 -0.7242589699  0.3377497500
7
Iter 26  Energy = -29.6072983807
C   0.8778774640  0.7841980010 -0.1624421644
H   0.6938769803  1.5563471110 -0.9212351274
O   0.5287642704  0.9746314456  1.1229854460
C   1.3498711445 -0.5560717573 -0.1926090118
H   0.7805175635 -0.2468345916  1.0626977692
H   1.0724715013 -1.2978074272 -0.9531181373
H   2.2978627001 -0.7240961238  0.3376604858
7
Iter 27  Energy = -29.6072993642
C   0.8779192308  0.7841573844 -0.1624625435
H   0.6939796244  1.5564577843 -0.9211972980
O   0.5287141269  0.9745294821  1.1229761032
C   1.3499017920 -0.5560172904 -0.1926323906
H   0.7804401098 -0.2468822165  1.0626378155
H   1.0723457722 -1.2979449983 -0.9529550631
H   2.2979409684 -0.7239334872  0.3375726370
7
Iter 28  Energy = -29.6073002732
C   0.8779156735  0.7842258533 -0.1624771633
H   0.6940926644  1.5565384324 -0.9211524142
O   0.5286655045  0.9744463571  1.1229630228
C   1.3499268447 -0.5560539283 -0.1926529201
H   0.7803633387 -0.2469551430  1.0625546115
H   1.0722317803 -1.2980587542 -0.9527789294
H   2.2980458183 -0.7237761584  0.3374830522
7
Iter 29  Energy = -29.6073013014
C   0.8779551304  0.7841867702 -0.1624996406
H   0.6941945404  1.5566478968 -0.9211134579
O   0.5286136020  0.9743455361  1.1229534890
C   1.3499570726 -0.5560028700 -0.1926768887
H   0.7802889138 -0.2469981481  1.0625000970
H   1.0721099656 -1.2981938302 -0.9526193526
H   2.2981223992 -0.7236186964  0.3373950133
7
Iter 30  Energy = -29.6073021507
C   0.8779507336  0.7842513807 -0.1625134749
H   0.6943063664  1.5567290862 -0.9210689710
O   0.5285634691  0.9742635632  1.1229392430
C   1.3499806121 -0.5560379148 -0.1926965255
H   0.7802152411 -0.2470665217  1.0624212908
H   1.0719994774 -1.2983063356 -0.9524474873
H   2.2982257241 -0.7234666003  0.3373051841
7
Iter 31  Energy = -29.6073031044
C   0.8779880450  0.7842134509 -0.1625375338
H   0.6944074548  1.5568373935 -0.9210291628
O   0.5285099327  0.9741641416  1.1229294268
C   1.3500103366 -0.5559897004 -0.1927208126
H   0.7801438076 -0.2471055284  1.0623716246
H   1.0718813073 -1.2984390192 -0.9522913221
H   2.2983007397 -0.7233140806  0.3372170397
7
Iter 32  Energy = -29.6073038942
C   0.8779827320  0.7842748446 -0.1625507106
H   0.6945181395  1.5569188195 -0.9209850522
O   0.5284583601  0.9740835584  1.1229142052
C   1.3500324321 -0.5560235490 -0.1927395533
H   0.7800731899 -0.2471699666  1.0622967493
H   1.0717741459 -1.2985501033 -0.9521234384
H   2.2984026239 -0.7231669463  0.3371270594
7
Iter 33  Energy = -29.6073048180
C   0.8780180331  0.7842377898 -0.1625758980
H   0.6946184213  1.5570260052 -0.9209446237
O   0.5284033176  0.9739857252  1.1229040178
C   1.3500616336 -0.5559777697 -0.1927639181
H   0.7800046959 -0.2472054942  1.0622514012
H   1.0716593803 -1.2986804637 -0.9519705905
H   2.2984761417 -0.7230191361  0.3370388696
7
Iter 34  Energy = -29.6073055929
C   0.8780117417  0.7842965226 -0.1625885165
H   0.6947280140  1.5571074323 -0.9209008791
O   0.5283503873  0.9739066945  1.1228879709
C   1.3500824290 -0.5560107670 -0.1927817851
H   0.7799370470 -0.2472664826  1.0621801291
H   1.0715553603 -1.2987900290 -0.9518064873
H   2.2985766439 -0.7228767142  0.3369488270
7
Iter 35  Energy = -29.6073064572
C   0.8780452000  0.7842600237 -0.1626145358
H   0.6948274700  1.5572135267 -0.9208600113
O   0.5282939429  0.9738105761  1.1228774173
C   1.3501110745 -0.5559670046 -0.1928060953
H   0.7798714149 -0.2472989186  1.0621386900
H   1.0714437897 -1.2989181405 -0.9516568705
H   2.2986487309 -0.7227334056  0.3368606639
7
Iter 36  Energy = -29.6073071724
C   0.8780379084  0.7843165451 -0.1626267151
H   0.6949360153  1.5572947310 -0.9208166103
O   0.5282397393  0.9737332157  1.1228606697
C   1.3501306271 -0.5559993536 -0.1928230609
H   0.7798066614 -0.2473569059  1.0620706918
H   1.0713427519 -1.2990261027 -0.9514963545
H   2.2987479193 -0.7225954731  0.3367706363
7
Iter 37  Energy = -29.6073080218
C   0.8780696518  0.7842804213 -0.1626532652
H   0.6950346340  1.5573997524 -0.9207754961
O   0.5281820097  0.9736388680  1.1228497235
C   1.3501587081 -0.5559572874 -0.1928471883
H   0.7797438072 -0.2473866063  1.0620327969
H   1.0712341780 -1.2991520275 -0.9513498730
H   2.2988186337 -0.7224564639  0.3366825601
7
Iter 38  Energy = -29.6073087519
C   0.8780613358  0.7843351180 -0.1626650227
H   0.6951421633  1.5574805703 -0.9207324562
O   0.5281266295  0.9735632528  1.1228323661
C   1.3501771331 -0.5559892231 -0.1928632537
H   0.7796818607 -0.2474419573  1.0619677736
H   1.0711359670 -1.2992583094 -0.9511927549
H   2.2989165334 -0.7223227949  0.3365926062
7
Iter 39  Energy = -29.6073094672
C   0.8780914801  0.7842992166 -0.1626918959
H   0.6952399362  1.5575845082 -0.9206912110
O   0.5280677253  0.9734707199  1.1228210102
C   1.3502046218 -0.5559485897 -0.1928871095
H   0.7796216968 -0.2474692118  1.0619330957
H   1.0710302125 -1.2993820881 -0.9510493177
H   2.2989859503 -0.7221878979  0.3365046865
7
Iter 40  Energy = -29.6073101229
C   0.8780821366  0.7843523746 -0.1627032682
H   0.6953464805  1.5576647875 -0.9206485330
O   0.5280112585  0.9733968971  1.1228031229
C   1.3502219718 -0.5559802189 -0.1929022951
H   0.7795624564 -0.2475222331  1.0618707944
H   1.0709346835 -1.2994866449 -0.9508954418
H   2.2990826362 -0.7220583049  0.3364148798
7
Iter 41  Energy = -29.6073108977
C   0.8781108051  0.7843165734 -0.1627303260
H   0.6954433943  1.5577676525 -0.9206072770
O   0.5279512778  0.9733061973  1.1227913854
C   1.3502488595 -0.5559408097 -0.1929257931
H   0.7795048857 -0.2475472964  1.0618390645
H   1.0708315918 -1.2996083210 -0.9507549649
H   2.2991508092 -0.7219273387  0.3363271701
7
Iter 42  Energy = -29.6073116130
C   0.8781004754  0.7843684355 -0.1627413752
H   0.6955489675  1.5578472902 -0.9205649887
O   0.5278938150  0.9732341748  1.1227730280
C   1.3502652217 -0.5559722282 -0.1929401674
H   0.7794482413 -0.2475982734  1.0617793820
H   1.0707386160 -1.2997111150 -0.9506041879
H   2.2992462863 -0.7218016274  0.3362375678
7
Iter 43  Energy = -29.6073122090
C   0.8781277629  0.7843326362 -0.1627684380
H   0.6956450114  1.5579490834 -0.9205238281
O   0.5278328642  0.9731452964  1.1227608917
C   1.3502915411 -0.5559338746 -0.1929632492
H   0.7793931659 -0.2476213478  1.0617503641
H   1.0706380372 -1.2998307225 -0.9504665937
H   2.2993132403 -0.7216744156  0.3361501114
7
Iter 44  Energy = -29.6073128796
C   0.8781164781  0.7843833863 -0.1627791996
H   0.6957496305  1.5580279808 -0.9204819364
O   0.5277745004  0.9730750687  1.1227420956
C   1.3503069992 -0.5559651248 -0.1929768661
H   0.7793390134 -0.2476705162  1.0616931930
H   1.0705474865 -1.2999317357 -0.9503188038
H   2.2994075145 -0.7215524030  0.3360607755
7
Iter 45  Energy = -29.6073135650
C   0.8781424868  0.7843475166 -0.1628061993
H   0.6958447977  1.5581286973 -0.9204409631
O   0.5277126640  0.9729880015  1.1227296378
C   1.3503327197 -0.5559276790 -0.1929994676
H   0.7792863424 -0.2476917843  1.0616666277
H   1.0704492884 -1.3000493074 -0.9501840081
H   2.2994733236 -0.7214287889  0.3359736309
7
Iter 46  Energy = -29.6073141462
C   0.8781302838  0.7843973506 -0.1628167579
H   0.6959484748  1.5582067594 -0.9203994643
O   0.5276534764  0.9729195303  1.1227105075
C   1.3503473470 -0.5559588753 -0.1930123690
H   0.7792345706 -0.2477392902  1.0616118189
H   1.0703610572 -1.3001485113 -0.9500390811
H   2.2995664126 -0.7213103073  0.3358846048
7
Iter 47  Energy = -29.6073148465
C   0.8781550903  0.7843613503 -0.1628435522
H   0.6960427572  1.5583063887 -0.9203587258
O   0.5275908540  0.9728342417  1.1226976958
C   1.3503724992 -0.5559222366 -0.1930344693
H   0.7791842076 -0.2477588785  1.0615875083
H   1.0702651267 -1.3002640765 -0.9499070023
H   2.2996310873 -0.7211901327  0.3357978046
7
Iter 48  Energy = -29.6073153830
C   0.8781420061  0.7844103695 -0.1628538679
H   0.6961454948  1.5583835687 -0.9203176433
O   0.5275309366  0.9727674968  1.1226782329
C   1.3503863296 -0.5559533999 -0.1930466149
H   0.7791347322 -0.2478048912  1.0615348590
H   1.0701790987 -1.3003614627 -0.9497648342
H   2.2997230242 -0.7210750244  0.3357091283
7
Iter 49  Energy = -29.6073160237
C   0.8781656899  0.7843742046 -0.1628804016
H   0.6962388892  1.5584820954 -0.9202771989
O   0.5274676170  0.9726839384  1.1226650963
C   1.3504109260 -0.5559174441 -0.1930681644
H   0.7790865826 -0.2478229366  1.0615126170
H   1.0700853204 -1.3004750531 -0.9496353962
H   2.2997865974 -0.7209581479  0.3356227084
7
Iter 50  Energy = -29.6073166049
C   0.8781517891  0.7844225297 -0.1628905547
H   0.6963406938  1.5585583331 -0.9202365480
O   0.5274070196  0.9726188971  1.1226454367
C   1.3504239702 -0.5559486414 -0.1930796333
H   0.7790393029 -0.2478675798  1.0614619967
H   1.0700014058 -1.3005706122 -0.9494958791
H   2.2998774410 -0.7208462694  0.3355344428
7
Iter 51  Energy = -29.6073171860
C   0.8781744288  0.7843861696 -0.1629167832
H   0.6964331993  1.5586557536 -0.9201964613
O   0.5273430765  0.9725370194  1.1226320341
C   1.3504480060 -0.5559132933 -0.1931006379
H   0.7789932778 -0.2478841877  1.0614416605
H   1.0699096721 -1.3006822568 -0.9493690104
H   2.2999399613 -0.7207325477  0.3354484586
7
Iter 52  Energy = -29.6073177224
C   0.8781597474  0.7844338400 -0.1629267278
H   0.6965340739  1.5587310226 -0.9201562718
O   0.5272818802  0.9724736366  1.1226122040
C   1.3504603685 -0.5559445298 -0.1931114497
H   0.7789480887 -0.2479275374  1.0613929656
H   1.0698277665 -1.3007760196 -0.9492320896
H   2.3000296967 -0.7206237550  0.3353606302
7
Iter 53  Energy = -29.6073183632
C   0.8781814137  0.7843972713 -0.1629525985
H   0.6966256833  1.5588273273 -0.9201165700
O   0.5272173906  0.9723934224  1.1225985344
C   1.3504839078 -0.5559097145 -0.1931318893
H   0.7789040901 -0.2479428380  1.0613744194
H   1.0697379789 -1.3008857582 -0.9491077269
H   2.3000911572 -0.7205130534  0.3352750928
7
Iter 54  Energy = -29.6073188251
C   0.8781659871  0.7844443931 -0.1629623751
H   0.6967256363  1.5589015654 -0.9200768311
O   0.5271556698  0.9723316216  1.1225785857
C   1.3504956256 -0.5559410145 -0.1931420718
H   0.7788608974 -0.2479849574  1.0613275311
H   1.0696580019 -1.3009777304 -0.9489733151
H   2.3001798040 -0.7204072204  0.3351877370
7
Iter 55  Energy = -29.6073194212
C   0.8781867322  0.7844076263 -0.1629878319
H   0.6968163460  1.5589967368 -0.9200375415
O   0.5270907201  0.9722530270  1.1225646334
C   1.3505186141 -0.5559066564 -0.1931619688
H   0.7788188382 -0.2479990566  1.0613106436
H   1.0695700806 -1.3010855883 -0.9488513841
H   2.3002402910 -0.7202994307  0.3351027094
7
Iter 56  Energy = -29.6073198980
C   0.8781705878  0.7844543056 -0.1629974186
H   0.6969153843  1.5590699045 -0.9199982596
O   0.5270285294  0.9721927990  1.1225445792
C   1.3505297317 -0.5559380622 -0.1931716126
H   0.7787775418 -0.2480400781  1.0612654674
H   1.0694919408 -1.3011757632 -0.9487193594
H   2.3003279062 -0.7201964471  0.3350158646
7
Iter 57  Energy = -29.6073204345
C   0.8781904806  0.7844173154 -0.1630224644
H   0.6970051959  1.5591639331 -0.9199594106
O   0.5269631824  0.9721157701  1.1225304072
C   1.3505521823 -0.5559040875 -0.1931909291
H   0.7787373427 -0.2480530475  1.0612500971
H   1.0694058005 -1.3012817766 -0.9485998112
H   2.3003874376 -0.7200914477  0.3349313721
7
Iter 58  Energy = -29.6073209113
C   0.8781736528  0.7844636326 -0.1630318810
H   0.6971033265  1.5592359993 -0.9199205968
O   0.5269005735  0.9720570778  1.1225103007
C   1.3505627785 -0.5559356262 -0.1932000471
H   0.7786978523 -0.2480930560  1.0612065336
H   1.0693294194 -1.3013701664 -0.9484700898
H   2.3004740185 -0.7199912017  0.3348450423
7
Iter 59  Energy = -29.6073214328
C   0.8781927580  0.7844264023 -0.1630564917
H   0.6971922309  1.5593288896 -0.9198822115
O   0.5268349035  0.9719815428  1.1224959069
C   1.3505847403 -0.5559019594 -0.1932187756
H   0.7786594172 -0.2481049500  1.0611926197
H   1.0692449770 -1.3014743866 -0.9483528878
H   2.3005325949 -0.7198888806  0.3347611024
7
Iter 60  Energy = -29.6073219246
C   0.8781753022  0.7844723897 -0.1630657447
H   0.6972894505  1.5593998418 -0.9198438714
O   0.5267719407  0.9719243472  1.1224757637
C   1.3505948306 -0.5559336259 -0.1932273777
H   0.7786216503 -0.2481440303  1.0611505849
H   1.0691702832 -1.3015610084 -0.9482254063
H   2.3006181645 -0.7197912556  0.3346753146
7
Iter 61  Energy = -29.6073223716
C   0.8781936708  0.7844349090 -0.1630898997
H   0.6973774468  1.5594915992 -0.9198059748
O   0.5267060049  0.9718502596  1.1224611877
C   1.3506163218 -0.5559002624 -0.1932455429
H   0.7785848972 -0.2481548932  1.0611380137
H   1.0690874721 -1.3016634493 -0.9481104733
H   2.3006758084 -0.7196915041  0.3345919515
7
Iter 62  Energy = -29.6073228782
C   0.8781756340  0.7844805757 -0.1630989963
H   0.6974737582  1.5595614191 -0.9197681169
O   0.5266427373  0.9717945691  1.1224410338
C   1.3506259488 -0.5559320194 -0.1932536781
H   0.7785487539 -0.2481931573  1.0610974645
H   1.0690143890 -1.3017483267 -0.9479851736
H   2.3007604005 -0.7195964015  0.3345067283
7
Iter 63  Energy = -29.6073233551
C   0.8781933265  0.7844428452 -0.1631226953
H   0.6975608420  1.5596520433 -0.9197307256
O   0.5265765944  0.9717218731  1.1224262942
C   1.3506469691 -0.5558989046 -0.1932712854
H   0.7785136027 -0.2482030530  1.0610861646
H   1.0689331431 -1.3018490210 -0.9478724577
H   2.3008171439 -0.7194991228  0.3344239677
7
Iter 64  Energy = -29.6073237872
C   0.8781747480  0.7844882332 -0.1631316318
H   0.6976562465  1.5597207175 -0.9196933582
O   0.5265130854  0.9716676251  1.1224061457
C   1.3506561614 -0.5559307531 -0.1932789762
H   0.7784790018 -0.2482405464  1.0610470379
H   1.0688616101 -1.3019321771 -0.9477492836
H   2.3009007691 -0.7194064390  0.3343393282
7
Iter 65  Energy = -29.6073242641
C   0.8781918075  0.7844502737 -0.1631548737
H   0.6977424146  1.5598102076 -0.9196564755
O   0.5264467828  0.9715962812  1.1223912766
C   1.3506767421 -0.5558979119 -0.1932960559
H   0.7784453823 -0.2482495120  1.0610369182
H   1.0687818751 -1.3020311398 -0.9476387164
H   2.3009566183 -0.7193115387  0.3342571892
7
Iter 66  Energy = -29.6073247111
C   0.8781727161  0.7844954372 -0.1631636595
H   0.6978369111  1.5598777255 -0.9196195872
O   0.5263830872  0.9715434196  1.1223711395
C   1.3506855212 -0.5559298583 -0.1933032930
H   0.7784122525 -0.2482862723  1.0609991208
H   1.0687118307 -1.3021126033 -0.9475176143
H   2.3010393039 -0.7192211876  0.3341731545
7
Iter 67  Energy = -29.6073251730
C   0.8781891888  0.7844572271 -0.1631864701
H   0.6979221648  1.5599660833 -0.9195832173
O   0.5263166811  0.9714733515  1.1223561742
C   1.3507057125 -0.5558972318 -0.1933198809
H   0.7783800743 -0.2482943076  1.0609901716
H   1.0686335412 -1.3022098890 -0.9474091756
H   2.3010942606 -0.7191285730  0.3340916595
7
Iter 68  Energy = -29.6073254859
C   0.8781696299  0.7845021599 -0.1631950895
H   0.6980157497  1.5600324623 -0.9195468341
O   0.5262528455  0.9714218472  1.1223360825
C   1.3507140915 -0.5559292702 -0.1933266799
H   0.7783483479 -0.2483303925  1.0609536275
H   1.0685649328 -1.3022896813 -0.9472900915
H   2.3011760252 -0.7190404645  0.3340082460
7
Iter 69  Energy = -29.6073260224
C   0.8781855527  0.7844637451 -0.1632174687
H   0.6981000870  1.5601196961 -0.9195109895
O   0.5261863742  0.9713530217  1.1223210486
C   1.3507338948 -0.5558968880 -0.1933427953
H   0.7783175535 -0.2483375550  1.0609457640
H   1.0684880377 -1.3023853064 -0.9471837196
H   2.3012301227 -0.7189500514  0.3339274208
7
Iter 70  Energy = -29.6073263949
C   0.8781655488  0.7845084957 -0.1632259180
H   0.6981927649  1.5601849159 -0.9194750935
O   0.5261224545  0.9713028180  1.1223009860
C   1.3507418995 -0.5559290065 -0.1933491265
H   0.7782871750 -0.2483730124  1.0609103705
H   1.0684208119 -1.3024634471 -0.9470665876
H   2.3013109674 -0.7188641016  0.3338446301
7
Iter 71  Energy = -29.6073268420
C   0.8781809600  0.7844698418 -0.1632478256
H   0.6982761864  1.5602710336 -0.9194397930
O   0.5260559783  0.9712351654  1.1222858785
C   1.3507613234 -0.5558967953 -0.1933647726
H   0.7782576903 -0.2483793184  1.0609035248
H   1.0683452561 -1.3025574517 -0.9469622403
H   2.3013642278 -0.7187758140  0.3337644896
7
Iter 72  Energy = -29.6073271698
C   0.8781605438  0.7845144515 -0.1632561215
H   0.6983679574  1.5603351067 -0.9194044030
O   0.5259920124  0.9711862234  1.1222658734
C   1.3507689633 -0.5559290147 -0.1933706802
H   0.7782285838 -0.2484142014  1.0608692429
H   1.0682793532 -1.3026339582 -0.9468470039
H   2.3014442079 -0.7186919458  0.3336823544
7
Iter 73  Energy = -29.6073276168
C   0.8781755051  0.7844755477 -0.1632775914
H   0.6984504580  1.5604201225 -0.9193696417
O   0.5259255637  0.9711197179  1.1222507241
C   1.3507880139 -0.5558969654 -0.1933858884
H   0.7782003486 -0.2484197005  1.0608633719
H   1.0682051055 -1.3027263572 -0.9467446131
H   2.3014966268 -0.7186057044  0.3336029002
7
Iter 74  Energy = -29.6073279744
C   0.8781547040  0.7845200332 -0.1632857270
H   0.6985413231  1.5604830430 -0.9193347372
O   0.5258616012  0.9710719818  1.1222307684
C   1.3507953447 -0.5559292568 -0.1933913595
H   0.7781724503 -0.2484540219  1.0608301429
H   1.0681404727 -1.3028012783 -0.9466312417
H   2.3015757256 -0.7185238405  0.3335214170
7
Iter 75  Energy = -29.6073283321
C   0.8781692395  0.7844808890 -0.1633067629
H   0.6986229063  1.5605669631 -0.9193005173
O   0.5257952231  0.9710065681  1.1222155940
C   1.3508140691 -0.5558973378 -0.1934061102
H   0.7781454019 -0.2484587277  1.0608251861
H   1.0680674720 -1.3028921228 -0.9465307848
H   2.3016273098 -0.7184395702  0.3334426582
7
Iter 76  Energy = -29.6073287046
C   0.8781480982  0.7845252471 -0.1633147582
H   0.6987128641  1.5606287484 -0.9192661069
O   0.5257312934  0.9709599987  1.1221957195
C   1.3508210872 -0.5559296927 -0.1934112262
H   0.7781186432 -0.2484925070  1.0607930105
H   1.0680040802 -1.3029654850 -0.9464192249
H   2.3017055555 -0.7183596473  0.3333618500
7
Iter 77  Energy = -29.6073290771
C   0.8781622459  0.7844858973 -0.1633353910
H   0.6987935360  1.5607115580 -0.9192324106
O   0.5256650154  0.9708956509  1.1221805400
C   1.3508394583 -0.5558978978 -0.1934255629
H   0.7780927378 -0.2484964809  1.0607889055
H   1.0679322989 -1.3030547840 -0.9463206218
H   2.3017563296 -0.7182772820  0.3332838052
7
Iter 78  Energy = -29.6073294199
C   0.8781407840  0.7845301360 -0.1633432195
H   0.6988825875  1.5607722226 -0.9191984989
O   0.5256011648  0.9708502068  1.1221607342
C   1.3508462005 -0.5559303062 -0.1934302941
H   0.7780670707 -0.2485297548  1.0607577042
H   1.0678700993 -1.3031266155 -0.9462108326
H   2.3018337150 -0.7181992273  0.3332036703
7
Iter 79  Energy = -29.6073298371
C   0.8781545760  0.7844905385 -0.1633634116
H   0.6989623473  1.5608539494 -0.9191653408
O   0.5255350307  0.9707868712  1.1221455468
C   1.3508642135 -0.5558985986 -0.1934442469
H   0.7780422465 -0.2485329938  1.0607544038
H   1.0677994956 -1.3032144005 -0.9461140454
H   2.3018837122 -0.7181187042  0.3331263572
7
Iter 80  Energy = -29.6073300755
C   0.8781328149  0.7845347115 -0.1633710998
H   0.6990504949  1.5609134835 -0.9191319050
O   0.5254712891  0.9707425213  1.1221258327
C   1.3508706734 -0.5559310672 -0.1934486185
H   0.7780176129 -0.2485657821  1.0607241302
H   1.0677384508 -1.3032847444 -0.9460059946
H   2.3019602856 -0.7180424609  0.3330469183
7
Iter 81  Energy = -29.6073305225
C   0.8781462813  0.7844949050 -0.1633909085
H   0.6991293441  1.5609941350 -0.9190992850
O   0.5254053131  0.9706802023  1.1221107036
C   1.3508883790 -0.5558994620 -0.1934621626
H   0.7779938251 -0.2485683483  1.0607215804
H   1.0676689806 -1.3033710569 -0.9459109982
H   2.3020094985 -0.7179637127  0.3329703345
7
Iter 82  Energy = -29.6073308355
C   0.8781242434  0.7845390046 -0.1633984407
H   0.6992165893  1.5610525600 -0.9190663379
O   0.5253417194  0.9706369139  1.1220910761
C   1.3508945770 -0.5559319959 -0.1934661940
H   0.7779701737 -0.2486006851  1.0606922003
H   1.0676090588 -1.3034399188 -0.9458046311
H   2.3020852602 -0.7178892163  0.3328915924
7
Iter 83  Energy = -29.6073312080
C   0.8781374128  0.7844989697 -0.1634178261
H   0.6992945255  1.5611321613 -0.9190342603
O   0.5252759468  0.9705755492  1.1220759689
C   1.3509119921 -0.5559004768 -0.1934793601
H   0.7779473666 -0.2486025865  1.0606903753
H   1.0675406939 -1.3035247760 -0.9457113682
H   2.3021336838 -0.7178121800  0.3328157360
7
Iter 84  Energy = -29.6073314613
C   0.8781151168  0.7845430291 -0.1634252350
H   0.6993808767  1.5611894743 -0.9190017867
O   0.5252125226  0.9705332845  1.1220564656
C   1.3509179461 -0.5559330870 -0.1934830582
H   0.7779246512 -0.2486344805  1.0606618341
H   1.0674818625 -1.3035921867 -0.9456066464
H   2.3022086458 -0.7177393726  0.3327376929
7
Iter 85  Energy = -29.6073318189
C   0.8781280173  0.7845027929 -0.1634442570
H   0.6994579084  1.5612680183 -0.9189702328
O   0.5251469674  0.9704728797  1.1220414279
C   1.3509350532 -0.5559016334 -0.1934958367
H   0.7779027892 -0.2486357760  1.0606606684
H   1.0674145646 -1.3036756243 -0.9455150828
H   2.3022563216 -0.7176639965  0.3326625784
7
Iter 86  Energy = -29.6073321319
C   0.8781054972  0.7845467960 -0.1634515103
H   0.6995433549  1.5613242621 -0.9189382505
O   0.5250837489  0.9704316182  1.1220220161
C   1.3509407716 -0.5559342958 -0.1934991850
H   0.7778809676 -0.2486672839  1.0606329290
H   1.0673567830 -1.3037416149 -0.9454119752
H   2.3023304985 -0.7175928209  0.3325852411
7
Iter 87  Energy = -29.6073325044
C   0.8781181436  0.7845063496 -0.1634701095
H   0.6996194811  1.5614017713 -0.9189072257
O   0.5250184472  0.9703721256  1.1220070248
C   1.3509575955 -0.5559029205 -0.1935116186
H   0.7778599932 -0.2486679598  1.0606323926
H   1.0672905213 -1.3038236552 -0.9453220736
H   2.3023774399 -0.7175190495  0.3325108747
7
Iter 88  Energy = -29.6073327577
C   0.8780954223  0.7845503108 -0.1634772430
H   0.6997040320  1.5614569379 -0.9188757110
O   0.5249554607  0.9703318312  1.1219877295
C   1.3509630931 -0.5559356328 -0.1935146532
H   0.7778390121 -0.2486990882  1.0606054320
H   1.0672337679 -1.3038882468 -0.9452205309
H   2.3024508340 -0.7174494513  0.3324342412
7
Iter 89  Energy = -29.6073331004
C   0.8781078513  0.7845096295 -0.1634954465
H   0.6997792584  1.5615334177 -0.9188452041
O   0.5248904343  0.9702732274  1.1219727986
C   1.3509796344 -0.5559042895 -0.1935267617
H   0.7778188893 -0.2486991729  1.0606055049
H   1.0671685186 -1.3039689190 -0.9451322519
H   2.3024970358 -0.7173772327  0.3323606257
7
Iter 90  Energy = -29.6073333687
C   0.8780849412  0.7845535715 -0.1635024585
H   0.6998629193  1.5615875129 -0.9188141467
O   0.5248277028  0.9702338694  1.1219536233
C   1.3509848966 -0.5559370692 -0.1935295043
H   0.7777987172 -0.2487299318  1.0605792744
H   1.0671127682 -1.3040321289 -0.9450322355
H   2.3025696767 -0.7173091633  0.3322847135
7
Iter 91  Energy = -29.6073336965
C   0.8780971584  0.7845126672 -0.1635202697
H   0.6999372460  1.5616629950 -0.9187841677
O   0.5247629830  0.9701761125  1.1219387603
C   1.3510011929 -0.5559057528 -0.1935412331
H   0.7777794202 -0.2487294483  1.0605798860
H   1.0670484858 -1.3041114693 -0.9449455604
H   2.3026151356 -0.7172384433  0.3322118511
7
Iter 92  Energy = -29.6073339498
C   0.8780740833  0.7845566013 -0.1635271911
H   0.7000200215  1.5617160374 -0.9187535742
O   0.5247005234  0.9701376587  1.1219197445
C   1.3510062391 -0.5559385999 -0.1935437089
H   0.7777600093 -0.2487598518  1.0605543759
H   1.0669937055 -1.3041733333 -0.9448470472
H   2.3026870400 -0.7171718519  0.3321366673
7
Iter 93  Energy = -29.6073342776
C   0.8780861181  0.7845154840 -0.1635446089
H   0.7000934518  1.5617905276 -0.9187241157
O   0.5246361285  0.9700807253  1.1219049575
C   1.3510222598 -0.5559073095 -0.1935551283
H   0.7777414895 -0.2487588130  1.0605555192
H   1.0669303730 -1.3042513663 -0.9447619348
H   2.3027318012 -0.7171025877  0.3320645775
7
Iter 94  Energy = -29.6073345459
C   0.8780628784  0.7845594186 -0.1635513993
H   0.7001753444  1.5618425254 -0.9186939684
O   0.5245739807  0.9700431572  1.1218860415
C   1.3510271371 -0.5559402073 -0.1935573029
H   0.7777228069 -0.2487889005  1.0605306794
H   1.0668765381 -1.3043119076 -0.9446648821
H   2.3028029362 -0.7170374257  0.3319900978
7
Iter 95  Energy = -29.6073348439
C   0.8780747371  0.7845181306 -0.1635684428
H   0.7002478850  1.5619160282 -0.9186650094
O   0.5245099300  0.9699870398  1.1218713243
C   1.3510429138 -0.5559089774 -0.1935684011
H   0.7777050364 -0.2487873512  1.0605323087
H   1.0668141307 -1.3043886430 -0.9445812830
H   2.3028469892 -0.7169695669  0.3319187685
7
Iter 96  Energy = -29.6073350525
C   0.8780513574  0.7845620783 -0.1635751264
H   0.7003288999  1.5619669952 -0.9186353077
O   0.5244480943  0.9699503491  1.1218525676
C   1.3510476019 -0.5559419288 -0.1935703290
H   0.7776870464 -0.2488171252  1.0605081189
H   1.0667612193 -1.3044479098 -0.9444856752
H   2.3029174029 -0.7169057982  0.3318450169
7
Iter 97  Energy = -29.6073353654
C   0.8780630666  0.7845205817 -0.1635918119
H   0.7004005560  1.5620395278 -0.9186068474
O   0.5243844058  0.9698950137  1.1218379447
C   1.3510631382 -0.5559106972 -0.1935811366
H   0.7776699797 -0.2488150611  1.0605102377
H   1.0666997180 -1.3045233932 -0.9444035702
H   2.3029607575 -0.7168393107  0.3317744496
7
Iter 98  Energy = -29.6073355889
C   0.8780395605  0.7845645130 -0.1635983737
H   0.7004806967  1.5620894877 -0.9185775937
O   0.5243229057  0.9698591966  1.1218193262
C   1.3510676578 -0.5559436860 -0.1935828116
H   0.7776526521 -0.2488445687  1.0604866656
H   1.0666477028 -1.3045813914 -0.9443093655
H   2.3030304463 -0.7167768901  0.3317014189
7
Iter 99  Energy = -29.6073358721
C   0.8780511205  0.7845228708 -0.1636146850
H   0.7005514651  1.5621610774 -0.9185496332
O   0.5242596108  0.9698046243  1.1218047543
C   1.3510829367 -0.5559124536 -0.1935932487
H   0.7776363113 -0.2488420764  1.0604891780
H   1.0665870785 -1.3046556534 -0.9442287273
H   2.3030730986 -0.7167117277  0.3316316286
7
Iter 100  Energy = -29.6073361105
C   0.8780275191  0.7845667959 -0.1636211626
H   0.7006307402  1.5622100305 -0.9185208225
O   0.5241984536  0.9697696429  1.1217863288
C   1.3510872563 -0.5559454738 -0.1935947084
H   0.7776196102 -0.2488713043  1.0604661956
H   1.0665359410 -1.3047124158 -0.9441358987
H   2.3031421008 -0.7166506137  0.3315593335
7
Iter 101  Energy = -29.6073364085
C   0.8780389346  0.7845250326 -0.1636371011
H   0.7007006314  1.5622806821 -0.9184933528
O   0.5241355687  0.9697158286  1.1217717932
C   1.3511023043 -0.5559142458 -0.1936048110
H   0.7776039791 -0.2488684290  1.0604691046
H   1.0664761829 -1.3047854726 -0.9440566809
H   2.3031840203 -0.7165867336  0.3314903150
7
Iter 102  Energy = -29.6073365873
C   0.8780152342  0.7845689320 -0.1636434427
H   0.7007790447  1.5623286489 -0.9184649774
O   0.5240747771  0.9696816676  1.1217535216
C   1.3511064736 -0.5559473009 -0.1936060631
H   0.7775878700 -0.2488973787  1.0604466822
H   1.0664259010 -1.3048410164 -0.9439651933
H   2.3032523203 -0.7165268903  0.3314187391
7
Iter 103  Energy = -29.6073369151
C   0.8780265241  0.7845270808 -0.1636590631
H   0.7008480706  1.5623983656 -0.9184379912
O   0.5240123119  0.9696285860  1.1217390661
C   1.3511212595 -0.5559160343 -0.1936158112
H   0.7775729195 -0.2488941559  1.0604499381
H   1.0663669795 -1.3049129175 -0.9438873758
H   2.3032935558 -0.7164642618  0.3313505027
7
Iter 104  Energy = -29.6073371238
C   0.8780027584  0.7845709320 -0.1636652943
H   0.7009256242  1.5624453689 -0.9184100505
O   0.5239518862  0.9695952331  1.1217209979
C   1.3511252887 -0.5559491539 -0.1936168955
H   0.7775573698 -0.2489228215  1.0604280546
H   1.0663175348 -1.3049672544 -0.9437971941
H   2.3033611583 -0.7164056416  0.3312796462
7
Iter 105  Energy = -29.6073373622
C   0.8780139288  0.7845290137 -0.1636805943
H   0.7009937883  1.5625141702 -0.9183835432
O   0.5238898494  0.9695428775  1.1217066285
C   1.3511398569 -0.5559178718 -0.1936263058
H   0.7775430627 -0.2489192686  1.0604316532
H   1.0662594352 -1.3050380295 -0.9437207473
H   2.3034016992 -0.7163442286  0.3312121730
7
Iter 106  Energy = -29.6073375112
C   0.8779900867  0.7845728439 -0.1636866980
H   0.7010704886  1.5625602264 -0.9183560380
O   0.5238298238  0.9695102841  1.1216887274
C   1.3511437321 -0.5559510307 -0.1936272192
H   0.7775280421 -0.2489476593  1.0604102951
H   1.0662108051 -1.3050911914 -0.9436318546
H   2.3034686422 -0.7162868105  0.3311420509
7
Iter 107  Energy = -29.6073378390
C   0.8780011484  0.7845308419 -0.1637016659
H   0.7011377943  1.5626281212 -0.9183299878
O   0.5237682325  0.9694586433  1.1216744180
C   1.3511580955 -0.5559197373 -0.1936363164
H   0.7775143541 -0.2489437862  1.0604142086
H   1.0661535086 -1.3051608448 -0.9435567335
H   2.3035084873 -0.7162265752  0.3310753404
7
Iter 108  Energy = -29.6073380476
C   0.8779772716  0.7845745872 -0.1637076387
H   0.7012136427  1.5626732592 -0.9183029126
O   0.5237086036  0.9694268204  1.1216567048
C   1.3511618123 -0.5559529174 -0.1936370965
H   0.7774998344 -0.2489719173  1.0603933529
H   1.0661056795 -1.3052128515 -0.9434690919
H   2.3035747766 -0.7161703179  0.3310059443
7
Iter 109  Energy = -29.6073382562
C   0.8779882303  0.7845325269 -0.1637222816
H   0.7012800986  1.5627402585 -0.9182773182
O   0.5236474775  0.9693758517  1.1216424639
C   1.3511759553 -0.5559216076 -0.1936459027
H   0.7774867264 -0.2489677192  1.0603975728
H   1.0660491718 -1.3052814131 -0.9433952710
H   2.3036139606 -0.7161112340  0.3309399996
7
Iter 110  Energy = -29.6073384649
C   0.8779643045  0.7845762400 -0.1637281271
H   0.7013551029  1.5627844808 -0.9182506634
O   0.5235882662  0.9693447589  1.1216249346
C   1.3511795597 -0.5559548095 -0.1936465206
H   0.7774726751 -0.2489955786  1.0603772035
H   1.0660021187 -1.3053323175 -0.9433088864
H   2.3036795935 -0.7160561110  0.3308713213
7
Iter 111  Energy = -29.6073387331
C   0.8779751719  0.7845341279 -0.1637424794
H   0.7014207145  1.5628506028 -0.9182255137
O   0.5235276045  0.9692944631  1.1216107932
C   1.3511935114 -0.5559234874 -0.1936550273
H   0.7774601244 -0.2489910750  1.0603817084
H   1.0659463736 -1.3053998239 -0.9432363584
H   2.3037181206 -0.7159981440  0.3308061401
7
Iter 112  Energy = -29.6073388970
C   0.8779512286  0.7845777692 -0.1637482044
H   0.7014948772  1.5628939321 -0.9181992763
O   0.5234688160  0.9692640916  1.1215934576
C   1.3511969909 -0.5559567071 -0.1936555264
H   0.7774465177 -0.2490186800  1.0603618164
H   1.0659000867 -1.3054496227 -0.9431511815
H   2.3037831041 -0.7159441201  0.3307381777
7
Iter 113  Energy = -29.6073391503
C   0.8779620078  0.7845356101 -0.1637622500
H   0.7015596536  1.5629591789 -0.9181745575
O   0.5234086331  0.9692144447  1.1215794008
C   1.3512107270 -0.5559253934 -0.1936637680
H   0.7774345045 -0.2490138676  1.0603665730
H   1.0658450992 -1.3055160686 -0.9430798965
H   2.3038209961 -0.7158872417  0.3306737621
7
Iter 114  Energy = -29.6073392546
C   0.8779380461  0.7845792038 -0.1637678573
H   0.7016329805  1.5630016310 -0.9181487255
O   0.5233502738  0.9691847751  1.1215622614
C   1.3512141042 -0.5559586565 -0.1936641338
H   0.7774213230 -0.2490412074  1.0603471256
H   1.0657995565 -1.3055647989 -0.9429959182
H   2.3038853372 -0.7158342855  0.3306065134
7
Iter 115  Energy = -29.6073395824
C   0.8779487616  0.7845369871 -0.1637816489
H   0.7016969212  1.5630660338 -0.9181244336
O   0.5232905764  0.9691357568  1.1215483113
C   1.3512276925 -0.5559273253 -0.1936721123
H   0.7774098059 -0.2490360932  1.0603521844
H   1.0657453022 -1.3056302364 -0.9429258801
H   2.3039225615 -0.7157784611  0.3305428451
7
Iter 116  Energy = -29.6073397017
C   0.8779247926  0.7845805349 -0.1637871468
H   0.7017694205  1.5631076163 -0.9180990032
O   0.5232326644  0.9691067630  1.1215313629
C   1.3512309481 -0.5559605947 -0.1936723663
H   0.7773970226 -0.2490631885  1.0603331821
H   1.0657004955 -1.3056779191 -0.9428430715
H   2.3039862778 -0.7157265504  0.3304763091
7
Iter 117  Energy = -29.6073399848
C   0.8779354467  0.7845382768 -0.1638006569
H   0.7018325371  1.5631711772 -0.9180751343
O   0.5231734560  0.9690583678  1.1215175165
C   1.3512443388 -0.5559292559 -0.1936800822
H   0.7773859993 -0.2490578001  1.0603384587
H   1.0656469626 -1.3057423478 -0.9427742298
H   2.3040228809 -0.7156717562  0.3304133945
7
Iter 118  Energy = -29.6073401189
C   0.8779114813  0.7845817411 -0.1638060267
H   0.7019042152  1.5632119142 -0.9180501053
O   0.5231159940  0.9690300486  1.1215007667
C   1.3512474805 -0.5559625178 -0.1936802100
H   0.7773736031 -0.2490846617  1.0603198441
H   1.0656028678 -1.3057890061 -0.9426925704
H   2.3040859795 -0.7156208556  0.3303475678
7
Iter 119  Energy = -29.6073403722
C   0.8779220790  0.7845394579 -0.1638192603
H   0.7019665125  1.5632746417 -0.9180266405
O   0.5230572911  0.9689822642  1.1214869933
C   1.3512607041 -0.5559311670 -0.1936876791
H   0.7773630349 -0.2490790186  1.0603253646
H   1.0655500292 -1.3058524565 -0.9426249162
H   2.3041219700 -0.7155670591  0.3302854042
7
Iter 120  Energy = -29.6073405659
C   0.8778981188  0.7845828797 -0.1638245332
H   0.7020373728  1.5633145409 -0.9180019860
O   0.5230002919  0.9689545817  1.1214704318
C   1.3512637471 -0.5559644360 -0.1936877091
H   0.7773509882 -0.2491056284  1.0603071679
H   1.0655066404 -1.3058981183 -0.9425443855
H   2.3041844616 -0.7155171565  0.3302202813
7
Iter 121  Energy = -29.6073407447
C   0.8779086613  0.7845405790 -0.1638375092
H   0.7020988594  1.5633764529 -0.9179789198
O   0.5229420918  0.9689074083  1.1214567541
C   1.3512768288 -0.5559330965 -0.1936949537
H   0.7773408513 -0.2490997468  1.0603129176
H   1.0654544873 -1.3059605971 -0.9424778747
H   2.3042198409 -0.7154643363  0.3301588523
7
Iter 122  Energy = -29.6073408043
C   0.8778847129  0.7845839631 -0.1638426656
H   0.7021689142  1.5634155235 -0.9179546462
O   0.5228855600  0.9688803557  1.1214403824
C   1.3512797601 -0.5559663590 -0.1936948834
H   0.7773291443 -0.2491261341  1.0602950964
H   1.0654117878 -1.3060052855 -0.9423984440
H   2.3042817413 -0.7154154006  0.3300944275
7
Iter 123  Energy = -29.6073410726
C   0.8778952143  0.7845416214 -0.1638553740
H   0.7022295950  1.5634766391 -0.9179319809
O   0.5228278744  0.9688337501  1.1214267983
C   1.3512927083 -0.5559350025 -0.1937018712
H   0.7773194177 -0.2491199936  1.0603010420
H   1.0653602960 -1.3060668222 -0.9423330704
H   2.3043165150 -0.7153635280  0.3300337239
7
Iter 124  Energy = -29.6073412216
C   0.8778712889  0.7845849515 -0.1638604227
H   0.7022988472  1.5635149035 -0.9179080819
O   0.5227718083  0.9688073219  1.1214106348
C   1.3512955297 -0.5559682802 -0.1937017395
H   0.7773080300 -0.2491461499  1.0602835888
H   1.0653182820 -1.3061105446 -0.9422547091
H   2.3043778350 -0.7153155383  0.3299699972
7
Iter 125  Energy = -29.6073414451
C   0.8778817607  0.7845425784 -0.1638728901
H   0.7023587281  1.5635752380 -0.9178858042
O   0.5227146351  0.9687612950  1.1213971614
C   1.3513083535 -0.5559369141 -0.1937085060
H   0.7772986951 -0.2491397751  1.0602897447
H   1.0652674440 -1.3061711694 -0.9421904552
H   2.3044120049 -0.7152645884  0.3299100186
7
Iter 126  Energy = -29.6073416090
C   0.8778578689  0.7845858564 -0.1638778321
H   0.7024271820  1.5636127039 -0.9178622564
O   0.5226590527  0.9687354649  1.1213811627
C   1.3513110621 -0.5559701704 -0.1937082760
H   0.7772876135 -0.2491657162  1.0602726458
H   1.0652260973 -1.3062139571 -0.9421131558
H   2.3044727448 -0.7152175179  0.3298469808
7
Iter 127  Energy = -29.6073417729
C   0.8778683117  0.7845434774 -0.1638900756
H   0.7024862713  1.5636722660 -0.9178403618
O   0.5226023970  0.9686899943  1.1213678053
C   1.3513237733 -0.5559388064 -0.1937148096
H   0.7772786563 -0.2491591134  1.0602789947
H   1.0651758998 -1.3062736866 -0.9420499994
H   2.3045063118 -0.7151674683  0.3297877156
7
Iter 128  Energy = -29.6073419815
C   0.8778444521  0.7845866980 -0.1638949269
H   0.7025539395  1.5637089519 -0.9178171805
O   0.5225472913  0.9686647524  1.1213520251
C   1.3513263863 -0.5559720405 -0.1937145129
H   0.7772678590 -0.2491848305  1.0602622471
H   1.0651352070 -1.3063155655 -0.9419737474
H   2.3045664857 -0.7151213026  0.3297253650
7
Iter 129  Energy = -29.6073421454
C   0.8778548698  0.7845443296 -0.1639069420
H   0.7026122472  1.5637677391 -0.9177956457
O   0.5224911558  0.9686198427  1.1213387675
C   1.3513389409 -0.5559406946 -0.1937208455
H   0.7772592713 -0.2491780271  1.0602687592
H   1.0650856476 -1.3063743956 -0.9419116448
H   2.3045994881 -0.7150721300  0.3296668211
7
Iter 130  Energy = -29.6073422647
C   0.8778310517  0.7845874784 -0.1639116586
H   0.7026791319  1.5638036700 -0.9177728332
O   0.5224365327  0.9685951979  1.1213231799
C   1.3513414738 -0.5559739364 -0.1937204859
H   0.7772487488 -0.2492035443  1.0602523330
H   1.0650456017 -1.3064153680 -0.9418364067
H   2.3046590797 -0.7150268338  0.3296051417
7
Iter 131  Energy = -29.6073424733
C   0.8778414613  0.7845450705 -0.1639234504
H   0.7027366610  1.5638617245 -0.9177516809
O   0.5223809272  0.9685507987  1.1213100471
C   1.3513538971 -0.5559425689 -0.1937266206
H   0.7772404956 -0.2491965010  1.0602590285
H   1.0649966655 -1.3064733398 -0.9417753616
H   2.3046915126 -0.7149785196  0.3295473091
7
Iter 132  Energy = -29.6073425478
C   0.8778176846  0.7845881866 -0.1639280688
H   0.7028027711  1.5638969046 -0.9177292213
O   0.5223267955  0.9685267038  1.1212946593
C   1.3513563353 -0.5559758183 -0.1937262063
H   0.7772302291 -0.2492217980  1.0602429319
H   1.0649572571 -1.3065134366 -0.9417011302
H   2.3047505473 -0.7149340782  0.3294863070
7
Iter 133  Energy = -29.6073427564
C   0.8778280792  0.7845458057 -0.1639396607
H   0.7028595281  1.5639542239 -0.9177084232
O   0.5222717260  0.9684828248  1.1212816169
C   1.3513686444 -0.5559444436 -0.1937320877
H   0.7772223084 -0.2492145767  1.0602497892
H   1.0649089237 -1.3065705713 -0.9416411327
H   2.3047824102 -0.7148865986  0.3294291702
7
Iter 134  Energy = -29.6073428607
C   0.8778043478  0.7845888656 -0.1639441748
H   0.7029248766  1.5639886522 -0.9176862983
O   0.5222180844  0.9684592968  1.1212664220
C   1.3513709741 -0.5559776607 -0.1937316173
H   0.7772122939 -0.2492396854  1.0602339796
H   1.0648701358 -1.3066098112 -0.9415678847
H   2.3048409073 -0.7148429926  0.3293688451
7
Iter 135  Energy = -29.6073430842
C   0.8778147414  0.7845464778 -0.1639555682
H   0.7029808705  1.5640452443 -0.9176658400
O   0.5221635418  0.9684159255  1.1212534927
C   1.3513831662 -0.5559462912 -0.1937373170
H   0.7772046834 -0.2492322476  1.0602410003
H   1.0648224051 -1.3066661134 -0.9415088986
H   2.3048722110 -0.7147963295  0.3293124031
7
Iter 136  Energy = -29.6073432332
C   0.8777910681  0.7845894742 -0.1639599786
H   0.7030454575  1.5640789514 -0.9176440521
O   0.5221103940  0.9683929421  1.1212384934
C   1.3513853882 -0.5559794938 -0.1937367903
H   0.7771949043 -0.2492571597  1.0602254719
H   1.0647842293 -1.3067045131 -0.9414366187
H   2.3049301783 -0.7147535350  0.3292527487
7
Iter 137  Energy = -29.6073433971
C   0.8778014573  0.7845470817 -0.1639711338
H   0.7031007013  1.5641348375 -0.9176239564
O   0.5220563699  0.9683501103  1.1212256739
C   1.3513974857 -0.5559481213 -0.1937423224
H   0.7771875974 -0.2492495838  1.0602326153
H   1.0647370812 -1.3067599882 -0.9413785837
H   2.3049609270 -0.7147076699  0.3291969819
7
Iter 138  Energy = -29.6073435164
C   0.8777778295  0.7845900351 -0.1639754211
H   0.7031645376  1.5641678356 -0.9176025152
O   0.5220037264  0.9683276428  1.1212108530
C   1.3513996263 -0.5559813183 -0.1937417372
H   0.7771780432 -0.2492742982  1.0602173655
H   1.0646995046 -1.3067975610 -0.9413072565
H   2.3050183524 -0.7146656693  0.3291379857
7
Iter 139  Energy = -29.6073436505
C   0.8777882182  0.7845476679 -0.1639863776
H   0.7032190392  1.5642230111 -0.9175827514
O   0.5219502236  0.9682853245  1.1211981395
C   1.3514116144 -0.5559499283 -0.1937470844
H   0.7771710316 -0.2492665764  1.0602246295
H   1.0646529278 -1.3068522429 -0.9412501779
H   2.3050485650 -0.7146205892  0.3290828969
7
Iter 140  Energy = -29.6073437697
C   0.8777646517  0.7845905665 -0.1639905809
H   0.7032821311  1.5642553066 -0.9175616253
O   0.5218980735  0.9682633751  1.1211835239
C   1.3514136912 -0.5559831058 -0.1937464420
H   0.7771616848 -0.2492910856  1.0602096489
H   1.0646159434 -1.3068890246 -0.9411797945
H   2.3051054447 -0.7145793648  0.3290245440
7
Iter 141  Energy = -29.6073439634
C   0.8777750447  0.7845481971 -0.1640013179
H   0.7033358949  1.5643098042 -0.9175422079
O   0.5218450983  0.9682215544  1.1211709174
C   1.3514255697 -0.5559516961 -0.1937516308
H   0.7771549467 -0.2492832114  1.0602170379
H   1.0645699333 -1.3069429278 -0.9411236536
H   2.3051351333 -0.7145350527  0.3289701290
7
Iter 142  Energy = -29.6073440826
C   0.8777515434  0.7845910305 -0.1640054114
H   0.7033982483  1.5643414218 -0.9175214100
O   0.5217934545  0.9682000946  1.1211564808
C   1.3514275540 -0.5559848593 -0.1937509502
H   0.7771458004 -0.2493075214  1.0602023269
H   1.0645335320 -1.3069789151 -0.9410541900
H   2.3051914879 -0.7144945829  0.3289124278
7
Iter 143  Energy = -29.6073442614
C   0.8777619403  0.7845486944 -0.1640159535
H   0.7034512844  1.5643952280 -0.9175023041
O   0.5217410078  0.9681587653  1.1211439580
C   1.3514393130 -0.5559534360 -0.1937559836
H   0.7771393320 -0.2492995180  1.0602098289
H   1.0644880772 -1.3070320437 -0.9409989572
H   2.3052206659 -0.7144510211  0.3288586860
7
Iter 144  Energy = -29.6073443359
C   0.8777385079  0.7845914617 -0.1640199650
H   0.7035129056  1.5644261811 -0.9174818291
O   0.5216898636  0.9681377926  1.1211297294
C   1.3514412132 -0.5559865711 -0.1937552469
H   0.7771303758 -0.2493236301  1.0601953673
H   1.0644522465 -1.3070672705 -0.9409304107
H   2.3052765083 -0.7144112949  0.3288016297
7
Iter 145  Energy = -29.6073445147
C   0.8777489107  0.7845491603 -0.1640303292
H   0.7035652203  1.5644793244 -0.9174630447
O   0.5216379369  0.9680969590  1.1211173335
C   1.3514528994 -0.5559551656 -0.1937601024
H   0.7771241679 -0.2493155008  1.0602029623
H   1.0644073340 -1.3071196506 -0.9408760846
H   2.3053051514 -0.7143684578  0.3287485400
7
Iter 146  Energy = -29.6073446190
C   0.8777255495  0.7845917775 -0.1640341482
H   0.7036261137  1.5645096386 -0.9174428845
O   0.5215873219  0.9680764356  1.1211031945
C   1.3514547647 -0.5559882185 -0.1937593682
H   0.7771153970 -0.2493393826  1.0601888129
H   1.0643720698 -1.3071541364 -0.9408084520
H   2.3053604039 -0.7143294460  0.3286921209
7
Iter 147  Energy = -29.6073447681
C   0.8777359580  0.7845495417 -0.1640443713
H   0.7036777183  1.5645621158 -0.9174244073
O   0.5215359088  0.9680360896  1.1210909455
C   1.3514663557 -0.5559568393 -0.1937640478
H   0.7771094453 -0.2493311395  1.0601964825
H   1.0643276961 -1.3072057760 -0.9407550073
H   2.3053885377 -0.7142873240  0.3286396805
7
Iter 148  Energy = -29.6073448426
C   0.8777126753  0.7845919784 -0.1640480055
H   0.7037378930  1.5645918067 -0.9174045670
O   0.5214858305  0.9680159844  1.1210769047
C   1.3514681672 -0.5559897537 -0.1937633016
H   0.7771008567 -0.2493547795  1.0601826359
H   1.0642929957 -1.3072395515 -0.9406882857
H   2.3054432014 -0.7142490170  0.3285838941
7
Iter 149  Energy = -29.6073450065
C   0.8777230891  0.7845498521 -0.1640581167
H   0.7037887955  1.5646436125 -0.9173863773
O   0.5214349228  0.9679761487  1.1210648047
C   1.3514796460 -0.5559584334 -0.1937678081
H   0.7770951596 -0.2493464681  1.0601903621
H   1.0642491558 -1.3072904496 -0.9406356934
H   2.3054708506 -0.7142075947  0.3285321031
7
Iter 150  Energy = -29.6073450810
C   0.8776998888  0.7845921439 -0.1640616008
H   0.7038482558  1.5646726993 -0.9173668624
O   0.5213853689  0.9679564411  1.1210509039
C   1.3514814002 -0.5559912926 -0.1937671164
H   0.7770867379 -0.2493698475  1.0601768368
H   1.0642150191 -1.3073235000 -0.9405698467
H   2.3055249484 -0.7141699763  0.3284769599
7
Iter 151  Energy = -29.6073452598
C   0.8777103078  0.7845501240 -0.1640715943
H   0.7038984649  1.5647238485 -0.9173489516
O   0.5213349695  0.9679171112  1.1210389489
C   1.3514927475 -0.5559600215 -0.1937714616
H   0.7770812851 -0.2493614773  1.0601846049
H   1.0641716989 -1.3073736794 -0.9405180969
H   2.3055521453 -0.7141292379  0.3284258243
7
Iter 152  Energy = -29.6073453492
C   0.8776871882  0.7845922680 -0.1640749289
H   0.7039572214  1.5647523298 -0.9173297407
O   0.5212859465  0.9678977989  1.1210251691
C   1.3514944512 -0.5559927644 -0.1937707600
H   0.7770730278 -0.2493846191  1.0601713637
H   1.0641381084 -1.3074060506 -0.9404531341
H   2.3056056756 -0.7140922948  0.3283713052
7
Iter 153  Energy = -29.6073454982
C   0.8776976158  0.7845503597 -0.1640848328
H   0.7040067442  1.5648028339 -0.9173121108
O   0.5212360496  0.9678589596  1.1210133853
C   1.3515056755 -0.5559615473 -0.1937749383
H   0.7770678133 -0.2493761841  1.0601791668
H   1.0640953053 -1.3074555248 -0.9404022130
H   2.3056324154 -0.7140522293  0.3283208162
7
Iter 154  Energy = -29.6073455578
C   0.8776745736  0.7845923584 -0.1640880453
H   0.7040648056  1.5648307202 -0.9172931976
O   0.5211875480  0.9678400413  1.1209997551
C   1.3515073505 -0.5559942195 -0.1937742560
H   0.7770597083 -0.2493990807  1.0601662048
H   1.0640622504 -1.3074872073 -0.9403381066
H   2.3056853828 -0.7140159443  0.3282669179
7
Iter 155  Energy = -29.6073457217
C   0.8776850037  0.7845505661 -0.1640978304
H   0.7041136482  1.5648805980 -0.9172758472
O   0.5211381577  0.9678016869  1.1209881199
C   1.3515184778 -0.5559630627 -0.1937782496
H   0.7770547217 -0.2493905894  1.0601740297
H   1.0640199491 -1.3075359977 -0.9402880086
H   2.3057116608 -0.7139765325  0.3282170591
7
Iter 156  Energy = -29.6073457813
C   0.8776620442  0.7845924129 -0.1641008599
H   0.7041710173  1.5649079110 -0.9172572306
O   0.5210901930  0.9677831441  1.1209745751
C   1.3515201000 -0.5559956501 -0.1937775949
H   0.7770467622 -0.2494132487  1.0601613510
H   1.0639874337 -1.3075670120 -0.9402247418
H   2.3057640684 -0.7139408879  0.3281637744
7
Iter 157  Energy = -29.6073458856
C   0.8776724769  0.7845507469 -0.1641105270
H   0.7042191877  1.5649571681 -0.9172401536
O   0.5210413068  0.9677452672  1.1209630838
C   1.3515310851 -0.5559645513 -0.1937814313
H   0.7770419975 -0.2494047099  1.0601691864
H   1.0639456320 -1.3076151240 -0.9401754397
H   2.3057899325 -0.7139021273  0.3281145566
7
Iter 158  Energy = -29.6073460048
C   0.8776496116  0.7845924389 -0.1641134444
H   0.7042758751  1.5649839118 -0.9172218320
O   0.5209938522  0.9677271055  1.1209497118
C   1.3515326424 -0.5559970563 -0.1937807952
H   0.7770341819 -0.2494271282  1.0601567501
H   1.0639136400 -1.3076454851 -0.9401130043
H   2.3058418151 -0.7138671174  0.3280618878
7
Iter 159  Energy = -29.6073461539
C   0.8776600544  0.7845508921 -0.1641230136
H   0.7043233798  1.5650325574 -0.9172050127
O   0.5209454703  0.9676896921  1.1209383694
C   1.3515435222 -0.5559660099 -0.1937844567
H   0.7770296254 -0.2494185315  1.0601645938
H   1.0638723233 -1.3076929452 -0.9400644984
H   2.3058672432 -0.7138289858  0.3280132925
7
Iter 160  Energy = -29.6073461837
C   0.8776372793  0.7845924560 -0.1641258299
H   0.7043793914  1.5650587404 -0.9171869695
O   0.5208985371  0.9676718875  1.1209251336
C   1.3515450697 -0.5559984207 -0.1937838092
H   0.7770219344 -0.2494407207  1.0601524294
H   1.0638408424 -1.3077226803 -0.9400028919
H   2.3059185649 -0.7137945921  0.3279612122
7
Iter 161  Energy = -29.6073463774
C   0.8776477279  0.7845510253 -0.1641352859
H   0.7044262386  1.5651067888 -0.9171704174
O   0.5208506550  0.9676349428  1.1209139437
C   1.3515558330 -0.5559674440 -0.1937873176
H   0.7770175845 -0.2494320825  1.0601602669
H   1.0638000102 -1.3077694839 -0.9399551516
H   2.3059435703 -0.7137570774  0.3279132381
7
Iter 162  Energy = -29.6073464668
C   0.8776250334  0.7845924902 -0.1641379674
H   0.7044815845  1.5651324130 -0.9171526471
O   0.5208042442  0.9676174903  1.1209008203
C   1.3515573112 -0.5559997914 -0.1937866953
H   0.7770100149 -0.2494540522  1.0601483459
H   1.0637690389 -1.3077985892 -0.9398943403
H   2.3059943919 -0.7137232910  0.3278617604
7
Iter 163  Energy = -29.6073465413
C   0.8776354981  0.7845511640 -0.1641473236
H   0.7045277780  1.5651798808 -0.9171363507
O   0.5207568551  0.9675810102  1.1208897869
C   1.3515679818 -0.5559688880 -0.1937900487
H   0.7770058622 -0.2494453614  1.0601561834
H   1.0637286797 -1.3078447588 -0.9398473655
H   2.3060189642 -0.7136863778  0.3278143943
7
Iter 164  Energy = -29.6073465860
C   0.8776128952  0.7845924971 -0.1641498808
H   0.7045824648  1.5652049709 -0.9171188664
O   0.5207109519  0.9675639340  1.1208767999
C   1.3515694169 -0.5560011341 -0.1937894484
H   0.7769984030 -0.2494671500  1.0601445078
H   1.0636981959 -1.3078732604 -0.9397873442
H   2.3060692912 -0.7136531897  0.3277635083
7
Iter 165  Energy = -29.6073467946
C   0.8776233827  0.7845512643 -0.1641591381
H   0.7046280127  1.5652518690 -0.9171028281
O   0.5206640627  0.9675278790  1.1208659139
C   1.3515799765 -0.5559702618 -0.1937926475
H   0.7769944342 -0.2494583955  1.0601523549
H   1.0636583048 -1.3079188155 -0.9397411270
H   2.3060934450 -0.7136168712  0.3277167474
7
Iter 166  Energy = -29.6073467648
C   0.8776008646  0.7845925022 -0.1641616015
H   0.7046820530  1.5652764107 -0.9170856000
O   0.5206186696  0.9675111422  1.1208530628
C   1.3515813714 -0.5560024385 -0.1937920712
H   0.7769870813 -0.2494799742  1.0601409135
H   1.0636283091 -1.3079467074 -0.9396818711
H   2.3061432700 -0.7135842658  0.3276664427
7
Iter 167  Energy = -29.6073468989
C   0.8776113751  0.7845513537 -0.1641707382
H   0.7047269607  1.5653227517 -0.9170698137
O   0.5205722778  0.9674755222  1.1208423151
C   1.3515918335 -0.5559716226 -0.1937951322
H   0.7769832913 -0.2494711610  1.0601487588
H   1.0635888785 -1.3079916557 -0.9396363953
H   2.3061670023 -0.7135485191  0.3276202806
7
Iter 168  Energy = -29.6073469883
C   0.8775889346  0.7845924971 -0.1641730725
H   0.7047803580  1.5653467648 -0.9170528498
O   0.5205274002  0.9674591245  1.1208295740
C   1.3515932022 -0.5560037280 -0.1937945624
H   0.7769760376 -0.2494925400  1.0601375437
H   1.0635593580 -1.3080189658 -0.9395779073
H   2.3062163288 -0.7135164836  0.3275705490
7
Iter 169  Energy = -29.6073471224
C   0.8775994583  0.7845514690 -0.1641821047
H   0.7048246385  1.5653925458 -0.9170373090
O   0.5204815029  0.9674239347  1.1208189690
C   1.3516035417 -0.5559729748 -0.1937974759
H   0.7769724282 -0.2494836934  1.0601453624
H   1.0635203803 -1.3080633078 -0.9395331520
H   2.3062396690 -0.7134813036  0.3275249855
7
Iter 170  Energy = -29.6073471224
C   0.8775771075  0.7845925006 -0.1641843388
H   0.7048774004  1.5654160475 -0.9170206076
O   0.5204371232  0.9674078783  1.1208063754
C   1.3516049046 -0.5560050279 -0.1937969399
H   0.7769652662 -0.2495048732  1.0601343800
H   1.0634913337 -1.3080900339 -0.9394754057
H   2.3062884834 -0.7134498210  0.3274758115
7
Iter 171  Energy = -29.6073473012
C   0.8775876628  0.7845515443 -0.1641932951
H   0.7049210552  1.5654612929 -0.9170053017
O   0.5203917067  0.9673731138  1.1207959374
C   1.3516151761 -0.5559743305 -0.1937997135
H   0.7769618208 -0.2494959596  1.0601421969
H   1.0634527994 -1.3081337987 -0.9394313772
H   2.3063113979 -0.7134151910  0.3274308275
7
Iter 172  Energy = -29.6073473162
C   0.8775653879  0.7845924809 -0.1641953841
H   0.7049731874  1.5654842880 -0.9169888514
O   0.5203478378  0.9673573929  1.1207834334
C   1.3516164797 -0.5560063176 -0.1937991984
H   0.7769547559 -0.2495169597  1.0601314097
H   1.0634242174 -1.3081599536 -0.9393743641
H   2.3063597524 -0.7133842599  0.3273822290
7
Iter 173  Energy = -29.6073474950
C   0.8775759765  0.7845515916 -0.1642042272
H   0.7050162246  1.5655290052 -0.9169737860
O   0.5203029156  0.9673230243  1.1207731258
C   1.3516266157 -0.5559756502 -0.1938018345
H   0.7769514770 -0.2495079845  1.0601391999
H   1.0633861320 -1.3082031395 -0.9393310333
H   2.3063822776 -0.7133501753  0.3273378293
7
Iter 174  Energy = -29.6073475695
C   0.8775538042  0.7845924008 -0.1642062464
H   0.7050677389  1.5655514980 -0.9169575879
O   0.5202595332  0.9673076368  1.1207607940
C   1.3516278901 -0.5560075431 -0.1938013370
H   0.7769444982 -0.2495287935  1.0601286218
H   1.0633580031 -1.3082287491 -0.9392747541
H   2.3064301508 -0.7133197781  0.3272897841
7
Iter 175  Energy = -29.6073476142
C   0.8775644164  0.7845516157 -0.1642150027
H   0.7051101667  1.5655956906 -0.9169427577
O   0.5202150970  0.9672736782  1.1207506312
C   1.3516379183 -0.5559769290 -0.1938038356
H   0.7769413771 -0.2495197894  1.0601363878
H   1.0633203493 -1.3082713690 -0.9392321133
H   2.3064522939 -0.7132862249  0.3272459641
7
Iter 176  Energy = -29.6073477036
C   0.8775423308  0.7845923425 -0.1642169204
H   0.7051610668  1.5656176915 -0.9169267970
O   0.5201722163  0.9672586058  1.1207384119
C   1.3516391532 -0.5560087574 -0.1938033489
H   0.7769344839 -0.2495404213  1.0601260079
H   1.0632926721 -1.3082964395 -0.9391765500
H   2.3064996957 -0.7132563490  0.3271984710
7
Iter 177  Energy = -29.6073478079
C   0.8775529796  0.7845516263 -0.1642255958
H   0.7052028919  1.5656613696 -0.9169121904
O   0.5201282583  0.9672250523  1.1207284024
C   1.3516490918 -0.5559781858 -0.1938057269
H   0.7769315110 -0.2495313697  1.0601337638
H   1.0632554501 -1.3083385048 -0.9391345909
H   2.3065214362 -0.7132233158  0.3271552126
7
Iter 178  Energy = -29.6073478228
C   0.8775309903  0.7845922354 -0.1642274041
H   0.7052531847  1.5656828941 -0.9168964768
O   0.5200858670  0.9672103016  1.1207163088
C   1.3516502785 -0.5560099440 -0.1938052754
H   0.7769246971 -0.2495518269  1.0601235751
H   1.0632282196 -1.3083630348 -0.9390797217
H   2.3065683818 -0.7131939535  0.3271082688
7
Iter 179  Energy = -29.6073479718
C   0.8775416685  0.7845516167 -0.1642360145
H   0.7052944190  1.5657260583 -0.9168820889
O   0.5200423860  0.9671771392  1.1207064548
C   1.3516601054 -0.5559794155 -0.1938075045
H   0.7769218826 -0.2495427406  1.0601312876
H   1.0631914179 -1.3084045604 -0.9390384366
H   2.3065897392 -0.7131614262  0.3270655758
7
Iter 180  Energy = -29.6073480016
C   0.8775197529  0.7845921421 -0.1642377027
H   0.7053441168  1.5657471033 -0.9168666089
O   0.5200004933  0.9671626914  1.1206944650
C   1.3516612597 -0.5560110945 -0.1938070547
H   0.7769151480 -0.2495630243  1.0601212712
H   1.0631646253 -1.3084285774 -0.9389842633
H   2.3066362225 -0.7131325699  0.3270191671
7
Iter 181  Energy = -29.6073480463
C   0.8775304539  0.7845516242 -0.1642462181
H   0.7053847650  1.5657897693 -0.9168524446
O   0.5199574922  0.9671299113  1.1206847465
C   1.3516710048 -0.5559806459 -0.1938091772
H   0.7769124763 -0.2495538929  1.0601289753
H   1.0631282398 -1.3084695632 -0.9389436413
H   2.3066571867 -0.7131005318  0.3269770335
7
Iter 182  Energy = -29.6073480612
C   0.8775086285  0.7845920540 -0.1642478290
H   0.7054338694  1.5658103526 -0.9168371926
O   0.5199160849  0.9671157640  1.1206728888
C   1.3516721495 -0.5560122763 -0.1938087638
H   0.7769058054 -0.2495739939  1.0601191627
H   1.0631018791 -1.3084930631 -0.9388901469
H   2.3067032019 -0.7130721664  0.3269311541
7
Iter 183  Energy = -29.6073482549
C   0.8775193624  0.7845516092 -0.1642562534
H   0.7054739368  1.5658525344 -0.9168232462
O   0.5198735618  0.9670833555  1.1206633070
C   1.3516817854 -0.5559818701 -0.1938107535
H   0.7769032748 -0.2495648178  1.0601268206
H   1.0630659052 -1.3085335254 -0.9388501744
H   2.3067237923 -0.7130406141  0.3268895724
7
Iter 184  Energy = -29.6073483294
C   0.8774976298  0.7845919335 -0.1642577635
H   0.7055224576  1.5658726533 -0.9168082140
O   0.5198326386  0.9670695122  1.1206515686
C   1.3516828628 -0.5560134342 -0.1938103797
H   0.7768966738 -0.2495847461  1.0601171733
H   1.0630399788 -1.3085565139 -0.9387973393
H   2.3067693770 -0.7130127328  0.3268442281
7
Iter 185  Energy = -29.6073484188
C   0.8775084048  0.7845515592 -0.1642661133
H   0.7055619488  1.5659143593 -0.9167944810
O   0.5197905869  0.9670374713  1.1206421206
C   1.3516923929 -0.5559830702 -0.1938122273
H   0.7768942855 -0.2495755370  1.0601247911
H   1.0630044065 -1.3085964578 -0.9387580094
H   2.3067895938 -0.7129816534  0.3268031923
7
Iter 186  Energy = -29.6073484486
C   0.8774867535  0.7845918020 -0.1642675292
H   0.7056098950  1.5659340261 -0.9167796736
O   0.5197501479  0.9670239183  1.1206304943
C   1.3516934727 -0.5560145550 -0.1938118499
H   0.7768877489 -0.2495953091  1.0601153207
H   1.0629788907 -1.3086189691 -0.9387058457
H   2.3068347110 -0.7129542415  0.3267583579
7
Iter 187  Energy = -29.6073485827
C   0.8774975558  0.7845515134 -0.1642758149
H   0.7056488251  1.5659752446 -0.9167661349
O   0.5197085602  0.9669922537  1.1206211901
C   1.3517029119 -0.5559842434 -0.1938135998
H   0.7768854903 -0.2495860641  1.0601229134
H   1.0629437168 -1.3086584023 -0.9386671434
H   2.3068545597 -0.7129236299  0.3267178632
7
Iter 188  Energy = -29.6073485827
C   0.8774759881  0.7845916681 -0.1642771277
H   0.7056961992  1.5659944757 -0.9167515528
O   0.5196686031  0.9669789779  1.1206096739
C   1.3517039297 -0.5560156879 -0.1938132764
H   0.7768790132 -0.2496056643  1.0601136128
H   1.0629186235 -1.3086804093 -0.9386156137
H   2.3068992625 -0.7128966868  0.3266735574
7
Iter 189  Energy = -29.6073487169
C   0.8774868282  0.7845514402 -0.1642853160
H   0.7057345644  1.5660352466 -0.9167382315
O   0.5196274819  0.9669476629  1.1206005008
C   1.3517132682 -0.5559854304 -0.1938149129
H   0.7768768835 -0.2495963715  1.0601211650
H   1.0628838472 -1.3087193421 -0.9385775290
H   2.3069187454 -0.7128665327  0.3266335972
7
Iter 190  Energy = -29.6073487765
C   0.8774653480  0.7845915006 -0.1642865366
H   0.7057813756  1.5660540479 -0.9167238671
O   0.5195879948  0.9669346875  1.1205891086
C   1.3517142671 -0.5560168038 -0.1938146158
H   0.7768704629 -0.2496158245  1.0601120319
H   1.0628591610 -1.3087408897 -0.9385266436
H   2.3069630092 -0.7128400458  0.3265897972
7
Iter 191  Energy = -29.6073488063
C   0.8774762213  0.7845513580 -0.1642946611
H   0.7058191913  1.5660943525 -0.9167107390
O   0.5195473366  0.9669037366  1.1205800657
C   1.3517235123 -0.5559865758 -0.1938161295
H   0.7768684600 -0.2496065205  1.0601195462
H   1.0628247665 -1.3087793430 -0.9384891763
H   2.3069821308 -0.7128103356  0.3265503671
7
Iter 192  Energy = -29.6073488212
C   0.8774548225  0.7845913476 -0.1642958065
H   0.7058654477  1.5661127192 -0.9166965817
O   0.5195083206  0.9668910357  1.1205687949
C   1.3517244746 -0.5560178935 -0.1938158526
H   0.7768620954 -0.2496258140  1.0601105675
H   1.0628004820 -1.3088004266 -0.9384389240
H   2.3070259757 -0.7127842959  0.3265070745
7
Iter 193  Energy = -29.6073489255
C   0.8774657234  0.7845512885 -0.1643038691
H   0.7059027200  1.5661525735 -0.9166836547
O   0.5194681210  0.9668604180  1.1205598961
C   1.3517336292 -0.5559877085 -0.1938172468
H   0.7768602162 -0.2496164660  1.0601180379
H   1.0627664689 -1.3088384022 -0.9384020588
H   2.3070447399 -0.7127550304  0.3264681686
7
Iter 194  Energy = -29.6073489702
C   0.8774444137  0.7845911829 -0.1643049199
H   0.7059484262  1.5661705268 -0.9166697150
O   0.5194295717  0.9668479898  1.1205487463
C   1.3517345599 -0.5560189789 -0.1938170069
H   0.7768539051 -0.2496356023  1.0601092108
H   1.0627425907 -1.3088590190 -0.9383524127
H   2.3070881516 -0.7127294265  0.3264253715
7
Iter 195  Energy = -29.6073490596
C   0.8774553607  0.7845511677 -0.1643128870
H   0.7059851594  1.5662099421 -0.9166569856
O   0.5193898274  0.9668177079  1.1205399724
C   1.3517436165 -0.5559888301 -0.1938183331
H   0.7768521346 -0.2496262037  1.0601166598
H   1.0627089610 -1.3088965229 -0.9383161347
H   2.3071065596 -0.7127005893  0.3263869822
7
Iter 196  Energy = -29.6073491341
C   0.8774341307  0.7845909899 -0.1643138690
H   0.7060303262  1.5662274757 -0.9166432470
O   0.5193517402  0.9668055503  1.1205289438
C   1.3517445490 -0.5560200294 -0.1938180868
H   0.7768458766 -0.2496451999  1.0601079813
H   1.0626854641 -1.3089167055 -0.9382671154
H   2.3071495321 -0.7126754101  0.3263446670
7
Iter 197  Energy = -29.6073491490
C   0.8774451021  0.7845510684 -0.1643217713
H   0.7060665308  1.5662664487 -0.9166307046
O   0.5193124374  0.9667756300  1.1205203151
C   1.3517535302 -0.5559899544 -0.1938193116
H   0.7768442295 -0.2496357875  1.0601153712
H   1.0626522083 -1.3089537393 -0.9382314092
H   2.3071675807 -0.7126469943  0.3263067854
7
Iter 198  Energy = -29.6073491937
C   0.8774239574  0.7845908193 -0.1643226588
H   0.7061111605  1.5662835826 -0.9166171803
O   0.5192748105  0.9667637407  1.1205093988
C   1.3517543901 -0.5560210929 -0.1938191150
H   0.7768380238 -0.2496546451  1.0601068471
H   1.0626291072 -1.3089734886 -0.9381829906
H   2.3072101696 -0.7126222441  0.3262649752
7
Iter 199  Energy = -29.6073493278
C   0.8774349696  0.7845509699 -0.1643305055
H   0.7061468405  1.5663221198 -0.9166048144
O   0.5192359586  0.9667341297  1.1205008972
C   1.3517632751 -0.5559910332 -0.1938202282
H   0.7768364855 -0.2496451823  1.0601142009
H   1.0625962185 -1.3090100888 -0.9381478735
H   2.3072278719 -0.7125942433  0.3262275990
7
Iter 200  Energy = -29.6073493129
C   0.8774139039  0.7845906257 -0.1643313019
H   0.7061909411  1.5663388566 -0.9165914832
O   0.5191987838  0.9667225212  1.1204900939
C   1.3517641372 -0.5560221322 -0.1938200699
H   0.7768303232 -0.2496638940  1.0601058195
H   1.0625735000 -1.3090294013 -0.9381000439
H   2.3072700305 -0.7125699042  0.3261862609
7
Iter 1  Energy = -29.6072649425
C   0.8774078990  0.7832015628 -0.1628465392
H   0.6910449166  1.5540768121 -0.9220378518
O   0.5295117405  0.9764252267  1.1235526055
C   1.3489679342 -0.5563846574 -0.1923150695
H   0.7827481783 -0.2433964675  1.0660930404
H   1.0762599925 -1.2944428356 -0.9581464414
H   2.2953009620 -0.7291129865  0.3396395099
7
Iter 2  Energy = -29.6072663879
C   0.8774636758  0.7831824876 -0.1628052902
H   0.6911666369  1.5541787396 -0.9220404631
O   0.5294715271  0.9763888730  1.1235833141
C   1.3490387185 -0.5563221596 -0.1923808268
H   0.7826443110 -0.2435748007  1.0659639978
H   1.0760695918 -1.2946272253 -0.9579593911
H   2.2953871615 -0.7288592599  0.3395779132
7
Iter 3  Energy = -29.6072681016
C   0.8774927395  0.7832604475 -0.1628248106
H   0.6912964877  1.5542469988 -0.9220103519
O   0.5294327654  0.9763302765  1.1236272947
C   1.3491169797 -0.5563416589 -0.1924677250
H   0.7825381931 -0.2437323040  1.0658564952
H   1.0758919421 -1.2947885164 -0.9577596182
H   2.2954725157 -0.7286085884  0.3395179702
7
Iter 4  Energy = -29.6072697407
C   0.8775448347  0.7832375332 -0.1627911421
H   0.6914167792  1.5543490439 -0.9220039356
O   0.5294013289  0.9762560310  1.1236412407
C   1.3491703273 -0.5562699890 -0.1925279812
H   0.7824328657 -0.2438683443  1.0657445931
H   1.0757141670 -1.2949694273 -0.9575788238
H   2.2955613209 -0.7283681927  0.3394553035
7
Iter 5  Energy = -29.6072712308
C   0.8775704249  0.7833103327 -0.1628133942
H   0.6915443433  1.5544191060 -0.9219681775
O   0.5293673004  0.9761774852  1.1236709282
C   1.3492342504 -0.5562818019 -0.1926014112
H   0.7823301287 -0.2440021097  1.0656423905
H   1.0755467460 -1.2951262230 -0.9573838606
H   2.2956484304 -0.7281301345  0.3393927791
7
Iter 6  Energy = -29.6072728103
C   0.8776149925  0.7832996281 -0.1627912028
H   0.6916637273  1.5545177833 -0.9219527486
O   0.5293377080  0.9760910307  1.1236773371
C   1.3492784058 -0.5562213128 -0.1926529611
H   0.7822294693 -0.2441219931  1.0655346784
H   1.0753794182 -1.2952978404 -0.9572035170
H   2.2957379038 -0.7279006430  0.3393276683
7
Iter 7  Energy = -29.6072742856
C   0.8776389592  0.7833633871 -0.1628141242
H   0.6917885797  1.5545917572 -0.9219144291
O   0.5293053655  0.9760013027  1.1236975898
C   1.3493321690 -0.5562279817 -0.1927162912
H   0.7821307418 -0.2442384439  1.0654364651
H   1.0752207734 -1.2954499063 -0.9570123118
H   2.2958250361 -0.7276734612  0.3392623565
7
Iter 8  Energy = -29.6072756714
C   0.8776782348  0.7833591884 -0.1628011498
H   0.6919066166  1.5546892225 -0.9218928144
O   0.5292758024  0.9759071972  1.1236997316
C   1.3493705485 -0.5561771310 -0.1927619427
H   0.7820343297 -0.2443446731  1.0653337044
H   1.0750624592 -1.2956135165 -0.9568329829
H   2.2959136335 -0.7274536340  0.3391947086
7
Iter 9  Energy = -29.6072770572
C   0.8777011272  0.7834137671 -0.1628243732
H   0.6920288162  1.5547672639 -0.9218531093
O   0.5292435599  0.9758110222  1.1237134091
C   1.3494170910 -0.5561803469 -0.1928175264
H   0.7819396685 -0.2444476207  1.0652394429
H   1.0749114576 -1.2957612471 -0.9566453441
H   2.2959999047 -0.7272361846  0.3391267536
7
Iter 10  Energy = -29.6072784430
C   0.8777362234  0.7834134002 -0.1628187265
H   0.6921453854  1.5548643621 -0.9218269746
O   0.5292130681  0.9757123722  1.1237128025
C   1.3494515744 -0.5561377026 -0.1928589888
H   0.7818472876 -0.2445425831  1.0651418927
H   1.0747610269 -1.2959180268 -0.9564675367
H   2.2960870593 -0.7270251688  0.3390567845
7
Iter 11  Energy = -29.6072797841
C   0.8777581296  0.7834597842 -0.1628421627
H   0.6922651348  1.5549460188 -0.9217864123
O   0.5291800511  0.9756126081  1.1237216424
C   1.3494927951 -0.5561385649 -0.1929086207
H   0.7817565841 -0.2446346350  1.0650517761
H   1.0746167737 -1.2960619322 -0.9562834773
H   2.2961721569 -0.7268166261  0.3389865079
7
Iter 12  Energy = -29.6072809464
C   0.8777896989  0.7834617930 -0.1628424056
H   0.6923802356  1.5550430360 -0.9217568010
O   0.5291480878  0.9755115772  1.1237190828
C   1.3495244501 -0.5561027256 -0.1929468746
H   0.7816680829 -0.2447203132  1.0649593860
H   1.0744732611 -1.2962129119 -0.9561076717
H   2.2962578094 -0.7266138023  0.3389145384
7
Iter 13  Energy = -29.6072823173
C   0.8778105379  0.7835011787 -0.1628659327
H   0.6924977592  1.5551276783 -0.9217156391
O   0.5291138232  0.9754101197  1.1237240670
C   1.3495615662 -0.5561019625 -0.1929917824
H   0.7815812295 -0.2448034841  1.0648734552
H   1.0743350257 -1.2963533619 -0.9559271972
H   2.2963416843 -0.7264135144  0.3388422842
7
Iter 14  Energy = -29.6072834498
C   0.8778389957  0.7835047473 -0.1628707571
H   0.6926114205  1.5552247008 -0.9216833107
O   0.5290801485  0.9753080950  1.1237198352
C   1.3495910838 -0.5560718156 -0.1930276058
H   0.7814964374 -0.2448813739  1.0647861726
H   1.0741976754 -1.2964993387 -0.9557537051
H   2.2964258650 -0.7262183608  0.3387686250
7
Iter 15  Energy = -29.6072846419
C   0.8778586751  0.7835383012 -0.1628943954
H   0.6927269293  1.5553117130 -0.9216416911
O   0.5290443588  0.9752061711  1.1237217158
C   1.3496250736 -0.5560699174 -0.1930687029
H   0.7814132618 -0.2449571376  1.0647044802
H   1.0740648324 -1.2966366924 -0.9555768285
H   2.2965084951 -0.7260257831  0.3386946761
7
Iter 16  Energy = -29.6072858191
C   0.8778843324  0.7835429118 -0.1629028631
H   0.6928392124  1.5554086666 -0.9216071813
O   0.5290088005  0.9751042822  1.1237160926
C   1.3496529495 -0.5560444619 -0.1931024998
H   0.7813320724 -0.2450285626  1.0646220287
H   1.0739329908 -1.2967783267 -0.9554058956
H   2.2965912687 -0.7258378552  0.3386195724
7
Iter 17  Energy = -29.6072869664
C   0.8779027724  0.7835715883 -0.1629263810
H   0.6929528713  1.5554975280 -0.9215652242
O   0.5289713358  0.9750028600  1.1237152946
C   1.3496843754 -0.5560417619 -0.1931404923
H   0.7812524880 -0.2450981705  1.0645444248
H   1.0738050549 -1.2969128778 -0.9552325962
H   2.2966727294 -0.7256525112  0.3385442283
7
Iter 18  Energy = -29.6072880393
C   0.8779258713  0.7835769411 -0.1629377053
H   0.6930638296  1.5555943274 -0.9215289881
O   0.5289338594  0.9749018031  1.1237084248
C   1.3497108435 -0.5560201792 -0.1931725603
H   0.7811747857 -0.2451641252  1.0644665556
H   1.0736782013 -1.2970507019 -0.9550644146
H   2.2967542358 -0.7254714105  0.3384679416
7
Iter 19  Energy = -29.6072890824
C   0.8779430217  0.7836016011 -0.1629610899
H   0.6931757855  1.5556845625 -0.9214867830
O   0.5288946499  0.9748014852  1.1237053989
C   1.3497401266 -0.5560169646 -0.1932079554
H   0.7810986589 -0.2452284814  1.0643928967
H   1.0735547580 -1.2971826700 -0.9548946712
H   2.2968346262 -0.7252928782  0.3383914573
7
Iter 20  Energy = -29.6072901404
C   0.8779637549  0.7836075043 -0.1629746281
H   0.6932854676  1.5557811057 -0.9214491743
O   0.5288552641  0.9747017752  1.1236973902
C   1.3497653935 -0.5559986117 -0.1932384797
H   0.7810243349 -0.2452897644  1.0643193255
H   1.0734324543 -1.2973171114 -0.9547293739
H   2.2969149577 -0.7251182424  0.3383141940
7
Iter 21  Energy = -29.6072911835
C   0.8779795625  0.7836289115 -0.1629978349
H   0.6933958488  1.5558722965 -0.9214067850
O   0.5288143155  0.9746029508  1.1236924441
C   1.3497928684 -0.5559951087 -0.1932716375
H   0.7809515517 -0.2453495896  1.0642494275
H   1.0733131649 -1.2974466616 -0.9545631281
H   2.2969943150 -0.7249461427  0.3382367670
7
Iter 22  Energy = -29.6072921521
C   0.8779981429  0.7836350894 -0.1630130401
H   0.6935042901  1.5559685197 -0.9213681405
O   0.5287730569  0.9745049210  1.1236834421
C   1.3498170539 -0.5559794382 -0.1933008376
H   0.7808804756 -0.2454067805  1.0641798860
H   1.0731950395 -1.2975780208 -0.9544007751
H   2.2970735676 -0.7247776332  0.3381587159
7
Iter 23  Energy = -29.6072931653
C   0.8780126144  0.7836537675 -0.1630359871
H   0.6936131948  1.5560603394 -0.9213256597
O   0.5287303931  0.9744078925  1.1236768208
C   1.3498429775 -0.5559757854 -0.1933320454
H   0.7808109099 -0.2454626933  1.0641135618
H   1.0730795873 -1.2977052622 -0.9542379643
H   2.2971519498 -0.7246116006  0.3380805235
7
Iter 24  Energy = -29.6072940743
C   0.8780291887  0.7836601333 -0.1630524519
H   0.6937204386  1.5561561296 -0.9212862192
O   0.5286873345  0.9743117718  1.1236668978
C   1.3498661887 -0.5559623672 -0.1933599598
H   0.7807429860 -0.2455163317  1.0640477404
H   1.0729653196 -1.2978337797 -0.9540785823
H   2.2972301696 -0.7244488977  0.3380018240
7
Iter 25  Energy = -29.6072950876
C   0.8780423239  0.7836765656 -0.1630751243
H   0.6938279575  1.5562482649 -0.9212436911
O   0.5286430107  0.9742167170  1.1236588179
C   1.3498907672 -0.5559586824 -0.1933894427
H   0.7806765176 -0.2455688043  1.0639847946
H   1.0728534420 -1.2979587883 -0.9539191197
H   2.2973076071 -0.7242886125  0.3379230124
7
Iter 26  Energy = -29.6072959369
C   0.8780570360  0.7836830621 -0.1630925576
H   0.6939340362  1.5563435210 -0.9212036446
O   0.5285982303  0.9741226662  1.1236480568
C   1.3499130924 -0.5559471695 -0.1934161852
H   0.7806116215 -0.2456193370  1.0639224748
H   1.0727427459 -1.2980846559 -0.9537627092
H   2.2973848640 -0.7241314263  0.3378438119
7
Iter 27  Energy = -29.6072968161
C   0.8780688650  0.7836975992 -0.1631149120
H   0.6940402311  1.5564357588 -0.9211611478
O   0.5285523115  0.9740297013  1.1236387205
C   1.3499364447 -0.5559435538 -0.1934441218
H   0.7805481373 -0.2456687569  1.0638626803
H   1.0726342215 -1.2982074902 -0.9536064945
H   2.2974614151 -0.7239765970  0.3377645221
7
Iter 28  Energy = -29.6072977400
C   0.8780818662  0.7837040639 -0.1631329802
H   0.6941451662  1.5565304242 -0.9211206944
O   0.5285059199  0.9739377487  1.1236271555
C   1.3499579236 -0.5559336385 -0.1934697625
H   0.7804861493 -0.2457164672  1.0638036191
H   1.0725268692 -1.2983308208 -0.9534530122
H   2.2975377319 -0.7238246483  0.3376849211
7
Iter 29  Energy = -29.6072986192
C   0.8780924222  0.7837170370 -0.1631550142
H   0.6942501082  1.5566225210 -0.9210782674
O   0.5284584889  0.9738469213  1.1236167215
C   1.3499802078 -0.5559301386 -0.1934962793
H   0.7804255329 -0.2457631708  1.0637467929
H   1.0724214763 -1.2984515294 -0.9532999639
H   2.2976133902 -0.7236749777  0.3376052578
7
Iter 30  Energy = -29.6072994238
C   0.8781038451  0.7837234115 -0.1631735570
H   0.6943539246  1.5567165115 -0.9210375366
O   0.5284105605  0.9737571373  1.1236044653
C   1.3500009130 -0.5559215743 -0.1935208778
H   0.7803663375 -0.2458083582  1.0636907743
H   1.0723172408 -1.2985724525 -0.9531493855
H   2.2976888053 -0.7235280130  0.3375253650
7
Iter 31  Energy = -29.6073001987
C   0.8781132005  0.7837350376 -0.1631953043
H   0.6944576458  1.5568083330 -0.9209952486
O   0.5283616916  0.9736684677  1.1235931030
C   1.3500221982 -0.5559182602 -0.1935461123
H   0.7803084568 -0.2458526131  1.0636367677
H   1.0722147945 -1.2986910526 -0.9529994049
H   2.2977636395 -0.7233832506  0.3374454481
7
Iter 32  Energy = -29.6073010927
C   0.8781231386  0.7837412911 -0.1632140818
H   0.6945603681  1.5569015768 -0.9209543833
O   0.5283123339  0.9735809197  1.1235801743
C   1.3500421660 -0.5559108325 -0.1935696547
H   0.7802519646 -0.2458956098  1.0635835300
H   1.0721134759 -1.2988096600 -0.9528516831
H   2.2978381800 -0.7232410229  0.3373653486
7
Iter 33  Energy = -29.6073018378
C   0.8781312899  0.7837518443 -0.1632354294
H   0.6946629219  1.5569929379 -0.9209122624
O   0.5282621347  0.9734944804  1.1235679176
C   1.3500625596 -0.5559077758 -0.1935936915
H   0.7801967352 -0.2459377394  1.0635321373
H   1.0720138215 -1.2989261728 -0.9527046712
H   2.2979121643 -0.7231009129  0.3372852511
7
Iter 34  Energy = -29.6073026127
C   0.8781398674  0.7837579181 -0.1632543489
H   0.6947645626  1.5570853783 -0.9208713484
O   0.5282114607  0.9734090706  1.1235543884
C   1.3500818005 -0.5559013310 -0.1936163033
H   0.7801427998 -0.2459786406  1.0634815788
H   1.0719152775 -1.2990425312 -0.9525597532
H   2.2979858584 -0.7229632010  0.3372050354
7
Iter 35  Energy = -29.6073033875
C   0.8781468976  0.7837675072 -0.1632753433
H   0.6948659785  1.5571761721 -0.9208294625
O   0.5281600256  0.9733247503  1.1235413982
C   1.3501013650 -0.5558984886 -0.1936391962
H   0.7800900867 -0.2460187544  1.0634326617
H   1.0718182524 -1.2991570006 -0.9524156533
H   2.2980590209 -0.7228275237  0.3371248436
7
Iter 36  Energy = -29.6073040730
C   0.8781542008  0.7837734203 -0.1632943567
H   0.6949665595  1.5572677440 -0.9207886007
O   0.5281081273  0.9732414494  1.1235273765
C   1.3501199792 -0.5558929367 -0.1936608661
H   0.7800386060 -0.2460577611  1.0633846075
H   1.0717223115 -1.2992711508 -0.9522734777
H   2.2981318422 -0.7226941021  0.3370445669
7
Iter 37  Energy = -29.6073048031
C   0.8781601750  0.7837821579 -0.1633149916
H   0.6950668617  1.5573578773 -0.9207469869
O   0.5280555484  0.9731591996  1.1235137400
C   1.3501388063 -0.5558903240 -0.1936827333
H   0.7799882862 -0.2460960118  1.0633380731
H   1.0716277889 -1.2993835937 -0.9521321909
H   2.2982041599 -0.7225626425  0.3369643387
7
Iter 38  Energy = -29.6073055333
C   0.8781663043  0.7837878592 -0.1633339512
H   0.6951663975  1.5574485306 -0.9207062599
O   0.5280025225  0.9730779667  1.1234992509
C   1.3501567863 -0.5558855095 -0.1937035278
H   0.7799391510 -0.2461332696  1.0632923467
H   1.0715343078 -1.2994956009 -0.9519926945
H   2.2982761567 -0.7224333130  0.3368840841
7
Iter 39  Energy = -29.6073062784
C   0.8781712549  0.7837959149 -0.1633542064
H   0.6952656203  1.5575378865 -0.9206649497
O   0.5279488962  0.9729977394  1.1234850329
C   1.3501748803 -0.5558831561 -0.1937244045
H   0.7798911338 -0.2461698234  1.0632480021
H   1.0714421516 -1.2996060261 -0.9518541362
H   2.2983476891 -0.7223058708  0.3368039097
7
Iter 40  Energy = -29.6073069042
C   0.8781762944  0.7838014081 -0.1633730784
H   0.6953641221  1.5576275749 -0.9206244028
O   0.5278948395  0.9729185174  1.1234701165
C   1.3501922514 -0.5558789821 -0.1937443364
H   0.7798442437 -0.2462054740  1.0632044746
H   1.0713510039 -1.2997159331 -0.9517172614
H   2.2984188717 -0.7221804459  0.3367237362
7
Iter 41  Energy = -29.6073076195
C   0.8781803345  0.7838087453 -0.1633929734
H   0.6954622745  1.5577161081 -0.9205834418
O   0.5278402130  0.9728403211  1.1234554546
C   1.3502096722 -0.5558768263 -0.1937642847
H   0.7797984322 -0.2462404782  1.0631621875
H   1.0712610868 -1.2998243700 -0.9515813580
H   2.2984896131 -0.7220568335  0.3366436648
7
Iter 42  Energy = -29.6073082453
C   0.8781843601  0.7838140016 -0.1634116704
H   0.6955597557  1.5578047868 -0.9205431393
O   0.5277852280  0.9727630260  1.1234401360
C   1.3502264619 -0.5558731812 -0.1937834142
H   0.7797536687 -0.2462746142  1.0631207448
H   1.0711721495 -1.2999322132 -0.9514470402
H   2.2985600021 -0.7219351383  0.3365636318
7
Iter 43  Energy = -29.6073089457
C   0.8781874833  0.7838208383 -0.1634311875
H   0.6956568692  1.5578923980 -0.9205025364
O   0.5277297377  0.9726866887  1.1234250228
C   1.3502432985 -0.5558712986 -0.1938025019
H   0.7797099314 -0.2463081131  1.0630804566
H   1.0710843693 -1.3000386738 -0.9513137136
H   2.2986299370 -0.7218151711  0.3364837093
7
Iter 44  Energy = -29.6073095566
C   0.8781905798  0.7838258686 -0.1634497040
H   0.6957533343  1.5579800461 -0.9204625207
O   0.5276738896  0.9726112864  1.1234093805
C   1.3502595825 -0.5558681784 -0.1938208471
H   0.7796672086 -0.2463408474  1.0630409768
H   1.0709975308 -1.3001444850 -0.9511818873
H   2.2986995008 -0.7216970212  0.3364038518
7
Iter 45  Energy = -29.6073101825
C   0.8781928842  0.7838321559 -0.1634688803
H   0.6958494121  1.5580667060 -0.9204222985
O   0.5276175911  0.9725368081  1.1233939127
C   1.3502758790 -0.5558664910 -0.1938390990
H   0.7796254574 -0.2463729648  1.0630025714
H   1.0709117805 -1.3002490039 -0.9510510784
H   2.2987686227 -0.7215805415  0.3363241219
7
Iter 46  Energy = -29.6073108083
C   0.8781950981  0.7838369923 -0.1634871749
H   0.6959448708  1.5581532959 -0.9203826237
O   0.5275609696  0.9724632191  1.1233779987
C   1.3502916515 -0.5558638413 -0.1938566775
H   0.7795846788 -0.2464043774  1.0629649124
H   1.0708269376 -1.3003528229 -0.9509216894
H   2.2988374205 -0.7214657981  0.3362445036
7
Iter 47  Energy = -29.6073114044
C   0.8781966174  0.7838428153 -0.1635059547
H   0.6960399301  1.5582389596 -0.9203428220
O   0.5275039524  0.9723905190  1.1233621910
C   1.3503073962 -0.5558623473 -0.1938741299
H   0.7795448303 -0.2464352129  1.0629282539
H   1.0707431202 -1.3004554108 -0.9507933166
H   2.2989057799 -0.7213526543  0.3361650280
7
Iter 48  Energy = -29.6073120302
C   0.8781980328  0.7838474027 -0.1635239998
H   0.6961343944  1.5583244566 -0.9203035135
O   0.5274466423  0.9723186610  1.1233460218
C   1.3503226989 -0.5558600591 -0.1938909869
H   0.7795058984 -0.2464653730  1.0628923444
H   1.0706601843 -1.3005572594 -0.9506662903
H   2.2989737759 -0.7212411601  0.3360856728
7
Iter 49  Energy = -29.6073126113
C   0.8781988310  0.7838528416 -0.1635424540
H   0.6962284442  1.5584090810 -0.9202641418
O   0.5273889671  0.9722476644  1.1233299777
C   1.3503379389 -0.5558588035 -0.1939077149
H   0.7794678523 -0.2464949742  1.0628573754
H   1.0705782169 -1.3006579401 -0.9505402917
H   2.2990413765 -0.7211312001  0.3360064995
7
Iter 50  Energy = -29.6073131478
C   0.8781995004  0.7838572121 -0.1635602113
H   0.6963219190  1.5584934755 -0.9202252356
O   0.5273310334  0.9721774948  1.1233135988
C   1.3503527684 -0.5558568754 -0.1939238935
H   0.7794306871 -0.2465239590  1.0628231043
H   1.0704970963 -1.3007578636 -0.9504155842
H   2.2991086224 -0.7210228150  0.3359274716
7
Iter 51  Energy = -29.6073137289
C   0.8781996096  0.7838622746 -0.1635782745
H   0.6964149686  1.5585770457 -0.9201863274
O   0.5272727916  0.9721081413  1.1232972902
C   1.3503675364 -0.5558557987 -0.1939398774
H   0.7793943652 -0.2465524261  1.0627897069
H   1.0704168901 -1.3008566595 -0.9502918970
H   2.2991754654 -0.7209159084  0.3358486278
7
Iter 52  Energy = -29.6073142803
C   0.8781995834  0.7838664508 -0.1635957691
H   0.6965074577  1.5586603184 -0.9201478297
O   0.5272143180  0.9720395929  1.1232807131
C   1.3503819656 -0.5558541842 -0.1939553724
H   0.7793588690 -0.2465803176  1.0627570238
H   1.0703374976 -1.3009546935 -0.9501694616
H   2.2992419354 -0.7208104982  0.3357699447
7
Iter 53  Energy = -29.6073147571
C   0.8781990814  0.7838711410 -0.1636134692
H   0.6965995118  1.5587428110 -0.9201093846
O   0.5271555623  0.9719718535  1.1232642124
C   1.3503963117 -0.5558532547 -0.1939706514
H   0.7793241903 -0.2466077303  1.0627251178
H   1.0702589806 -1.3010516466 -0.9500480194
H   2.2993079895 -0.7207065048  0.3356914441
7
Iter 54  Energy = -29.6073153681
C   0.8781984147  0.7838751275 -0.1636306709
H   0.6966910288  1.5588249430 -0.9200713406
O   0.5270966048  0.9719048698  1.1232474936
C   1.3504103473 -0.5558519189 -0.1939855028
H   0.7792902989 -0.2466345989  1.0626939084
H   1.0701812447 -1.3011478094 -0.9499277744
H   2.2993736873 -0.7206039444  0.3356131380
7
Iter 55  Energy = -29.6073159045
C   0.8781973120  0.7838795553 -0.1636480309
H   0.6967821065  1.5589063172 -0.9200333727
O   0.5270374024  0.9718386566  1.1232308480
C   1.3504242543 -0.5558511834 -0.1940001698
H   0.7792571769 -0.2466609901  1.0626634422
H   1.0701043387 -1.3012429360 -0.9498085275
H   2.2994390357 -0.7205027504  0.3355350624
7
Iter 56  Energy = -29.6073163664
C   0.8781960793  0.7838833009 -0.1636649518
H   0.6968726476  1.5589873142 -0.9199957840
O   0.5269780206  0.9717731801  1.1232140240
C   1.3504378605 -0.5558500702 -0.1940144298
H   0.7792248012 -0.2466868661  1.0626336356
H   1.0700281943 -1.3013372599 -0.9496904271
H   2.2995040233 -0.7204029294  0.3354571854
7
Iter 57  Energy = -29.6073168731
C   0.8781944571  0.7838873892 -0.1636819731
H   0.6969627427  1.5590675913 -0.9199583181
O   0.5269184579  0.9717083491  1.1231972381
C   1.3504514049 -0.5558494476 -0.1940285051
H   0.7791931256 -0.2467122011  1.0626046187
H   1.0699528430 -1.3014305956 -0.9495733323
H   2.2995685951 -0.7203044165  0.3353795254
7
Iter 58  Energy = -29.6073174244
C   0.8781926614  0.7838909832 -0.1636985992
H   0.6970523230  1.5591474257 -0.9199211961
O   0.5268587396  0.9716442567  1.1231803006
C   1.3504647248 -0.5558486002 -0.1940422138
H   0.7791621687 -0.2467370776  1.0625762235
H   1.0698782187 -1.3015231118 -0.9494573365
H   2.2996327903 -0.7202072076  0.3353020763
7
Iter 59  Energy = -29.6073179013
C   0.8781905431  0.7838948286 -0.1637152837
H   0.6971414464  1.5592265748 -0.9198842221
O   0.5267988463  0.9715808778  1.1231634121
C   1.3504779000 -0.5558481313 -0.1940557308
H   0.7791319010 -0.2467615318  1.0625485335
H   1.0698043577 -1.3016146881 -0.9493423291
H   2.2996966316 -0.7201112626  0.3352248756
7
Iter 60  Energy = -29.6073184079
C   0.8781882695  0.7838982152 -0.1637316257
H   0.6972300588  1.5593052679 -0.9198475814
O   0.5267388197  0.9715182185  1.1231464039
C   1.3504908358 -0.5558474533 -0.1940688916
H   0.7791023240 -0.2467855606  1.0625214273
H   1.0697312022 -1.3017054427 -0.9492283849
H   2.2997601159 -0.7200165775  0.3351479070
7
Iter 61  Energy = -29.6073188400
C   0.8781856874  0.7839018004 -0.1637479921
H   0.6973182190  1.5593832816 -0.9198111010
O   0.5266786525  0.9714562513  1.1231294362
C   1.3505036573 -0.5558471004 -0.1940818285
H   0.7790734099 -0.2468091945  1.0624949554
H   1.0696587667 -1.3017952669 -0.9491154036
H   2.2998232339 -0.7199231037  0.3350711879
7
Iter 62  Energy = -29.6073193169
C   0.8781829351  0.7839050170 -0.1637639806
H   0.6974058784  1.5594608211 -0.9197749589
O   0.5266183961  0.9713949394  1.1231123371
C   1.3505162487 -0.5558465821 -0.1940944396
H   0.7790451437 -0.2468323953  1.0624690437
H   1.0695870120 -1.3018842957 -0.9490034672
H   2.2998860124 -0.7198308371  0.3349947189
7
Iter 63  Energy = -29.6073197639
C   0.8781799115  0.7839084116 -0.1637800173
H   0.6974930851  1.5595376935 -0.9197389907
O   0.5265580144  0.9713342982  1.1230953203
C   1.3505287506 -0.5558463779 -0.1941068392
H   0.7790175024 -0.2468552148  1.0624437547
H   1.0695159540 -1.3019724116 -0.9488924718
H   2.2999484090 -0.7197397322  0.3349184995
7
Iter 64  Energy = -29.6073202258
C   0.8781767469  0.7839114490 -0.1637957349
H   0.6975797930  1.5596140838 -0.9197033499
O   0.5264975539  0.9712743209  1.1230782203
C   1.3505410431 -0.5558460047 -0.1941189262
H   0.7789904807 -0.2468776520  1.0624190031
H   1.0694455487 -1.3020597423 -0.9487824938
H   2.3000104605 -0.7196497880  0.3348425368
7
Iter 65  Energy = -29.6073206729
C   0.8781733091  0.7839146639 -0.1638114293
H   0.6976660453  1.5596898238 -0.9196678961
O   0.5264370129  0.9712149747  1.1230611494
C   1.3505532261 -0.5558459611 -0.1941308120
H   0.7789640559 -0.2468997179  1.0623948167
H   1.0693758210 -1.3021461510 -0.9486734154
H   2.3000721561 -0.7195609653  0.3347668400
7
Iter 66  Energy = -29.6073211348
C   0.8781697583  0.7839175245 -0.1638268290
H   0.6977518048  1.5597650686 -0.9196327605
O   0.5263764165  0.9711562445  1.1230440037
C   1.3505651916 -0.5558456980 -0.1941423799
H   0.7789382187 -0.2469214057  1.0623711519
H   1.0693067131 -1.3022318083 -0.9485653501
H   2.3001335236 -0.7194732599  0.3346914180
7
Iter 67  Energy = -29.6073215669
C   0.8781659516  0.7839205596 -0.1638421763
H   0.6978371117  1.5598396729 -0.9195978259
O   0.5263157613  0.9710981337  1.1230268951
C   1.3505770574 -0.5558457422 -0.1941537701
H   0.7789129513 -0.2469427426  1.0623480367
H   1.0692382593 -1.3023165824 -0.9484581779
H   2.3001945346 -0.7193866328  0.3346162728
7
Iter 68  Energy = -29.6073219693
C   0.8781620348  0.7839232944 -0.1638572886
H   0.6979219305  1.5599137711 -0.9195631888
O   0.5262550608  0.9710406497  1.1230097583
C   1.3505887280 -0.5558456485 -0.1941648644
H   0.7788882484 -0.2469637375  1.0623253970
H   1.0691704129 -1.3024005872 -0.9483519643
H   2.3002552118 -0.7193010753  0.3345414041
7
Iter 69  Energy = -29.6073223567
C   0.8781579022  0.7839261345 -0.1638723306
H   0.6980062938  1.5599872475 -0.9195287668
O   0.5261943303  0.9709837468  1.1229926492
C   1.3506003367 -0.5558457671 -0.1941757612
H   0.7788640754 -0.2469843909  1.0623033092
H   1.0691031910 -1.3024837543 -0.9482466454
H   2.3003154978 -0.7192165512  0.3344667998
7
Iter 70  Energy = -29.6073227888
C   0.8781536527  0.7839287106 -0.1638871220
H   0.6980901745  1.5600602131 -0.9194946481
O   0.5261335826  0.9709274393  1.1229755064
C   1.3506117362 -0.5558457800 -0.1941864099
H   0.7788404342 -0.2470047122  1.0622816808
H   1.0690365558 -1.3025661401 -0.9481422521
H   2.3003754912 -0.7191330661  0.3343924987
7
Iter 71  Energy = -29.6073231912
C   0.8781492071  0.7839313885 -0.1639018643
H   0.6981736034  1.5601325634 -0.9194607493
O   0.5260728157  0.9708717021  1.1229584376
C   1.3506230445 -0.5558460021 -0.1941968512
H   0.7788173097 -0.2470247071  1.0622605296
H   1.0689705248 -1.3026477029 -0.9480387266
H   2.3004351213 -0.7190505772  0.3343184786
7
Iter 72  Energy = -29.6073236382
C   0.8781446556  0.7839338294 -0.1639163566
H   0.6982565501  1.5602044094 -0.9194271465
O   0.5260120505  0.9708165428  1.1229413320
C   1.3506342066 -0.5558461212 -0.1942070312
H   0.7787946863 -0.2470443858  1.0622398297
H   1.0689050600 -1.3027285236 -0.9479361161
H   2.3004944169 -0.7189690853  0.3342447446
7
Iter 73  Energy = -29.6073240107
C   0.8781399260  0.7839363714 -0.1639307814
H   0.6983390445  1.5602756482 -0.9193937634
O   0.5259512932  0.9707619277  1.1229242648
C   1.3506452695 -0.5558464409 -0.1942170346
H   0.7787725501 -0.2470637618  1.0622196200
H   1.0688401816 -1.3028085288 -0.9478343526
H   2.3005533604 -0.7188885508  0.3341713035
7
Iter 74  Energy = -29.6073243833
C   0.8781351090  0.7839386522 -0.1639449710
H   0.6984210632  1.5603463866 -0.9193606802
O   0.5258905581  0.9707078543  1.1229071908
C   1.3506561701 -0.5558466399 -0.1942268017
H   0.7787508875 -0.2470828074  1.0621998403
H   1.0687758611 -1.3028877989 -0.9477334785
H   2.3006119764 -0.7188089818  0.3340981554
7
Iter 75  Energy = -29.6073246962
C   0.8781301259  0.7839410253 -0.1639591103
H   0.6985026321  1.5604165179 -0.9193278103
O   0.5258298387  0.9706543329  1.1228901836
C   1.3506670088 -0.5558470126 -0.1942363667
H   0.7787296916 -0.2471015784  1.0621805077
H   1.0687120895 -1.3029662862 -0.9476334526
H   2.3006702382 -0.7187303344  0.3340253035
7
Iter 76  Energy = -29.6073251283
C   0.8781250561  0.7839431893 -0.1639730085
H   0.6985837250  1.5604861559 -0.9192952442
O   0.5257691702  0.9706013106  1.1228731488
C   1.3506776761 -0.5558473029 -0.1942457307
H   0.7787089390 -0.2471200280  1.0621616090
H   1.0686488602 -1.3030440413 -0.9475342886
H   2.3007281983 -0.7186526189  0.3339527691
7
Iter 77  Energy = -29.6073254859
C   0.8781198329  0.7839454445 -0.1639868389
H   0.6986643714  1.5605551846 -0.9192628838
O   0.5257085386  0.9705488214  1.1228561636
C   1.3506882330 -0.5558477734 -0.1942549268
H   0.7786886393 -0.2471382150  1.0621431172
H   1.0685861816 -1.3031209981 -0.9474359213
H   2.3007858283 -0.7185757988  0.3338805441
7
Iter 78  Energy = -29.6073258883
C   0.8781145341  0.7839475113 -0.1640004740
H   0.6987445564  1.5606236996 -0.9192308088
O   0.5256479556  0.9704968547  1.1228392067
C   1.3506986804 -0.5558481399 -0.1942638830
H   0.7786687699 -0.2471561249  1.0621250230
H   1.0685240147 -1.3031972736 -0.9473384260
H   2.3008431142 -0.7184998622  0.3338086150
7
Iter 79  Energy = -29.6073262459
C   0.8781090954  0.7839496320 -0.1640139953
H   0.6988242869  1.5606916565 -0.9191989756
O   0.5255874352  0.9704453926  1.1228222852
C   1.3507090182 -0.5558486687 -0.1942726891
H   0.7786493176 -0.2471737723  1.0621073365
H   1.0684623803 -1.3032727769 -0.9472417136
H   2.3009000919 -0.7184247976  0.3337370045
7
Iter 80  Energy = -29.6073265141
C   0.8781035822  0.7839516005 -0.1640273572
H   0.6989035594  1.5607590856 -0.9191673985
O   0.5255269837  0.9703944270  1.1228053852
C   1.3507192445 -0.5558491129 -0.1942812662
H   0.7786302733 -0.2471911482  1.0620900321
H   1.0684012477 -1.3033475928 -0.9471458406
H   2.3009567351 -0.7183505918  0.3336656976
7
Iter 81  Energy = -29.6073269314
C   0.8780979567  0.7839535856 -0.1640406103
H   0.6989823833  1.5608259539 -0.9191360583
O   0.5254665985  0.9703439527  1.1227885545
C   1.3507293838 -0.5558496813 -0.1942896655
H   0.7786116354 -0.2472082648  1.0620730699
H   1.0683406269 -1.3034216574 -0.9470507358
H   2.3010130415 -0.7182772202  0.3335946960
7
Iter 82  Energy = -29.6073271996
C   0.8780922605  0.7839554154 -0.1640536616
H   0.6990607420  1.5608923336 -0.9191050003
O   0.5254063103  0.9702939327  1.1227717263
C   1.3507394124 -0.5558501977 -0.1942978826
H   0.7785933732 -0.2472250942  1.0620565035
H   1.0682804993 -1.3034950414 -0.9469564483
H   2.3010690289 -0.7182046804  0.3335240140
7
Iter 83  Energy = -29.6073275721
C   0.8780864472  0.7839572983 -0.1640666170
H   0.6991386633  1.5609581349 -0.9190741575
O   0.5253461060  0.9702444022  1.1227549469
C   1.3507493464 -0.5558508362 -0.1943059713
H   0.7785754915 -0.2472416925  1.0620403124
H   1.0682208727 -1.3035676894 -0.9468629138
H   2.3011247003 -0.7181329495  0.3334536513
7
Iter 84  Energy = -29.6073278850
C   0.8780805852  0.7839590305 -0.1640794219
H   0.6992161267  1.5610234349 -0.9190435734
O   0.5252860027  0.9701953207  1.1227381929
C   1.3507591648 -0.5558513753 -0.1943138295
H   0.7785579777 -0.2472580347  1.0620244688
H   1.0681617203 -1.3036396843 -0.9467701862
H   2.3011800497 -0.7180620225  0.3333836010
7
Iter 85  Energy = -29.6073282427
C   0.8780746125  0.7839608299 -0.1640921199
H   0.6992931520  1.5610881724 -0.9190132168
O   0.5252259999  0.9701467043  1.1227215009
C   1.3507688980 -0.5558520454 -0.1943215466
H   0.7785408248 -0.2472741471  1.0620089673
H   1.0681030501 -1.3037109669 -0.9466782074
H   2.3012350897 -0.7179918769  0.3333138747
7
Iter 86  Energy = -29.6073285556
C   0.8780686000  0.7839624479 -0.1641046127
H   0.6993697179  1.5611524423 -0.9189831559
O   0.5251661110  0.9700985240  1.1227048353
C   1.3507785302 -0.5558526483 -0.1943290759
H   0.7785240203 -0.2472900026  1.0619937960
H   1.0680448431 -1.3037815870 -0.9465869990
H   2.3012898052 -0.7179225068  0.3332444640
7
Iter 87  Energy = -29.6073288536
C   0.8780624976  0.7839641228 -0.1641170702
H   0.6994458459  1.5612161535 -0.9189532972
O   0.5251063198  0.9700508208  1.1226882648
C   1.3507880597 -0.5558533752 -0.1943364943
H   0.7785075580 -0.2473056553  1.0619789683
H   1.0679871111 -1.3038514977 -0.9464965103
H   2.3013442360 -0.7178538989  0.3331753910
7
Iter 88  Energy = -29.6073291218
C   0.8780563529  0.7839656635 -0.1641293272
H   0.6995215211  1.5612793847 -0.9189237089
O   0.5250466522  0.9700035617  1.1226717197
C   1.3507974691 -0.5558540491 -0.1943437447
H   0.7784914327 -0.2473210796  1.0619644485
H   1.0679298352 -1.3039207704 -0.9464067801
H   2.3013983649 -0.7177860415  0.3331066453
7
Iter 89  Energy = -29.6073294795
C   0.8780501193  0.7839672560 -0.1641415378
H   0.6995967662  1.5613420646 -0.9188943338
O   0.5249871074  0.9699567251  1.1226552664
C   1.3508068443 -0.5558548067 -0.1943508198
H   0.7784756273 -0.2473362803  1.0619502561
H   1.0678730088 -1.3039893782 -0.9463177874
H   2.3014521553 -0.7177189119  0.3330382095
7
Iter 90  Energy = -29.6073298222
C   0.8780438503  0.7839687003 -0.1641535833
H   0.6996715684  1.5614042541 -0.9188652127
O   0.5249277068  0.9699102665  1.1226388425
C   1.3508161111 -0.5558554910 -0.1943577731
H   0.7784601183 -0.2473512018  1.0619364082
H   1.0678166302 -1.3040573438 -0.9462295292
H   2.3015056436 -0.7176525149  0.3329701016
7
Iter 91  Energy = -29.6073300606
C   0.8780375346  0.7839701268 -0.1641655280
H   0.6997459275  1.5614659402 -0.9188363270
O   0.5248684276  0.9698642691  1.1226224933
C   1.3508252799 -0.5558562322 -0.1943645960
H   0.7784449247 -0.2473659519  1.0619228649
H   1.0677606975 -1.3041246543 -0.9461419774
H   2.3015588366 -0.7175868283  0.3329023254
7
Iter 92  Energy = -29.6073303735
C   0.8780311461  0.7839715075 -0.1641773022
H   0.6998198495  1.5615271197 -0.9188076618
O   0.5248093068  0.9698186662  1.1226061468
C   1.3508343735 -0.5558569827 -0.1943712426
H   0.7784300345 -0.2473804652  1.0619095872
H   1.0677051938 -1.3041913286 -0.9460551462
H   2.3016117242 -0.7175218474  0.3328348742
7
Iter 93  Energy = -29.6073306418
C   0.8780247190  0.7839728602 -0.1641889955
H   0.6998933352  1.5615877985 -0.9187792322
O   0.5247503355  0.9697734502  1.1225898643
C   1.3508433973 -0.5558577482 -0.1943777618
H   0.7784154280 -0.2473947751  1.0618966470
H   1.0676501259 -1.3042573618 -0.9459690088
H   2.3016642875 -0.7174575541  0.3327677429
7
Iter 94  Energy = -29.6073309249
C   0.8780182636  0.7839741712 -0.1642006110
H   0.6999663892  1.5616479820 -0.9187510448
O   0.5246915071  0.9697285562  1.1225737139
C   1.3508523568 -0.5558585312 -0.1943841751
H   0.7784010814 -0.2474087695  1.0618840186
H   1.0675954841 -1.3043227948 -0.9458835838
H   2.3017165460 -0.7173939445  0.3327009382
7
Iter 95  Energy = -29.6073311931
C   0.8780117544  0.7839754102 -0.1642120160
H   0.7000390084  1.5617076859 -0.9187230896
O   0.5246328425  0.9696840668  1.1225575523
C   1.3508612373 -0.5558593116 -0.1943904201
H   0.7783870228 -0.2474225722  1.0618716129
H   1.0675412561 -1.3043876018 -0.9457988301
H   2.3017685066 -0.7173310072  0.3326344474
7
Iter 96  Energy = -29.6073315507
C   0.8780051901  0.7839766814 -0.1642233406
H   0.7001112079  1.5617668672 -0.9186953342
O   0.5245743360  0.9696399598  1.1225414608
C   1.3508700345 -0.5558601174 -0.1943965326
H   0.7783732335 -0.2474361760  1.0618594742
H   1.0674874350 -1.3044518138 -0.9457147642
H   2.3018201915 -0.7172687309  0.3325682924
7
Iter 97  Energy = -29.6073317891
C   0.8779985955  0.7839778956 -0.1642345071
H   0.7001829717  1.5618255929 -0.9186678325
O   0.5245159886  0.9695962401  1.1225254255
C   1.3508787513 -0.5558609305 -0.1944025130
H   0.7783597104 -0.2474495919  1.0618475776
H   1.0674340232 -1.3045154249 -0.9456313590
H   2.3018715881 -0.7172071097  0.3325024640
7
Iter 98  Energy = -29.6073319531
C   0.8779919639  0.7839791245 -0.1642455958
H   0.7002543125  1.5618838149 -0.9186405351
O   0.5244577971  0.9695528852  1.1225094752
C   1.3508873802 -0.5558617750 -0.1944083983
H   0.7783464368 -0.2474627989  1.0618359446
H   1.0673810168 -1.3045784394 -0.9455486086
H   2.3019227218 -0.7171461397  0.3324369727
7
Iter 99  Energy = -29.6073323703
C   0.8779853093  0.7839802622 -0.1642565082
H   0.7003252256  1.5619415821 -0.9186134873
O   0.5243997813  0.9695099051  1.1224935568
C   1.3508959659 -0.5558625673 -0.1944140999
H   0.7783334183 -0.2474758306  1.0618245397
H   1.0673283923 -1.3046408849 -0.9454665326
H   2.3019735361 -0.7170857955  0.3323717869
7
Iter 100  Energy = -29.6073326236
C   0.8779786272  0.7839814227 -0.1642673448
H   0.7003957134  1.5619988715 -0.9185866535
O   0.5243419273  0.9694672862  1.1224777358
C   1.3509044730 -0.5558634256 -0.1944197038
H   0.7783206449 -0.2474886796  1.0618133647
H   1.0672761670 -1.3047027282 -0.9453850762
H   2.3020240766 -0.7170260761  0.3323069340
7
Iter 101  Energy = -29.6073327875
C   0.8779719272  0.7839825011 -0.1642780319
H   0.7004657790  1.5620557064 -0.9185600552
O   0.5242842465  0.9694250489  1.1224619706
C   1.3509129105 -0.5558642468 -0.1944251742
H   0.7783081144 -0.2475013625  1.0618024079
H   1.0672243282 -1.3047640040 -0.9453042574
H   2.3020743238 -0.7169669724  0.3322423969
7
Iter 102  Energy = -29.6073330557
C   0.8779651925  0.7839836028 -0.1642886366
H   0.7005354300  1.5621120611 -0.9185336651
O   0.5242267432  0.9693831653  1.1224462873
C   1.3509212902 -0.5558650954 -0.1944305289
H   0.7782958122 -0.2475138737  1.0617916885
H   1.0671728698 -1.3048247174 -0.9452240772
H   2.3021242917 -0.7169084729  0.3321781891
7
Iter 103  Energy = -29.6073333091
C   0.8779584333  0.7839846761 -0.1642991181
H   0.7006046610  1.5621679654 -0.9185075066
O   0.5241694170  0.9693416485  1.1224306693
C   1.3509295949 -0.5558659562 -0.1944357542
H   0.7782837431 -0.2475262362  1.0617811737
H   1.0671217882 -1.3048848551 -0.9451445149
H   2.3021739914 -0.7168505728  0.3321143089
7
Iter 104  Energy = -29.6073335624
C   0.8779516610  0.7839857149 -0.1643094558
H   0.7006734731  1.5622234098 -0.9184815570
O   0.5241122722  0.9693004946  1.1224150981
C   1.3509378468 -0.5558668144 -0.1944408879
H   0.7782718924 -0.2475384290  1.0617708761
H   1.0670710833 -1.3049444420 -0.9450655616
H   2.3022234001 -0.7167932624  0.3320507457
7
Iter 105  Energy = -29.6073338157
C   0.8779448729  0.7839867344 -0.1643197193
H   0.7007418701  1.5622783981 -0.9184558074
O   0.5240553133  0.9692596773  1.1223996045
C   1.3509460493 -0.5558676284 -0.1944458896
H   0.7782602463 -0.2475504520  1.0617608050
H   1.0670207366 -1.3050035140 -0.9449872443
H   2.3022725404 -0.7167365434  0.3319875095
7
Iter 106  Energy = -29.6073340839
C   0.8779380635  0.7839877545 -0.1643298761
H   0.7008098607  1.5623329257 -0.9184302702
O   0.5239985403  0.9692191970  1.1223841846
C   1.3509541964 -0.5558684564 -0.1944508150
H   0.7782488038 -0.2475623178  1.0617509554
H   1.0669707518 -1.3050620351 -0.9449095207
H   2.3023214124 -0.7166803962  0.3319246012
7
Iter 107  Energy = -29.6073342627
C   0.8779312393  0.7839887394 -0.1643399023
H   0.7008774403  1.5623870132 -0.9184049524
O   0.5239419582  0.9691790463  1.1223688415
C   1.3509623121 -0.5558693142 -0.1944556643
H   0.7782375592 -0.2475739998  1.0617413035
H   1.0669211340 -1.3051200023 -0.9448323731
H   2.3023699858 -0.7166248107  0.3318620063
7
Iter 108  Energy = -29.6073345459
C   0.8779244113  0.7839896907 -0.1643498252
H   0.7009446113  1.5624406537 -0.9183798415
O   0.5238855667  0.9691392420  1.1223535684
C   1.3509703866 -0.5558701261 -0.1944603987
H   0.7782265115 -0.2475855409  1.0617318619
H   1.0668718649 -1.3051774641 -0.9447558350
H   2.3024182762 -0.7165697831  0.3317997296
7
Iter 109  Energy = -29.6073347843
C   0.8779175716  0.7839906576 -0.1643596526
H   0.7010113773  1.5624938466 -0.9183549411
O   0.5238293723  0.9690997667  1.1223383619
C   1.3509783793 -0.5558709534 -0.1944650608
H   0.7782156572 -0.2475969539  1.0617226307
H   1.0668229480 -1.3052343857 -0.9446798724
H   2.3024663225 -0.7165153052  0.3317377931
7
Iter 110  Energy = -29.6073349482
C   0.8779107255  0.7839915626 -0.1643693411
H   0.7010777401  1.5625466118 -0.9183302545
O   0.5237733735  0.9690606296  1.1223232322
C   1.3509863381 -0.5558717582 -0.1944696215
H   0.7782049937 -0.2476082112  1.0617135685
H   1.0667743816 -1.3052907942 -0.9446044865
H   2.3025140762 -0.7164613672  0.3316761632
7
Iter 111  Energy = -29.6073352164
C   0.8779038681  0.7839924644 -0.1643789281
H   0.7011437012  1.5625989380 -0.9183057743
O   0.5237175677  0.9690218302  1.1223081895
C   1.3509942350 -0.5558725863 -0.1944740925
H   0.7781945202 -0.2476193311  1.0617046706
H   1.0667261582 -1.3053466776 -0.9445296701
H   2.3025615781 -0.7164079646  0.3316148644
7
Iter 112  Energy = -29.6073353952
C   0.8778970144  0.7839933486 -0.1643884328
H   0.7012092587  1.5626508454 -0.9182815086
O   0.5236619582  0.9689833563  1.1222932504
C   1.3510020885 -0.5558733866 -0.1944784343
H   0.7781842266 -0.2476303221  1.0616959480
H   1.0666782681 -1.3054020783 -0.9444554435
H   2.3026088145 -0.7163550905  0.3315538820
7
Iter 113  Energy = -29.6073356634
C   0.8778901478  0.7839942270 -0.1643978260
H   0.7012744215  1.5627023057 -0.9182574196
O   0.5236065636  0.9689451976  1.1222783431
C   1.3510098731 -0.5558741729 -0.1944826997
H   0.7781741091 -0.2476411795  1.0616874057
H   1.0666307178 -1.3054569691 -0.9443817717
H   2.3026557965 -0.7163027361  0.3314932282
7
Iter 114  Energy = -29.6073358572
C   0.8778832942  0.7839950705 -0.1644071189
H   0.7013391870  1.5627533492 -0.9182335382
O   0.5235513764  0.9689073360  1.1222635197
C   1.3510176179 -0.5558749454 -0.1944868791
H   0.7781641590 -0.2476518925  1.0616790422
H   1.0665835007 -1.3055113609 -0.9443086552
H   2.3027024942 -0.7162508832  0.3314328889
7
Iter 115  Energy = -29.6073360807
C   0.8778764322  0.7839959106 -0.1644162913
H   0.7014035510  1.5628039928 -0.9182098671
O   0.5234963979  0.9688697945  1.1222487658
C   1.3510253153 -0.5558757634 -0.1944909800
H   0.7781543811 -0.2476624749  1.0616708380
H   1.0665366203 -1.3055652472 -0.9442360773
H   2.3027489317 -0.7161995392  0.3313728713
7
Iter 116  Energy = -29.6073362595
C   0.8778695781  0.7839967165 -0.1644253659
H   0.7014675248  1.5628542076 -0.9181863792
O   0.5234416371  0.9688325484  1.1222340718
C   1.3510329581 -0.5558765286 -0.1944949751
H   0.7781447641 -0.2476729195  1.0616628025
H   1.0664900662 -1.3056186606 -0.9441640634
H   2.3027951009 -0.7161486900  0.3313131687
7
Iter 117  Energy = -29.6073364383
C   0.8778627293  0.7839974944 -0.1644343524
H   0.7015311061  1.5629040115 -0.9181630758
O   0.5233870809  0.9687956285  1.1222194625
C   1.3510405698 -0.5558772996 -0.1944988832
H   0.7781353097 -0.2476832484  1.0616549148
H   1.0664438381 -1.3056715836 -0.9440925816
H   2.3028409950 -0.7160983284  0.3312537752
7
Iter 118  Energy = -29.6073366618
C   0.8778558955  0.7839982707 -0.1644432640
H   0.7015942920  1.5629534206 -0.9181399779
O   0.5233327396  0.9687589898  1.1222049427
C   1.3510481011 -0.5558780745 -0.1945027030
H   0.7781260143 -0.2476934456  1.0616471881
H   1.0663979349 -1.3057240329 -0.9440216423
H   2.3028866509 -0.7160484530  0.3311947137
7
Iter 119  Energy = -29.6073369002
C   0.8778490638  0.7839990333 -0.1644520868
H   0.7016570925  1.5630024168 -0.9181170619
O   0.5232786151  0.9687226560  1.1221904942
C   1.3510556147 -0.5558788424 -0.1945064438
H   0.7781168687 -0.2477035279  1.0616396281
H   1.0663523487 -1.3057760106 -0.9439512347
H   2.3029320248 -0.7159990502  0.3311359606
7
Iter 120  Energy = -29.6073370791
C   0.8778422540  0.7839997836 -0.1644608663
H   0.7017195042  1.5630510229 -0.9180943424
O   0.5232247229  0.9686864991  1.1221761483
C   1.3510630970 -0.5558796455 -0.1945101951
H   0.7781078263 -0.2477133567  1.0616323360
H   1.0663070910 -1.3058275121 -0.9438813596
H   2.3029771328 -0.7159501169  0.3310775338
7
Iter 121  Energy = -29.6073372430
C   0.8778354780  0.7840003931 -0.1644694682
H   0.7017815206  1.5630992681 -0.9180718291
O   0.5231710701  0.9686506078  1.1221618135
C   1.3510704847 -0.5558803150 -0.1945138246
H   0.7780989334 -0.2477230408  1.0616251657
H   1.0662621395 -1.3058785846 -0.9438120345
H   2.3030220022 -0.7159016546  0.3310194303
7
Iter 122  Energy = -29.6073374665
C   0.8778286804  0.7840011086 -0.1644780291
H   0.7018431630  1.5631470785 -0.9180494619
O   0.5231176417  0.9686150018  1.1221475438
C   1.3510778510 -0.5558810900 -0.1945174436
H   0.7780901793 -0.2477326198  1.0616181972
H   1.0662175120 -1.3059291621 -0.9437432012
H   2.3030666004 -0.7158536432  0.3309616493
7
Iter 123  Energy = -29.6073376155
C   0.8778219124  0.7840017254 -0.1644864550
H   0.7019044167  1.5631945373 -0.9180273101
O   0.5230644440  0.9685796751  1.1221333316
C   1.3510851614 -0.5558817648 -0.1945208964
H   0.7780815768 -0.2477420966  1.0616113216
H   1.0661731788 -1.3059793199 -0.9436749098
H   2.3031109382 -0.7158060822  0.3309041727
7
Iter 124  Energy = -29.6073378092
C   0.8778151416  0.7840024206 -0.1644948416
H   0.7019652951  1.5632415890 -0.9180053215
O   0.5230114699  0.9685446306  1.1221192053
C   1.3510924251 -0.5558825267 -0.1945243247
H   0.7780731101 -0.2477514728  1.0616046234
H   1.0661291653 -1.3060290059 -0.9436071056
H   2.3031550210 -0.7157589608  0.3308470205
7
Iter 125  Energy = -29.6073380178
C   0.8778084089  0.7840030026 -0.1645031143
H   0.7020257943  1.5632882752 -0.9179835290
O   0.5229587200  0.9685098718  1.1221051500
C   1.3510996337 -0.5558831856 -0.1945276469
H   0.7780647843 -0.2477607375  1.0615980467
H   1.0660854473 -1.3060782745 -0.9435398288
H   2.3031988401 -0.7157122782  0.3307901771
7
Iter 126  Energy = -29.6073381668
C   0.8778016617  0.7840036625 -0.1645113306
H   0.7020859221  1.5633345632 -0.9179618900
O   0.5229062048  0.9684753866  1.1220911525
C   1.3511068268 -0.5558839270 -0.1945309050
H   0.7780565903 -0.2477699135  1.0615916206
H   1.0660420385 -1.3061270740 -0.9434730296
H   2.3032423839 -0.7156660251  0.3307336383
7
Iter 127  Energy = -29.6073383457
C   0.8777949506  0.7840042205 -0.1645194171
H   0.7021456700  1.5633804996 -0.9179404455
O   0.5228539164  0.9684411826  1.1220772150
C   1.3511139540 -0.5558845699 -0.1945340412
H   0.7780485334 -0.2477789832  1.0615852876
H   1.0659989152 -1.3061754753 -0.9434067560
H   2.3032856878 -0.7156202029  0.3306774137
7
Iter 128  Energy = -29.6073385692
C   0.8777882482  0.7840048228 -0.1645274534
H   0.7022050483  1.5634260497 -0.9179191603
O   0.5228018600  0.9684072348  1.1220633547
C   1.3511210165 -0.5558852660 -0.1945371625
H   0.7780405968 -0.2477879401  1.0615791185
H   1.0659560974 -1.3062234288 -0.9433409605
H   2.3033287604 -0.7155748009  0.3306215195
7
Iter 129  Energy = -29.6073387629
C   0.8777815674  0.7840054017 -0.1645353891
H   0.7022640509  1.5634712505 -0.9178980608
O   0.5227500386  0.9683735440  1.1220495513
C   1.3511280421 -0.5558859631 -0.1945402281
H   0.7780327792 -0.2477967941  1.0615730936
H   1.0659135718 -1.3062709547 -0.9432756478
H   2.3033715769 -0.7155298124  0.3305659374
7
Iter 130  Energy = -29.6073388374
C   0.8777748980  0.7840059772 -0.1645432729
H   0.7023226914  1.5635160778 -0.9178771347
O   0.5226984388  0.9683401387  1.1220358603
C   1.3511350236 -0.5558866686 -0.1945431918
H   0.7780250955 -0.2478055650  1.0615671539
H   1.0658713455 -1.3063180501 -0.9432108077
H   2.3034141336 -0.7154852380  0.3305106495
7
Iter 131  Energy = -29.6073390162
C   0.8777682579  0.7840065029 -0.1645510494
H   0.7023809566  1.5635605694 -0.9178563907
O   0.5226470812  0.9683069833  1.1220222133
C   1.3511419613 -0.5558873392 -0.1945460848
H   0.7780175274 -0.2478142327  1.0615613534
H   1.0658294027 -1.3063647449 -0.9431464621
H   2.3034564395 -0.7154410672  0.3304556774
7
Iter 132  Energy = -29.6073391801
C   0.8777616277  0.7840070682 -0.1645587886
H   0.7024388654  1.5636046755 -0.9178357917
O   0.5225959491  0.9682740993  1.1220086585
C   1.3511488763 -0.5558880310 -0.1945489177
H   0.7780100717 -0.2478228154  1.0615556832
H   1.0657877428 -1.3064110308 -0.9430825948
H   2.3034984944 -0.7153972935  0.3304010094
7
Iter 133  Energy = -29.6073393887
C   0.8777550214  0.7840075976 -0.1645664234
H   0.7024964082  1.5636484354 -0.9178153664
O   0.5225450609  0.9682414578  1.1219951486
C   1.3511557221 -0.5558887012 -0.1945516844
H   0.7780027296 -0.2478312963  1.0615501234
H   1.0657463665 -1.3064569040 -0.9430191943
H   2.3035403175 -0.7153539164  0.3303466563
7
Iter 134  Energy = -29.6073395228
C   0.8777484370  0.7840081121 -0.1645740015
H   0.7025535885  1.5636918547 -0.9177951083
O   0.5224943925  0.9682090894  1.1219817509
C   1.3511625010 -0.5558894030 -0.1945544152
H   0.7779955031 -0.2478396792  1.0615446649
H   1.0657052867 -1.3065023627 -0.9429562465
H   2.3035819176 -0.7153109389  0.3302926173
7
Iter 135  Energy = -29.6073396570
C   0.8777418671  0.7840086132 -0.1645814635
H   0.7026104120  1.5637349212 -0.9177750201
O   0.5224439804  0.9681769512  1.1219683799
C   1.3511692433 -0.5558900530 -0.1945570417
H   0.7779883899 -0.2478479802  1.0615393003
H   1.0656644775 -1.3065474376 -0.9428937710
H   2.3036232565 -0.7152683422  0.3302388765
7
Iter 136  Energy = -29.6073398209
C   0.8777353285  0.7840090928 -0.1645888845
H   0.7026668708  1.5637776675 -0.9177551047
O   0.5223937885  0.9681450705  1.1219551240
C   1.3511759742 -0.5558907510 -0.1945596224
H   0.7779813720 -0.2478561710  1.0615340725
H   1.0656239414 -1.3065921142 -0.9428317653
H   2.3036643517 -0.7152261229  0.3301854389
7
Iter 137  Energy = -29.6073399997
C   0.8777288016  0.7840095643 -0.1645961907
H   0.7027229809  1.5638200562 -0.9177353427
O   0.5223438495  0.9681134230  1.1219418907
C   1.3511826686 -0.5558914132 -0.1945621355
H   0.7779744587 -0.2478642754  1.0615289503
H   1.0655836813 -1.3066364055 -0.9427702105
H   2.3037051871 -0.7151842780  0.3301322966
7
Iter 138  Energy = -29.6073401040
C   0.8777222992  0.7840100293 -0.1646034468
H   0.7027787364  1.5638621122 -0.9177157416
O   0.5222941357  0.9680820408  1.1219287619
C   1.3511892954 -0.5558920989 -0.1945646065
H   0.7779676477 -0.2478723028  1.0615239200
H   1.0655436982 -1.3066802988 -0.9427090953
H   2.3037458146 -0.7151428105  0.3300794674
7
Iter 139  Energy = -29.6073403126
C   0.8777158209  0.7840104707 -0.1646106132
H   0.7028341402  1.5639038350 -0.9176962983
O   0.5222446717  0.9680508810  1.1219156796
C   1.3511958667 -0.5558927473 -0.1945669999
H   0.7779609392 -0.2478802393  1.0615189844
H   1.0655039865 -1.3067238187 -0.9426484307
H   2.3037862022 -0.7151017093  0.3300269384
7
Iter 140  Energy = -29.6073404765
C   0.8777093620  0.7840109288 -0.1646177359
H   0.7028891952  1.5639452165 -0.9176769990
O   0.5221954455  0.9680199551  1.1219026766
C   1.3512024518 -0.5558934154 -0.1945693334
H   0.7779543168 -0.2478880793  1.0615141798
H   1.0654645381 -1.3067669685 -0.9425882223
H   2.3038263181 -0.7150609641  0.3299746961
7
Iter 141  Energy = -29.6073405510
C   0.8777029275  0.7840113700 -0.1646247783
H   0.7029439022  1.5639862769 -0.9176578665
O   0.5221464546  0.9679892731  1.1218897473
C   1.3512089625 -0.5558940782 -0.1945716368
H   0.7779477945 -0.2478958454  1.0615094762
H   1.0654253641 -1.3068097396 -0.9425284452
H   2.3038662217 -0.7150205834  0.3299227654
7
Iter 142  Energy = -29.6073407298
C   0.8776965312  0.7840117674 -0.1646317695
H   0.7029982607  1.5640270193 -0.9176388900
O   0.5220976965  0.9679588220  1.1218769137
C   1.3512154278 -0.5558947196 -0.1945738890
H   0.7779413562 -0.2479035085  1.0615048720
H   1.0653864489 -1.3068521474 -0.9424691131
H   2.3039059052 -0.7149805606  0.3298711384
7
Iter 143  Energy = -29.6073409534
C   0.8776901567  0.7840121987 -0.1646387100
H   0.7030522760  1.5640674274 -0.9176200586
O   0.5220491805  0.9679285960  1.1218641484
C   1.3512218499 -0.5558953679 -0.1945760822
H   0.7779350121 -0.2479111008  1.0615003659
H   1.0653478021 -1.3068941911 -0.9424102071
H   2.3039453496 -0.7149408891  0.3298198056
7
Iter 144  Energy = -29.6073410279
C   0.8776838007  0.7840125978 -0.1646455232
H   0.7031059485  1.5641075239 -0.9176013844
O   0.5220009111  0.9678986018  1.1218514250
C   1.3512282396 -0.5558960108 -0.1945782168
H   0.7779287577 -0.2479186109  1.0614959257
H   1.0653094138 -1.3069358688 -0.9423517256
H   2.3039845551 -0.7149015598  0.3297687621
7
Iter 145  Energy = -29.6073411769
C   0.8776774855  0.7840129312 -0.1646522994
H   0.7031592796  1.5641473127 -0.9175828562
O   0.5219528913  0.9678687645  1.1218387842
C   1.3512346214 -0.5558966219 -0.1945803373
H   0.7779225585 -0.2479259385  1.0614916537
H   1.0652712866 -1.3069772016 -0.9422936911
H   2.3040235037 -0.7148625729  0.3297180087
7
Iter 146  Energy = -29.6073412663
C   0.8776711936  0.7840133225 -0.1646590698
H   0.7032122751  1.5641867644 -0.9175644585
O   0.5219050896  0.9678391889  1.1218262661
C   1.3512409386 -0.5558972900 -0.1945824212
H   0.7779164555 -0.2479332177  1.0614874501
H   1.0652334241 -1.3070181666 -0.9422360653
H   2.3040622502 -0.7148239285  0.3296675605
7
Iter 147  Energy = -29.6073414451
C   0.8776649373  0.7840136536 -0.1646657554
H   0.7032649315  1.5642259129 -0.9175462044
O   0.5218575365  0.9678098133  1.1218137981
C   1.3512472154 -0.5558979022 -0.1945844628
H   0.7779104288 -0.2479403860  1.0614833501
H   1.0651958161 -1.3070587980 -0.9421788699
H   2.3041007613 -0.7147856216  0.3296174052
7
Iter 148  Energy = -29.6073415643
C   0.8776587010  0.7840139925 -0.1646723685
H   0.7033172558  1.5642647468 -0.9175280980
O   0.5218101993  0.9677807423  1.1218014301
C   1.3512534559 -0.5558985387 -0.1945864155
H   0.7779045078 -0.2479475554  1.0614792541
H   1.0651584520 -1.3070990752 -0.9421220748
H   2.3041390551 -0.7147476403  0.3295675337
7
Iter 149  Energy = -29.6073416686
C   0.8776524912  0.7840143178 -0.1646788946
H   0.7033692455  1.5643032771 -0.9175101312
O   0.5217631134  0.9677518661  1.1217891018
C   1.3512596374 -0.5558991393 -0.1945883599
H   0.7778986489 -0.2479546262  1.0614752728
H   1.0651213500 -1.3071390240 -0.9420656856
H   2.3041771403 -0.7147100006  0.3295179573
7
Iter 150  Energy = -29.6073417878
C   0.8776463092  0.7840146100 -0.1646853428
H   0.7034209008  1.5643415124 -0.9174923042
O   0.5217162701  0.9677232160  1.1217768340
C   1.3512657940 -0.5558997194 -0.1945902597
H   0.7778928582 -0.2479616203  1.0614713719
H   1.0650844939 -1.3071786405 -0.9420097053
H   2.3042149997 -0.7146726879  0.3294686651
7
Iter 151  Energy = -29.6073419368
C   0.8776401407  0.7840149363 -0.1646917178
H   0.7034722290  1.5643794351 -0.9174746018
O   0.5216696646  0.9676947960  1.1217646264
C   1.3512719266 -0.5559003134 -0.1945921064
H   0.7778871432 -0.2479685493  1.0614675363
H   1.0650478843 -1.3072179379 -0.9419541348
H   2.3042526376 -0.7146356963  0.3294196553
7
Iter 152  Energy = -29.6073420411
C   0.8776340128  0.7840152347 -0.1646980625
H   0.7035232339  1.5644170524 -0.9174570396
O   0.5216232857  0.9676665992  1.1217525336
C   1.3512780103 -0.5559008770 -0.1945939056
H   0.7778815049 -0.2479754081  1.0614637612
H   1.0650115204 -1.3072569080 -0.9418989596
H   2.3042900583 -0.7145990239  0.3293709302
7
Iter 153  Energy = -29.6073421305
C   0.8776279114  0.7840155367 -0.1647043251
H   0.7035739088  1.5644543893 -0.9174396245
O   0.5215771515  0.9676386126  1.1217404853
C   1.3512840479 -0.5559014632 -0.1945956927
H   0.7778759330 -0.2479822033  1.0614600848
H   1.0649754113 -1.3072955368 -0.9418441605
H   2.3043272629 -0.7145626664  0.3293224901
7
Iter 154  Energy = -29.6073423243
C   0.8776218378  0.7840158239 -0.1647105238
H   0.7036242610  1.5644914327 -0.9174223451
O   0.5215312574  0.9676108370  1.1217285095
C   1.3512900663 -0.5559020191 -0.1945974103
H   0.7778704293 -0.2479889296  1.0614564682
H   1.0649395400 -1.3073338580 -0.9417897631
H   2.3043642347 -0.7145266197  0.3292743212
7
Iter 155  Energy = -29.6073424435
C   0.8776157894  0.7840160979 -0.1647166358
H   0.7036742906  1.5645281821 -0.9174051914
O   0.5214856023  0.9675832845  1.1217165807
C   1.3512960341 -0.5559025609 -0.1945991038
H   0.7778649945 -0.2479955900  1.0614529182
H   1.0649039085 -1.3073718622 -0.9417357529
H   2.3044010065 -0.7144908836  0.3292264414
7
Iter 156  Energy = -29.6073425925
C   0.8776097730  0.7840163740 -0.1647227145
H   0.7037239982  1.5645646502 -0.9173881728
O   0.5214401871  0.9675559226  1.1217047357
C   1.3513019873 -0.5559031071 -0.1946007558
H   0.7778596150 -0.2480021666  1.0614494648
H   1.0648685166 -1.3074095557 -0.9416821377
H   2.3044375487 -0.7144554506  0.3291788350
7
Iter 157  Energy = -29.6073426223
C   0.8776037836  0.7840166521 -0.1647287550
H   0.7037733927  1.5646008167 -0.9173712695
O   0.5213950007  0.9675287788  1.1216929828
C   1.3513079213 -0.5559036461 -0.1946023577
H   0.7778543035 -0.2480086775  1.0614460598
H   1.0648333603 -1.3074469392 -0.9416289031
H   2.3044738638 -0.7144203175  0.3291314971
7
Iter 158  Energy = -29.6073428011
C   0.8775978146  0.7840169154 -0.1647346994
H   0.7038224671  1.5646367226 -0.9173545209
O   0.5213500592  0.9675018359  1.1216812761
C   1.3513138253 -0.5559041806 -0.1946039141
H   0.7778490548 -0.2480151284  1.0614427237
H   1.0647984334 -1.3074840143 -0.9415760514
H   2.3045099720 -0.7143854839  0.3290844412
7
Iter 159  Energy = -29.6073428756
C   0.8775918783  0.7840171781 -0.1647405900
H   0.7038712265  1.5646723418 -0.9173378866
O   0.5213053568  0.9674750930  1.1216696289
C   1.3513196652 -0.5559047103 -0.1946054513
H   0.7778438664 -0.2480215111  1.0614394535
H   1.0647637471 -1.3075207794 -0.9415235681
H   2.3045458866 -0.7143509455  0.3290376686
7
Iter 160  Energy = -29.6073430544
C   0.8775859763  0.7840174302 -0.1647464447
H   0.7039196745  1.5647076820 -0.9173213781
O   0.5212608940  0.9674485299  1.1216580601
C   1.3513254988 -0.5559052317 -0.1946069443
H   0.7778387308 -0.2480278081  1.0614362724
H   1.0647292899 -1.3075572452 -0.9414714683
H   2.3045815624 -0.7143166905  0.3289911603
7
Iter 161  Energy = -29.6073431587
C   0.8775801114  0.7840176752 -0.1647522439
H   0.7039678084  1.5647427548 -0.9173050042
O   0.5212166512  0.9674222054  1.1216465797
C   1.3513312876 -0.5559057624 -0.1946084002
H   0.7778336654 -0.2480340754  1.0614331282
H   1.0646950678 -1.3075934033 -0.9414197223
H   2.3046170348 -0.7142827269  0.3289449214
7
Iter 162  Energy = -29.6073432630
C   0.8775742643  0.7840179284 -0.1647579751
H   0.7040156364  1.5647775531 -0.9172887575
O   0.5211726525  0.9673960662  1.1216351559
C   1.3513370408 -0.5559062888 -0.1946098358
H   0.7778286521 -0.2480402752  1.0614300561
H   1.0646610748 -1.3076292662 -0.9413683452
H   2.3046523059 -0.7142490503  0.3288989603
7
Iter 163  Energy = -29.6073433077
C   0.8775684585  0.7840181490 -0.1647636464
H   0.7040631527  1.5648120967 -0.9172726421
O   0.5211288917  0.9673701158  1.1216237959
C   1.3513427323 -0.5559068052 -0.1946112379
H   0.7778236980 -0.2480464079  1.0614270410
H   1.0646273148 -1.3076648286 -0.9413173252
H   2.3046873788 -0.7142156530  0.3288532748
7
Iter 164  Energy = -29.6073434418
C   0.8775626715  0.7840183701 -0.1647692547
H   0.7041103681  1.5648463671 -0.9172566535
O   0.5210853654  0.9673443537  1.1216125163
C   1.3513484312 -0.5559073225 -0.1946126300
H   0.7778187859 -0.2480524518  1.0614241090
H   1.0645937758 -1.3077001142 -0.9412666803
H   2.3047222287 -0.7141825358  0.3288078540
7
Iter 165  Energy = -29.6073435313
C   0.8775569158  0.7840186010 -0.1647748349
H   0.7041572792  1.5648803653 -0.9172407785
O   0.5210420735  0.9673187835  1.1216013030
C   1.3513541104 -0.5559078381 -0.1946139389
H   0.7778139401 -0.2480584565  1.0614212101
H   1.0645604585 -1.3077351007 -0.9412163872
H   2.3047568488 -0.7141496880  0.3287626869
7
Iter 166  Energy = -29.6073436207
C   0.8775511967  0.7840188192 -0.1647803442
H   0.7042038842  1.5649141118 -0.9172250276
O   0.5209990212  0.9672933949  1.1215901314
C   1.3513597205 -0.5559083325 -0.1946152456
H   0.7778091435 -0.2480644006  1.0614183956
H   1.0645273707 -1.3077698046 -0.9411664468
H   2.3047912896 -0.7141171210  0.3287178002
7
Iter 167  Energy = -29.6073437846
C   0.8775455068  0.7840190506 -0.1647858149
H   0.7042501888  1.5649476025 -0.9172094024
O   0.5209561988  0.9672681924  1.1215790507
C   1.3513652892 -0.5559088481 -0.1946165013
H   0.7778044012 -0.2480702820  1.0614156083
H   1.0644945039 -1.3078042256 -0.9411168563
H   2.3048255372 -0.7140848226  0.3286731785
7
Iter 168  Energy = -29.6073438442
C   0.8775398454  0.7840192639 -0.1647912472
H   0.7042961964  1.5649808383 -0.9171939012
O   0.5209136083  0.9672431754  1.1215680445
C   1.3513708478 -0.5559093341 -0.1946177180
H   0.7777997103 -0.2480761084  1.0614128915
H   1.0644618511 -1.3078383718 -0.9410676237
H   2.3048595667 -0.7140527941  0.3286288165
7
Iter 169  Energy = -29.6073439783
C   0.8775342161  0.7840194613 -0.1647966253
H   0.7043419072  1.5650138147 -0.9171785052
O   0.5208712490  0.9672183550  1.1215571012
C   1.3513763757 -0.5559098388 -0.1946189046
H   0.7777950704 -0.2480818730  1.0614102100
H   1.0644294219 -1.3078722274 -0.9410187247
H   2.3048933857 -0.7140210240  0.3285847088
7
Iter 170  Energy = -29.6073440677
C   0.8775286216  0.7840196704 -0.1648019555
H   0.7043873201  1.5650465487 -0.9171632396
O   0.5208291254  0.9671937040  1.1215462221
C   1.3513818670 -0.5559103364 -0.1946200555
H   0.7777904796 -0.2480875929  1.0614075989
H   1.0643972094 -1.3079058118 -0.9409701724
H   2.3049270028 -0.7139895135  0.3285408627
7
Iter 171  Energy = -29.6073441869
C   0.8775230501  0.7840198840 -0.1648072104
H   0.7044324415  1.5650790221 -0.9171480805
O   0.5207872399  0.9671692314  1.1215353774
C   1.3513873203 -0.5559108206 -0.1946211903
H   0.7777859331 -0.2480932521  1.0614050516
H   1.0643652126 -1.3079391324 -0.9409219667
H   2.3049604284 -0.7139582648  0.3284972815
7
Iter 172  Energy = -29.6073442465
C   0.8775175095  0.7840200716 -0.1648124160
H   0.7044772683  1.5651112628 -0.9171330455
O   0.5207455843  0.9671449591  1.1215246076
C   1.3513927518 -0.5559113165 -0.1946223025
H   0.7777814325 -0.2480988649  1.0614025503
H   1.0643334257 -1.3079721742 -0.9408740941
H   2.3049936541 -0.7139272703  0.3284539618
7
Iter 173  Energy = -29.6073443061
C   0.8775119964  0.7840202846 -0.1648176021
H   0.7045218122  1.5651432433 -0.9171181230
O   0.5207041545  0.9671208434  1.1215139300
C   1.3513981263 -0.5559118279 -0.1946233880
H   0.7777769838 -0.2481044110  1.0614000816
H   1.0643018574 -1.3080049361 -0.9408265415
H   2.3050266951 -0.7138965291  0.3284109032
7
Iter 1  Energy = -29.6072649425
C   0.8774224975  0.7831303554 -0.1629717387
H   0.6910957946  1.5541969782 -0.9219757438
O   0.5295604353  0.9761167987  1.1235789358
C   1.3490101934 -0.5563468042 -0.1925022705
H   0.7826774808 -0.2431366517  1.0662393947
H   1.0762344860 -1.2945943535 -0.9580961163
H   2.2952407355 -0.7289996695  0.3396667935
7
Iter 2  Energy = -29.6072676694
C   0.8774830170  0.7830881897 -0.1629017300
H   0.6912152734  1.5543085713 -0.9219882899
O   0.5295165358  0.9761047898  1.1235977946
C   1.3490691491 -0.5562641678 -0.1925516815
H   0.7825821007 -0.2433421999  1.0660873195
H   1.0760414019 -1.2947812363 -0.9579074249
H   2.2953341454 -0.7287472932  0.3396032666
7
Iter 3  Energy = -29.6072691894
C   0.8774998137  0.7832130165 -0.1629388470
H   0.6913482969  1.5543609782 -0.9219478599
O   0.5294722921  0.9760639023  1.1236488776
C   1.3491535110 -0.5563219193 -0.1926362731
H   0.7824818715 -0.2435212578  1.0659706981
H   1.0758647503 -1.2949312333 -0.9576995284
H   2.2954210876 -0.7284968338  0.3395421875
7
Iter 4  Energy = -29.6072707391
C   0.8775553431  0.7831721307 -0.1628821775
H   0.6914659485  1.5544697766 -0.9219499107
O   0.5294372956  0.9760130188  1.1236532639
C   1.3491993750 -0.5562311993 -0.1926763711
H   0.7823852980 -0.2436836208  1.0658367731
H   1.0756838116 -1.2951143443 -0.9575196642
H   2.2955145514 -0.7282591086  0.3394773400
7
Iter 5  Energy = -29.6072722590
C   0.8775718008  0.7832783919 -0.1629138225
H   0.6915956416  1.5545282206 -0.9219074421
O   0.5293985771  0.9759530519  1.1236866518
C   1.3492653089 -0.5562703565 -0.1927455060
H   0.7822886781 -0.2438391637  1.0657236997
H   1.0755173149 -1.2952618641 -0.9573181169
H   2.2956043020 -0.7280216270  0.3394137890
7
Iter 6  Energy = -29.6072736746
C   0.8776198970  0.7832503316 -0.1628720085
H   0.6917127701  1.5546325257 -0.9218993578
O   0.5293663569  0.9758852031  1.1236850124
C   1.3493021986 -0.5561923498 -0.1927811277
H   0.7821945995 -0.2439791871  1.0655992272
H   1.0753479337 -1.2954353000 -0.9571392798
H   2.2956978670 -0.7277945714  0.3393467873
7
Iter 7  Energy = -29.6072750902
C   0.8776367734  0.7833398590 -0.1629014493
H   0.6918391643  1.5546973187 -0.9218561198
O   0.5293300995  0.9758112246  1.1237078202
C   1.3493573280 -0.5562198046 -0.1928398738
H   0.7821009902 -0.2441138743  1.0654916134
H   1.0751899444 -1.2955798874 -0.9569431073
H   2.2957873232 -0.7275681841  0.3392803710
7
Iter 8  Energy = -29.6072764611
C   0.8776791214  0.7833210321 -0.1628724597
H   0.6919552763  1.5547992701 -0.9218406834
O   0.5292983921  0.9757316847  1.1237034624
C   1.3493899210 -0.5561543205 -0.1928726904
H   0.7820096069 -0.2442355623  1.0653759162
H   1.0750300281 -1.2957448177 -0.9567653200
H   2.2958792773 -0.7273506346  0.3392110294
7
Iter 9  Energy = -29.6072778469
C   0.8776964369  0.7833959251 -0.1629005177
H   0.6920786175  1.5548698373 -0.9217972757
O   0.5292628785  0.9756484341  1.1237190730
C   1.3494374444 -0.5561738420 -0.1929242237
H   0.7819190612 -0.2443532523  1.0652740547
H   1.0748795752 -1.2958863197 -0.9565738790
H   2.2959676094 -0.7271341309  0.3391420226
7
Iter 10  Energy = -29.6072791135
C   0.8777340847  0.7833836446 -0.1628818934
H   0.6921935737  1.5549703296 -0.9217762198
O   0.5292305807  0.9755613980  1.1237132230
C   1.3494672774 -0.5561192828 -0.1929552691
H   0.7818305963 -0.2444602928  1.0651663645
H   1.0747279097 -1.2960439071 -0.9563975018
H   2.2960576007 -0.7269252389  0.3390705512
7
Iter 11  Energy = -29.6072804248
C   0.8777516009  0.7834461563 -0.1629089753
H   0.6923141585  1.5550458228 -0.9217328527
O   0.5291948233  0.9754721507  1.1237235540
C   1.3495092627 -0.5561330907 -0.1930014164
H   0.7817431486 -0.2445641181  1.0650702209
H   1.0745841352 -1.2961825412 -0.9562105451
H   2.2961444936 -0.7267177293  0.3389992699
7
Iter 12  Energy = -29.6072816169
C   0.8777852604  0.7834385803 -0.1628987560
H   0.6924279015  1.5551453455 -0.9217074335
O   0.5291613016  0.9753805004  1.1237167973
C   1.3495372198 -0.5560877418 -0.1930311934
H   0.7816577097 -0.2446593381  1.0649699034
H   1.0744396966 -1.2963338169 -0.9560360052
H   2.2962325335 -0.7265168797  0.3389259409
7
Iter 13  Energy = -29.6072828835
C   0.8778026215  0.7834908500 -0.1629251175
H   0.6925460359  1.5552248242 -0.9216641485
O   0.5291247217  0.9752876037  1.1237229795
C   1.3495749664 -0.5560973346 -0.1930731771
H   0.7815733843 -0.2447518717  1.0648793300
H   1.0743018912 -1.2964697248 -0.9558533465
H   2.2963180019 -0.7263176974  0.3388527333
7
Iter 14  Energy = -29.6072840756
C   0.8778327994  0.7834866798 -0.1629214438
H   0.6926585497  1.5553236333 -0.9216352939
O   0.5290896854  0.9751931893  1.1237153798
C   1.3496016065 -0.5560595328 -0.1931020612
H   0.7814909743 -0.2448372783  1.0647858704
H   1.0741638360 -1.2966156590 -0.9556810211
H   2.2964041721 -0.7261243825  0.3387778227
7
Iter 15  Energy = -29.6072852081
C   0.8778497471  0.7835304926 -0.1629472531
H   0.6927744844  1.5554063042 -0.9215920929
O   0.5290519295  0.9750982187  1.1237182218
C   1.3496361234 -0.5560658677 -0.1931406451
H   0.7814097717 -0.2449204442  1.0647006010
H   1.0740313793 -1.2967491078 -0.9555025518
H   2.2964881882 -0.7259329470  0.3387029735
7
Iter 16  Energy = -29.6072863704
C   0.8778768020  0.7835289551 -0.1629488341
H   0.6928857961  1.5555044592 -0.9215604712
O   0.5290151738  0.9750025419  1.1237099071
C   1.3496617018 -0.5560343235 -0.1931687781
H   0.7813304270 -0.2449978163  1.0646133693
H   1.0738990254 -1.2968904243 -0.9553326875
H   2.2965726973 -0.7257467428  0.3386267466
7
Iter 17  Energy = -29.6072874284
C   0.8778931046  0.7835658030 -0.1629740138
H   0.6929997345  1.5555896436 -0.9215173651
O   0.5289760129  0.9749068263  1.1237099210
C   1.3496935561 -0.5560382237 -0.1932046450
H   0.7812523669 -0.2450732706  1.0645330452
H   1.0737714506 -1.2970215692 -0.9551582481
H   2.2966553968 -0.7255625607  0.3385505584
7
Iter 18  Energy = -29.6072885013
C   0.8779173745  0.7835662222 -0.1629797932
H   0.6931098570  1.5556871953 -0.9214835474
O   0.5289374555  0.9748108648  1.1237009604
C   1.3497181760 -0.5560117685 -0.1932320786
H   0.7811760885 -0.2451439009  1.0644515087
H   1.0736442330 -1.2971588781 -0.9549910682
H   2.2967384375 -0.7253830873  0.3384732702
7
Iter 19  Energy = -29.6072896338
C   0.8779328374  0.7835974495 -0.1630044133
H   0.6932219816  1.5557742660 -0.9214405149
O   0.5288968013  0.9747152121  1.1236985501
C   1.3497478037 -0.5560138125 -0.1932656272
H   0.7811011338 -0.2452128721  1.0643758186
H   1.0735211197 -1.2972878681 -0.9548205629
H   2.2968199452 -0.7252057278  0.3383960011
7
Iter 20  Energy = -29.6072906172
C   0.8779545330  0.7835993673 -0.1630133709
H   0.6933309392  1.5558712228 -0.9214049745
O   0.5288564624  0.9746196640  1.1236888691
C   1.3497716169 -0.5559915656 -0.1932923391
H   0.7810278921 -0.2452777857  1.0642994440
H   1.0733985707 -1.2974216295 -0.9546561984
H   2.2969016082 -0.7250326256  0.3383178209
7
Iter 21  Energy = -29.6072916156
C   0.8779690323  0.7836260039 -0.1630374828
H   0.6934413994  1.5559596835 -0.9213620354
O   0.5288142569  0.9745246771  1.1236844333
C   1.3497994063 -0.5559922830 -0.1933238985
H   0.7809559898 -0.2453412253  1.0642280648
H   1.0732795881 -1.2975485262 -0.9544894729
H   2.2969819497 -0.7248616833  0.3382396423
7
Iter 22  Energy = -29.6072926438
C   0.8779884062  0.7836290422 -0.1630489833
H   0.6935492151  1.5560560103 -0.9213251292
O   0.5287721416  0.9744300840  1.1236740996
C   1.3498224705 -0.5559735017 -0.1933498790
H   0.7808857387 -0.2454012786  1.0641564178
H   1.0731613051 -1.2976790949 -0.9543280087
H   2.2970623454 -0.7246946154  0.3381607332
7
Iter 23  Energy = -29.6072936273
C   0.8780018595  0.7836519056 -0.1630725606
H   0.6936581297  1.5561454396 -0.9212822946
O   0.5287283807  0.9743362374  1.1236678834
C   1.3498486254 -0.5559732301 -0.1933797168
H   0.7808168334 -0.2454600042  1.0640890341
H   1.0730461450 -1.2978039675 -0.9541649468
H   2.2971416483 -0.7245297354  0.3380818518
7
Iter 24  Energy = -29.6072945511
C   0.8780190909  0.7836557811 -0.1630859910
H   0.6937648191  1.5562411134 -0.9212443335
O   0.5286845475  0.9742429912  1.1236568985
C   1.3498709255 -0.5559573434 -0.1934049849
H   0.7807495186 -0.2455158834  1.0640216758
H   1.0729317960 -1.2979316037 -0.9540064017
H   2.2972209242 -0.7243684080  0.3380023877
7
Iter 25  Energy = -29.6072954601
C   0.8780314419  0.7836755647 -0.1631091259
H   0.6938722905  1.5563311599 -0.9212016382
O   0.5286392510  0.9741505761  1.1236492114
C   1.3498957172 -0.5559564047 -0.1934332536
H   0.7806835317 -0.2455705224  1.0639579985
H   1.0728201949 -1.2980544714 -0.9538468686
H   2.2972991944 -0.7242092542  0.3379229277
7
Iter 26  Energy = -29.6072963542
C   0.8780467238  0.7836799847 -0.1631239919
H   0.6939778677  1.5564261495 -0.9211628740
O   0.5285937805  0.9740588883  1.1236375635
C   1.3499173353 -0.5559428804 -0.1934577801
H   0.7806190690 -0.2456227264  1.0638945866
H   1.0727094844 -1.2981793941 -0.9536912514
H   2.2973773609 -0.7240533752  0.3378430001
7
Iter 27  Energy = -29.6072972333
C   0.8780579596  0.7836971940 -0.1631466654
H   0.6940839777  1.5565165127 -0.9211203219
O   0.5285470005  0.9739681409  1.1236285538
C   1.3499408990 -0.5559414403 -0.1934846479
H   0.7805559181 -0.2456738186  1.0638343638
H   1.0726012165 -1.2983002936 -0.9535351228
H   2.2974546507 -0.7238996491  0.3377630911
7
Iter 28  Energy = -29.6072981274
C   0.8780714447  0.7837020320 -0.1631626763
H   0.6941884652  1.5566107694 -0.9210809844
O   0.5284999485  0.9738782346  1.1236163684
C   1.3499618421 -0.5559299338 -0.1935084020
H   0.7804942403 -0.2457228433  1.0637745449
H   1.0724938811 -1.2984226646 -0.9533824257
H   2.2975317998 -0.7237489474  0.3376828264
7
Iter 29  Energy = -29.6072989023
C   0.8780815670  0.7837171275 -0.1631849046
H   0.6942932817  1.5567012010 -0.9210386169
O   0.5284517466  0.9737892772  1.1236062169
C   1.3499842717 -0.5559281932 -0.1935339729
H   0.7804338485 -0.2457708254  1.0637174962
H   1.0723887400 -1.2985415805 -0.9532295578
H   2.2976081671 -0.7236003602  0.3376025894
7
Iter 30  Energy = -29.6072997516
C   0.8780934016  0.7837221853 -0.1632017040
H   0.6943966895  1.5567946892 -0.9209988697
O   0.5284032264  0.9737012126  1.1235934451
C   1.3500045601 -0.5559183729 -0.1935569642
H   0.7803748593 -0.2458169939  1.0636609905
H   1.0722845608 -1.2986614985 -0.9530797240
H   2.2976843251 -0.7234545761  0.3375220771
7
Iter 31  Energy = -29.6073006606
C   0.8781024177  0.7837354925 -0.1632234609
H   0.6945002666  1.5568849925 -0.9209567189
O   0.5283536781  0.9736141582  1.1235822730
C   1.3500260172 -0.5559164310 -0.1935813199
H   0.7803171268 -0.2458622325  1.0636069077
H   1.0721823512 -1.2987784734 -0.9529300283
H   2.2977597652 -0.7233108616  0.3374415990
7
Iter 32  Energy = -29.6073014504
C   0.8781127076  0.7837407027 -0.1632407569
H   0.6946026127  1.5569776593 -0.9209167353
O   0.5283037798  0.9735280911  1.1235689395
C   1.3500456551 -0.5559080169 -0.1936035034
H   0.7802607583 -0.2459059714  1.0635533976
H   1.0720811264 -1.2988960593 -0.9527830154
H   2.2978349829 -0.7231697617  0.3373609230
7
Iter 33  Energy = -29.6073021656
C   0.8781206165  0.7837526288 -0.1632620990
H   0.6947050022  1.5570676325 -0.9208748201
O   0.5282529598  0.9734430266  1.1235569087
C   1.3500661322 -0.5559060931 -0.1936267629
H   0.7802056079 -0.2459488216  1.0635020354
H   1.0719817094 -1.2990110466 -0.9526363384
H   2.2979095940 -0.7230306834  0.3372803264
7
Iter 1  Energy = -29.6072649425
C   0.8772019689  0.7831902125 -0.1628104285
H   0.6910584435  1.5540303355 -0.9221335195
O   0.5295273267  0.9765751738  1.1235722626
C   1.3488569087 -0.5563593376 -0.1922544100
H   0.7830654673 -0.2434817098  1.0660912313
H   1.0764299292 -1.2943232350 -0.9582734429
H   2.2951015783 -0.7292647868  0.3397475610
7
Iter 2  Energy = -29.6072648233
C   0.8772617519  0.7831953230 -0.1627816411
H   0.6911771593  1.5541226012 -0.9221245116
O   0.5294861178  0.9765403096  1.1236054109
C   1.3489338257 -0.5563228322 -0.1923292018
H   0.7829546455 -0.2436585891  1.0659660986
H   1.0762361813 -1.2945045096 -0.9580861415
H   2.2951919409 -0.7290056508  0.3396892386
7
Iter 3  Energy = -29.6072665221
C   0.8773067176  0.7832505592 -0.1627901839
H   0.6913006250  1.5541974792 -0.9220955402
O   0.5294485095  0.9764771423  1.1236427148
C   1.3490128546 -0.5563254293 -0.1924149553
H   0.7828393694 -0.2438074697  1.0658605922
H   1.0760516741 -1.2946743857 -0.9578936364
H   2.2952818719 -0.7287512440  0.3396302596
7
Iter 4  Energy = -29.6072682953
C   0.8773661179  0.7832381037 -0.1627663449
H   0.6914177536  1.5542947316 -0.9220810708
O   0.5294174957  0.9763945467  1.1236587413
C   1.3490732348 -0.5562665621 -0.1924842880
H   0.7827234349 -0.2439317715  1.0657575309
H   1.0758697917 -1.2948561667 -0.9577144753
H   2.2953737940 -0.7285062306  0.3395691584
7
Iter 5  Energy = -29.6072698748
C   0.8774044559  0.7832967652 -0.1627837489
H   0.6915402532  1.5543685068 -0.9220445666
O   0.5293848469  0.9763089043  1.1236847462
C   1.3491392028 -0.5562690738 -0.1925602059
H   0.7826110549 -0.2440548324  1.0656599145
H   1.0756970893 -1.2950188558 -0.9575244150
H   2.2954647192 -0.7282647628  0.3395075262
7
Iter 6  Energy = -29.6072714394
C   0.8774554201  0.7832949092 -0.1627697440
H   0.6916567999  1.5544631880 -0.9220223664
O   0.5293557883  0.9762158272  1.1236928912
C   1.3491892891 -0.5562192058 -0.1926188310
H   0.7825009856 -0.2441656940  1.0655586682
H   1.0755261231 -1.2951910778 -0.9573448379
H   2.2955572161 -0.7280312948  0.3394434716
7
Iter 7  Energy = -29.6072729892
C   0.8774901972  0.7833475743 -0.1627890505
H   0.6917772937  1.5545400486 -0.9219831822
O   0.5293248022  0.9761201196  1.1237102553
C   1.3492449921 -0.5562185767 -0.1926841551
H   0.7823935177 -0.2442735143  1.0654637886
H   1.0753629146 -1.2953478702 -0.9571571121
H   2.2956479047 -0.7278011283  0.3393787061
7
Iter 8  Energy = -29.6072744346
C   0.8775351569  0.7833506512 -0.1627827114
H   0.6918927630  1.5546342770 -0.9219559635
O   0.5292958990  0.9760205963  1.1237137848
C   1.3492883762 -0.5561763407 -0.1927353718
H   0.7822886416 -0.2443726949  1.0653657199
H   1.0752013458 -1.2955119763 -0.9569779407
H   2.2957394400 -0.7275778611  0.3393117310
7
Iter 9  Energy = -29.6072759247
C   0.8775672626  0.7833965284 -0.1628031836
H   0.6920111959  1.5547145974 -0.9219153951
O   0.5292649781  0.9759194030  1.1237251912
C   1.3493367250 -0.5561737902 -0.1927925710
H   0.7821859944 -0.2444687591  1.0652738224
H   1.0750463569 -1.2956635411 -0.9567926716
H   2.2958291110 -0.7273577880  0.3392440553
7
Iter 10  Energy = -29.6072772658
C   0.8776074674  0.7834020731 -0.1628029296
H   0.6921254375  1.5548090942 -0.9218846114
O   0.5292352325  0.9758162684  1.1237257093
C   1.3493754296 -0.5561380087 -0.1928383938
H   0.7820859273 -0.2445581927  1.0651796089
H   1.0748929784 -1.2958207954 -0.9566145998
H   2.2959191510 -0.7271437883  0.3391744649
7
Iter 11  Energy = -29.6072786516
C   0.8776372649  0.7834416031 -0.1628241611
H   0.6922419120  1.5548925655 -0.9218432187
O   0.5292035002  0.9757123565  1.1237326873
C   1.3494183516 -0.5561343096 -0.1928892464
H   0.7819879560 -0.2446448674  1.0650909762
H   1.0747452226 -1.2959677962 -0.9564320099
H   2.2960074160 -0.7269329007  0.3391042209
7
Iter 12  Energy = -29.6072799033
C   0.8776734251  0.7834484686 -0.1628286772
H   0.6923548920  1.5549875179 -0.9218097641
O   0.5291723579  0.9756075949  1.1237309665
C   1.3494536322 -0.5561040098 -0.1929309649
H   0.7818924284 -0.2447262344  1.0650009009
H   1.0745990535 -1.2961192284 -0.9562555859
H   2.2960958341 -0.7267274577  0.3390323736
7
Iter 13  Energy = -29.6072812444
C   0.8777010650  0.7834824893 -0.1628504920
H   0.6924695575  1.5550736227 -0.9217678108
O   0.5291393291  0.9755026733  1.1237344635
C   1.3494923667 -0.5560995971 -0.1929767925
H   0.7817989063 -0.2448052141  1.0649158282
H   1.0744577166 -1.2962622493 -0.9560759097
H   2.2961826817 -0.7265250733  0.3389599634
7
Iter 14  Energy = -29.6072824067
C   0.8777336608  0.7834900700 -0.1628588373
H   0.6925813033  1.5551689863 -0.9217322961
O   0.5291064937  0.9753975631  1.1237309808
C   1.3495250526 -0.5560738735 -0.1930152532
H   0.7817076826 -0.2448798043  1.0648300238
H   1.0743179425 -1.2964086833 -0.9559015720
H   2.2962694870 -0.7263276064  0.3388862041
7
Iter 15  Energy = -29.6072836733
C   0.8777592444  0.7835193889 -0.1628810595
H   0.6926943004  1.5552572128 -0.9216899559
O   0.5290718943  0.9752927150  1.1237316490
C   1.3495605522 -0.5560690336 -0.1930570584
H   0.7816183670 -0.2449522813  1.0647487064
H   1.0741823447 -1.2965482135 -0.9557249953
H   2.2963549199 -0.7261331376  0.3388119638
7
Iter 16  Energy = -29.6072848356
C   0.8777886557  0.7835272888 -0.1628923281
H   0.6928048439  1.5553528708 -0.9216528205
O   0.5290372058  0.9751881866  1.1237266044
C   1.3495911618 -0.5560470930 -0.1930929856
H   0.7815312330 -0.2450211474  1.0646671764
H   1.0740482943 -1.2966902993 -0.9555530190
H   2.2964402285 -0.7259431545  0.3387366233
7
Iter 17  Energy = -29.6072859681
C   0.8778122400  0.7835526741 -0.1629147795
H   0.6929163075  1.5554427084 -0.9216101954
O   0.5290008619  0.9750842961  1.1237248992
C   1.3496240187 -0.5560420140 -0.1931315256
H   0.7814459667 -0.2450882267  1.0645895813
H   1.0739178807 -1.2968266850 -0.9553796081
H   2.2965243475 -0.7257560999  0.3386608777
7
Iter 18  Energy = -29.6072871304
C   0.8778387309  0.7835607804 -0.1629283341
H   0.6930256943  1.5555384912 -0.9215717850
O   0.5289642612  0.9749809853  1.1237185015
C   1.3496528663 -0.5560232374 -0.1931652696
H   0.7813627664 -0.2451522319  1.0645121388
H   1.0737890003 -1.2969649714 -0.9552102453
H   2.2966083040 -0.7255731642  0.3385842414
7
Iter 19  Energy = -29.6072881734
C   0.8778603676  0.7835829243 -0.1629508472
H   0.6931357246  1.5556295143 -0.9215289465
O   0.5289261307  0.9748785447  1.1237147115
C   1.3496835147 -0.5560181010 -0.1932010786
H   0.7812813665 -0.2452146552  1.0644382123
H   1.0736633292 -1.2970984980 -0.9550400593
H   2.2966911902 -0.7253930769  0.3385072535
7
Iter 20  Energy = -29.6072892761
C   0.8778842080  0.7835910618 -0.1629661640
H   0.6932439870  1.5557252762 -0.9214895399
O   0.5288876013  0.9747768938  1.1237071266
C   1.3497109083 -0.5560019488 -0.1932329431
H   0.7812019264 -0.2452744443  1.0643647207
H   1.0735391567 -1.2972334062 -0.9548734820
H   2.2967738357 -0.7252167789  0.3384295277
7
Iter 21  Energy = -29.6072903341
C   0.8779039668  0.7836105425 -0.1629886551
H   0.6933526728  1.5558171317 -0.9214465930
O   0.5288476701  0.9746762459  1.1237015783
C   1.3497396977 -0.5559969050 -0.1932664132
H   0.7811242316 -0.2453328279  1.0642943610
H   1.0734178374 -1.2973642931 -0.9547065538
H   2.2968555464 -0.7250432407  0.3383515224
7
Iter 22  Energy = -29.6072913623
C   0.8779253627  0.7836186743 -0.1630053063
H   0.6934598374  1.5559127297 -0.9214064141
O   0.5288072453  0.9745765645  1.1236929079
C   1.3497657737 -0.5559829849 -0.1932966422
H   0.7810484052 -0.2453889724  1.0642246173
H   1.0732979830 -1.2974961345 -0.9545428484
H   2.2969370162 -0.7248732229  0.3382729331
7
Iter 23  Energy = -29.6072923756
C   0.8779433284  0.7836358787 -0.1630276753
H   0.6935672494  1.5560051081 -0.9213634135
O   0.5287655349  0.9744779751  1.1236858271
C   1.3497929163 -0.5559780479 -0.1933280808
H   0.7809742633 -0.2454438367  1.0641576389
H   1.0731806772 -1.2976245530 -0.9543791664
H   2.2970176541 -0.7247058713  0.3381941175
7
Iter 24  Energy = -29.6072933292
C   0.8779624875  0.7836438804 -0.1630453143
H   0.6936733425  1.5561004298 -0.9213226806
O   0.5287232798  0.9743803972  1.1236761920
C   1.3498178352 -0.5559659895 -0.1933568450
H   0.7809018856 -0.2454967039  1.0640914703
H   1.0730648009 -1.2977535701 -0.9542184034
H   2.2970979922 -0.7245417903  0.3381148260
7
Iter 25  Energy = -29.6072942382
C   0.8779787420  0.7836592025 -0.1630675393
H   0.6937795428  1.5561930552 -0.9212796885
O   0.5286798395  0.9742839778  1.1236678052
C   1.3498435411 -0.5559612616 -0.1933865193
H   0.7808311419 -0.2455484165  1.0640277559
H   1.0729512340 -1.2978796208 -0.9540579263
H   2.2971775831 -0.7243802829  0.3380353587
7
Iter 26  Energy = -29.6072951919
C   0.8779958181  0.7836670584 -0.1630858567
H   0.6938845862  1.5562879747 -0.9212385554
O   0.5286358430  0.9741886229  1.1236572569
C   1.3498674307 -0.5559508041 -0.1934139198
H   0.7807620769 -0.2455983933  1.0639649257
H   1.0728390485 -1.2980059854 -0.9539000991
H   2.2972568214 -0.7242218200  0.3379554959
7
Iter 27  Energy = -29.6072961009
C   0.8780104418  0.7836807853 -0.1631078582
H   0.6939896252  1.5563806241 -0.9211956379
O   0.5285907513  0.9740944676  1.1236476976
C   1.3498918808 -0.5559462927 -0.1934419913
H   0.7806945808 -0.2456473280  1.0639043175
H   1.0727289529 -1.2981297690 -0.9537427888
H   2.2973353924 -0.7240658341  0.3378755073
7
Iter 28  Energy = -29.6072969502
C   0.8780256130  0.7836884339 -0.1631266516
H   0.6940936327  1.5564750542 -0.9211542726
O   0.5285450816  0.9740013993  1.1236363662
C   1.3499147836 -0.5559372145 -0.1934681721
H   0.7806286864 -0.2456947051  1.0638446360
H   1.0726202024 -1.2982536090 -0.9535878857
H   2.2974136250 -0.7239127075  0.3377952247
7
Iter 29  Energy = -29.6072978592
C   0.8780386760  0.7837008375 -0.1631483999
H   0.6941975507  1.5565675299 -0.9211114684
O   0.5284984196  0.9739094946  1.1236257824
C   1.3499380895 -0.5559329983 -0.1934948113
H   0.7805642960 -0.2457410727  1.0637869625
H   1.0725133651 -1.2983751743 -0.9534336680
H   2.2974912281 -0.7237619653  0.3377148474
7
Iter 30  Energy = -29.6072987682
C   0.8780520814  0.7837082627 -0.1631675159
H   0.6943005446  1.5566613462 -0.9210699471
O   0.5284511865  0.9738187031  1.1236137138
C   1.3499601165 -0.5559250700 -0.1935198052
H   0.7805014348 -0.2457860832  1.0637302433
H   1.0724078145 -1.2984966153 -0.9532816800
H   2.2975684468 -0.7236138927  0.3376342343
7
Iter 31  Energy = -29.6072995877
C   0.8780636868  0.7837195135 -0.1631889938
H   0.6944033680  1.5567535025 -0.9210273189
O   0.5284030387  0.9737290740  1.1236022275
C   1.3499824141 -0.5559211362 -0.1935451326
H   0.7804400110 -0.2458301728  1.0636753818
H   1.0723040233 -1.2986160162 -0.9531304915
H   2.2976450833 -0.7234681135  0.3375535706
7
Iter 32  Energy = -29.6073003924
C   0.8780754704  0.7837266682 -0.1632082570
H   0.6945053525  1.5568466513 -0.9209857690
O   0.5283543332  0.9736405447  1.1235894885
C   1.3500035901 -0.5559142146 -0.1935690776
H   0.7803800420 -0.2458730105  1.0636214735
H   1.0722014773 -1.2987351318 -0.9529813615
H   2.2977213606 -0.7233248548  0.3374727483
7
Iter 33  Energy = -29.6073012120
C   0.8780856630  0.7837369819 -0.1632294112
H   0.6946071199  1.5569383130 -0.9209433286
O   0.5283047887  0.9735532344  1.1235771843
C   1.3500249032 -0.5559106109 -0.1935931356
H   0.7803214920 -0.2459150869  1.0635691444
H   1.0721005570 -1.2988523875 -0.9528331129
H   2.2977971021 -0.7231837915  0.3373919045
7
Iter 34  Energy = -29.6073019719
C   0.8780959332  0.7837438634 -0.1632486795
H   0.6947081056  1.5570307210 -0.9209018441
O   0.5282547145  0.9734670064  1.1235638143
C   1.3500452575 -0.5559045583 -0.1936160100
H   0.7802643189 -0.2459560339  1.0635178071
H   1.0720008480 -1.2989692405 -0.9526867847
H   2.2978724477 -0.7230451051  0.3373109429
7
Iter 35  Energy = -29.6073026872
C   0.8781048269  0.7837533183 -0.1632695465
H   0.6948088356  1.5571217943 -0.9208596618
O   0.5282038746  0.9733818953  1.1235508461
C   1.3500657369 -0.5559012653 -0.1936389572
H   0.7802084629 -0.2459961668  1.0634680170
H   1.0719026474 -1.2990844096 -0.9525414320
H   2.2979472415 -0.7229085129  0.3372299797
7
Iter 36  Energy = -29.6073035216
C   0.8781137111  0.7837599257 -0.1632888104
H   0.6949088363  1.5572133797 -0.9208183010
O   0.5281525416  0.9732978190  1.1235369407
C   1.3500853090 -0.5558959421 -0.1936608646
H   0.7801539240 -0.2460352716  1.0634191837
H   1.0718056098 -1.2991990803 -0.9523978816
H   2.2980216935 -0.7227741765  0.3371489803
7
Iter 37  Energy = -29.6073042667
C   0.8781213740  0.7837686553 -0.1633093428
H   0.6950085417  1.5573037665 -0.9207764090
O   0.5281005154  0.9732148298  1.1235233382
C   1.3501049778 -0.5558929603 -0.1936827692
H   0.7801006425 -0.2460736068  1.0633717739
H   1.0717099783 -1.2993121833 -0.9522553418
H   2.2980955963 -0.7226418465  0.3370679961
7
Iter 38  Energy = -29.6073049820
C   0.8781289616  0.7837749991 -0.1633285234
H   0.6951075703  1.5573944570 -0.9207352186
O   0.5280480168  0.9731328765  1.1235089431
C   1.3501238762 -0.5558882993 -0.1937037366
H   0.7800486190 -0.2461110177  1.0633252923
H   1.0716154584 -1.2994247172 -0.9521145091
H   2.2981691239 -0.7225116440  0.3369869975
7
Iter 39  Energy = -29.6073056823
C   0.8781354858  0.7837830601 -0.1633486993
H   0.6952062678  1.5574840744 -0.9206936514
O   0.5279948842  0.9730519658  1.1234947896
C   1.3501427597 -0.5558856015 -0.1937246770
H   0.7799978007 -0.2461476961  1.0632801210
H   1.0715222622 -1.2995357785 -0.9519747034
H   2.2982421655 -0.7223833696  0.3369060656
7
Iter 40  Energy = -29.6073063529
C   0.8781418760  0.7837891127 -0.1633677243
H   0.6953043230  1.5575738536 -0.9206527224
O   0.5279413010  0.9729720908  1.1234799972
C   1.3501610059 -0.5558815346 -0.1937447566
H   0.7799481812 -0.2461835311  1.0632358331
H   1.0714301242 -1.2996462224 -0.9518365322
H   2.2983148148 -0.7222571159  0.3368251479
7
Iter 41  Energy = -29.6073070234
C   0.8781473214  0.7837965867 -0.1633875422
H   0.6954020269  1.5576626247 -0.9206115020
O   0.5278871512  0.9728932301  1.1234653620
C   1.3501791920 -0.5558791230 -0.1937647608
H   0.7798997139 -0.2462186899  1.0631927644
H   1.0713392322 -1.2997552709 -0.9516993993
H   2.2983869883 -0.7221327048  0.3367443199
7
Iter 42  Energy = -29.6073077238
C   0.8781526131  0.7838023511 -0.1634063569
H   0.6954991155  1.5577514384 -0.9205708723
O   0.5278325884  0.9728153427  1.1234501703
C   1.3501968061 -0.5558755659 -0.1937839926
H   0.7798523861 -0.2462530688  1.0631505612
H   1.0712493541 -1.2998636366 -0.9515638058
H   2.2984587624 -0.7220102070  0.3366635385
7
Iter 43  Energy = -29.6073083943
C   0.8781570509  0.7838093095 -0.1634258175
H   0.6955958423  1.5578392927 -0.9205300437
O   0.5277775157  0.9727384264  1.1234351119
C   1.3502143487 -0.5558734307 -0.1938031168
H   0.7798061537 -0.2462868023  1.0631094985
H   1.0711606468 -1.2999706709 -0.9514292555
H   2.2985300677 -0.7218894704  0.3365828639
7
Iter 44  Energy = -29.6073090798
C   0.8781613167  0.7838148002 -0.1634444223
H   0.6956919770  1.5579270874 -0.9204897363
O   0.5277220632  0.9726624364  1.1234195872
C   1.3502313630 -0.5558703223 -0.1938215393
H   0.7797610012 -0.2463197749  1.0630692694
H   1.0710729159 -1.3000770110 -0.9512961935
H   2.2986009891 -0.7217705615  0.3365022733
7
Iter 45  Energy = -29.6073096460
C   0.8781648230  0.7838212701 -0.1634635250
H   0.6957877283  1.5580139843 -0.9204493045
O   0.5276661474  0.9725873962  1.1234041556
C   1.3502482740 -0.5558684124 -0.1938398324
H   0.7797168941 -0.2463521494  1.0630301060
H   1.0709862826 -1.3001820866 -0.9511641833
H   2.2986714771 -0.7216533481  0.3364218228
7
Iter 46  Energy = -29.6073103017
C   0.8781681381  0.7838264898 -0.1634818950
H   0.6958829092  1.5581007300 -0.9204093520
O   0.5276098713  0.9725132847  1.1233883605
C   1.3502647694 -0.5558657553 -0.1938574863
H   0.7796738185 -0.2463838242  1.0629917343
H   1.0709005899 -1.3002864103 -0.9510335791
H   2.2987415301 -0.7215378611  0.3363414564
7
Iter 47  Energy = -29.6073109275
C   0.8781707766  0.7838325127 -0.1635006557
H   0.6959776921  1.5581866320 -0.9203693366
O   0.5275531927  0.9724400473  1.1233726262
C   1.3502811302 -0.5558640912 -0.1938749877
H   0.7796317308 -0.2464148990  1.0629543785
H   1.0708159399 -1.3003895469 -0.9509040394
H   2.2988111636 -0.7214240014  0.3362612538
7
Iter 48  Energy = -29.6073115236
C   0.8781732034  0.7838374914 -0.1635187315
H   0.6960719244  1.5582723053 -0.9203297793
O   0.5274962002  0.9723676752  1.1233565488
C   1.3502970685 -0.5558617919 -0.1938919114
H   0.7795906265 -0.2464453180  1.0629177748
H   1.0707321930 -1.3004919121 -0.9507758457
H   2.2988804101 -0.7213117966  0.3361811818
7
Iter 49  Energy = -29.6073120898
C   0.8781750241  0.7838431185 -0.1635371234
H   0.6961657510  1.5583571659 -0.9202902074
O   0.5274388377  0.9722961779  1.1233405447
C   1.3503128868 -0.5558603490 -0.1939086427
H   0.7795504734 -0.2464751897  1.0628820902
H   1.0706494280 -1.3005931267 -0.9506487040
H   2.2989492254 -0.7212011443  0.3361012793
7
Iter 50  Energy = -29.6073126560
C   0.8781766444  0.7838478368 -0.1635549436
H   0.6962590367  1.5584417547 -0.9202510790
O   0.5273811822  0.9722255255  1.1233242777
C   1.3503283620 -0.5558583862 -0.1939248510
H   0.7795112452 -0.2465044636  1.0628471700
H   1.0705675301 -1.3006935457 -0.9505228497
H   2.2990176259 -0.7210920707  0.3360215125
7
Iter 51  Energy = -29.6073132521
C   0.8781777080  0.7838531291 -0.1635729980
H   0.6963519057  1.5585255630 -0.9202119791
O   0.5273232049  0.9721556990  1.1233080595
C   1.3503437167 -0.5558571653 -0.1939408465
H   0.7794729219 -0.2465332023  1.0628131191
H   1.0704865602 -1.3007928818 -0.9503980566
H   2.2990856085 -0.7209844896  0.3359419389
7
Iter 52  Energy = -29.6073138183
C   0.8781785713  0.7838576085 -0.1635904925
H   0.6964442460  1.5586090359 -0.9201732711
O   0.5272649838  0.9720866723  1.1232915604
C   1.3503586936 -0.5558555031 -0.1939563869
H   0.7794354847 -0.2465613531  1.0627797754
H   1.0704064312 -1.3008913961 -0.9502744924
H   2.2991532151 -0.7208784120  0.3358625464
7
Iter 53  Energy = -29.6073143995
C   0.8781789379  0.7838625456 -0.1636081556
H   0.6965361674  1.5586917445 -0.9201346242
O   0.5272064756  0.9720184592  1.1232750873
C   1.3503735647 -0.5558544481 -0.1939717102
H   0.7793989064 -0.2465890217  1.0627472717
H   1.0703271818 -1.3009888631 -0.9501519798
H   2.2992203916 -0.7207737642  0.3357833493
7
Iter 54  Energy = -29.6073149508
C   0.8781791037  0.7838668004 -0.1636253786
H   0.6966275694  1.5587740930 -0.9200963805
O   0.5271477324  0.9719510313  1.1232584555
C   1.3503881243 -0.5558530510 -0.1939865983
H   0.7793631674 -0.2466161487  1.0627154503
H   1.0702487352 -1.3010855085 -0.9500306561
H   2.2992871931 -0.7206705643  0.3357043458
7
Iter 55  Energy = -29.6073154426
C   0.8781788337  0.7838714267 -0.1636427363
H   0.6967185432  1.5588557086 -0.9200582282
O   0.5270887319  0.9718843790  1.1232418719
C   1.3504025312 -0.5558521882 -0.1940012836
H   0.7793282495 -0.2466428017  1.0626844022
H   1.0701711316 -1.3011811354 -0.9499103570
H   2.2993536047 -0.7205687363  0.3356255705
7
Iter 56  Energy = -29.6073159343
C   0.8781783658  0.7838754501 -0.1636596543
H   0.6968090060  1.5589369263 -0.9200204491
O   0.5270295415  0.9718184729  1.1232251076
C   1.3504166768 -0.5558510184 -0.1940155483
H   0.7792941286 -0.2466689420  1.0626540150
H   1.0700942989 -1.3012759518 -0.9497912199
H   2.2994196084 -0.7204682845  0.3355469887
7
Iter 57  Energy = -29.6073164856
C   0.8781774835  0.7838798059 -0.1636766470
H   0.6968990369  1.5590174252 -0.9199827889
O   0.5269701399  0.9717533218  1.1232083566
C   1.3504306877 -0.5558503375 -0.1940295933
H   0.7792607911 -0.2466946539  1.0626243511
H   1.0700182718 -1.3013697587 -0.9496730806
H   2.2994852152 -0.7203691501  0.3354686397
7
Iter 58  Energy = -29.6073169923
C   0.8781764341  0.7838836360 -0.1636933156
H   0.6969885659  1.5590974905 -0.9199454775
O   0.5269105749  0.9716888091  1.1231915025
C   1.3504444286 -0.5558494052 -0.1940433448
H   0.7792281750 -0.2467197766  1.0625954219
H   1.0699429961 -1.3014627623 -0.9495560757
H   2.2995504522 -0.7202713395  0.3353905277
7
Iter 59  Energy = -29.6073174691
C   0.8781750288  0.7838876650 -0.1637099809
H   0.6970776574  1.5591768761 -0.9199083344
O   0.5268508307  0.9716250168  1.1231746583
C   1.3504580310 -0.5558488139 -0.1940568499
H   0.7791963055 -0.2467444835  1.0625671619
H   1.0698684880 -1.3015548136 -0.9494400672
H   2.2996152856 -0.7201747958  0.3353126498
7
Iter 60  Energy = -29.6073179758
C   0.8781734226  0.7838913089 -0.1637263294
H   0.6971662579  1.5592557893 -0.9198715136
O   0.5267909460  0.9715619280  1.1231577049
C   1.3504714150 -0.5558480705 -0.1940700097
H   0.7791651583 -0.2467687458  1.0625395189
H   1.0697946991 -1.3016460437 -0.9493251384
H   2.2996797285 -0.7200795152  0.3352350041
7
Iter 61  Energy = -29.6073184228
C   0.8781715007  0.7838950997 -0.1637426683
H   0.6972544132  1.5593340479 -0.9198348705
O   0.5267309012  0.9714995629  1.1231407807
C   1.3504846413 -0.5558476502 -0.1940829649
H   0.7791347176 -0.2467926216  1.0625125197
H   1.0697216451 -1.3017363341 -0.9492111843
H   2.2997438083 -0.7199854528  0.3351576228
7
Iter 62  Energy = -29.6073188996
C   0.8781693955  0.7838985298 -0.1637586891
H   0.6973420805  1.5594118248 -0.9197985595
O   0.5266707433  0.9714378615  1.1231237664
C   1.3504976767 -0.5558470818 -0.1940955831
H   0.7791049619 -0.2468160602  1.0624861101
H   1.0696492808 -1.3018258220 -0.9490982886
H   2.2998074883 -0.7198926011  0.3350804787
7
Iter 63  Energy = -29.6073193765
C   0.8781669990  0.7839020929 -0.1637747033
H   0.6974293055  1.5594889530 -0.9197624423
O   0.5266104572  0.9713768437  1.1231067904
C   1.3505105553 -0.5558467691 -0.1941079880
H   0.7790758804 -0.2468391379  1.0624603287
H   1.0695776220 -1.3019144058 -0.9489863577
H   2.2998708075 -0.7198009262  0.3350036089
7
Iter 64  Energy = -29.6073198682
C   0.8781644305  0.7839053309 -0.1637904219
H   0.6975160479  1.5595655824 -0.9197266360
O   0.5265500861  0.9713164747  1.1230897207
C   1.3505232116 -0.5558463300 -0.1941200890
H   0.7790474515 -0.2468618107  1.0624351002
H   1.0695066307 -1.3020021787 -0.9488754415
H   2.2999337687 -0.7197104180  0.3349270028
7
Iter 65  Energy = -29.6073202556
C   0.8781615917  0.7839087027 -0.1638061229
H   0.6976023431  1.5596415752 -0.9196910257
O   0.5264896087  0.9712567619  1.1230727095
C   1.3505357461 -0.5558461703 -0.1941319896
H   0.7790196572 -0.2468841100  1.0624104593
H   1.0694363224 -1.3020890691 -0.9487654692
H   2.2999963577 -0.7196210407  0.3348506743
7
Iter 66  Energy = -29.6073207325
C   0.8781585832  0.7839117888 -0.1638215339
H   0.6976881640  1.5597170568 -0.9196557192
O   0.5264290723  0.9711976779  1.1230556045
C   1.3505480950 -0.5558458926 -0.1941435727
H   0.7789924899 -0.2469060440  1.0623863362
H   1.0693666544 -1.3021751608 -0.9486564836
H   2.3000585681 -0.7195327761  0.3347746043
7
Iter 67  Energy = -29.6073211646
C   0.8781553318  0.7839149736 -0.1638368957
H   0.6977735384  1.5597919084 -0.9196206326
O   0.5263684614  0.9711392222  1.1230385410
C   1.3505603096 -0.5558458315 -0.1941549526
H   0.7789659247 -0.2469276344  1.0623627801
H   1.0692976406 -1.3022603867 -0.9485484240
H   2.3001204206 -0.7194456012  0.3346988200
7
Iter 68  Energy = -29.6073216265
C   0.8781519275  0.7839178701 -0.1638519812
H   0.6978584344  1.5598662671 -0.9195858587
O   0.5263078109  0.9710813629  1.1230214281
C   1.3505723581 -0.5558456721 -0.1941660479
H   0.7789399436 -0.2469488337  1.0623397285
H   1.0692292427 -1.3023448402 -0.9484413462
H   2.3001819107 -0.7193595046  0.3346233140
7
Iter 69  Energy = -29.6073220438
C   0.8781483030  0.7839208721 -0.1638670391
H   0.6979428857  1.5599399918 -0.9195512794
O   0.5262471072  0.9710241069  1.1230043650
C   1.3505842968 -0.5558457283 -0.1941769554
H   0.7789145333 -0.2469696931  1.0623172286
H   1.0691614772 -1.3024284504 -0.9483351759
H   2.3002430245 -0.7192744492  0.3345480940
7
Iter 70  Energy = -29.6073224461
C   0.8781445435  0.7839236042 -0.1638818578
H   0.6980268638  1.5600132149 -0.9195170065
O   0.5261863731  0.9709674534  1.1229872744
C   1.3505960558 -0.5558456919 -0.1941875855
H   0.7788896960 -0.2469902221  1.0622951893
H   1.0690943147 -1.3025112731 -0.9482299339
H   2.3003037808 -0.7191904355  0.3344731571
7
Iter 71  Energy = -29.6073228335
C   0.8781405783  0.7839264162 -0.1638965790
H   0.6981103976  1.5600858236 -0.9194829580
O   0.5261256186  0.9709113816  1.1229702045
C   1.3506076753 -0.5558458252 -0.1941980366
H   0.7788653962 -0.2470104379  1.0622736636
H   1.0690277632 -1.3025932794 -0.9481255794
H   2.3003641982 -0.7191074285  0.3343985224
7
Iter 72  Energy = -29.6073232657
C   0.8781364796  0.7839290223 -0.1639110738
H   0.6981934604  1.5601579255 -0.9194492076
O   0.5260648603  0.9708558713  1.1229531106
C   1.3506191603 -0.5558459245 -0.1942082563
H   0.7788416257 -0.2470303113  1.0622526239
H   1.0689617930 -1.3026745160 -0.9480221385
H   2.3004242479 -0.7190254178  0.3343241784
7
Iter 73  Energy = -29.6073237276
C   0.8781321940  0.7839316913 -0.1639254873
H   0.6982760813  1.5602294123 -0.9194156721
O   0.5260040938  0.9708009252  1.1229360575
C   1.3506305248 -0.5558461773 -0.1942182703
H   0.7788183771 -0.2470498737  1.0622320493
H   1.0688964111 -1.3027549522 -0.9479195728
H   2.3004839447 -0.7189443766  0.3342501326
7
Iter 74  Energy = -29.6073240107
C   0.8781277912  0.7839341653 -0.1639396953
H   0.6983582364  1.5603003829 -0.9193824247
O   0.5259433393  0.9707465388  1.1229189971
C   1.3506417253 -0.5558463569 -0.1942280276
H   0.7787956424 -0.2470691417  1.0622118965
H   1.0688315904 -1.3028346383 -0.9478178991
H   2.3005433023 -0.7188643014  0.3341763885
7
Iter 75  Energy = -29.6073244578
C   0.8781232167  0.7839366788 -0.1639538188
H   0.6984399438  1.5603707697 -0.9193494086
O   0.5258826027  0.9706926948  1.1229019729
C   1.3506528110 -0.5558466834 -0.1942376028
H   0.7787734007 -0.2470881271  1.0621921987
H   1.0687673389 -1.3029135201 -0.9477170597
H   2.3006023135 -0.7187851648  0.3341029537
7
Iter 76  Energy = -29.6073247856
C   0.8781185394  0.7839390156 -0.1639677647
H   0.6985211900  1.5604406406 -0.9193166804
O   0.5258218909  0.9706393752  1.1228849768
C   1.3506637395 -0.5558469415 -0.1942469697
H   0.7787516316 -0.2471067958  1.0621729511
H   1.0687036332 -1.3029916831 -0.9476171120
H   2.3006610028 -0.7187069631  0.3340298355
7
Iter 77  Energy = -29.6073252177
C   0.8781136985  0.7839413984 -0.1639815809
H   0.6986019918  1.5605099290 -0.9192841823
O   0.5257612155  0.9705865832  1.1228680058
C   1.3506745936 -0.5558473555 -0.1942561537
H   0.7787303319 -0.2471251739  1.0621541264
H   1.0686404774 -1.3030690764 -0.9475179951
H   2.3007193188 -0.7186296563  0.3339570158
7
Iter 78  Energy = -29.6073255158
C   0.8781087726  0.7839435805 -0.1639951982
H   0.6986823329  1.5605787151 -0.9192519755
O   0.5257005899  0.9705342926  1.1228510458
C   1.3506852749 -0.5558476881 -0.1942651069
H   0.7787094915 -0.2471432612  1.0621356874
H   1.0685778483 -1.3031457431 -0.9474197299
H   2.3007773176 -0.7185532473  0.3338845142
7
Iter 79  Energy = -29.6073258883
C   0.8781037008  0.7839458110 -0.1640087703
H   0.6987622337  1.5606469208 -0.9192199798
O   0.5256400079  0.9704825145  1.1228341534
C   1.3506959037 -0.5558481596 -0.1942738945
H   0.7786890871 -0.2471610696  1.0621176975
H   1.0685157503 -1.3032216632 -0.9473222869
H   2.3008349442 -0.7184777051  0.3338123176
7
Iter 80  Energy = -29.6073262906
C   0.8780985371  0.7839478838 -0.1640221059
H   0.6988416765  1.5607146201 -0.9191882812
O   0.5255794985  0.9704312313  1.1228172453
C   1.3507063761 -0.5558485665 -0.1942824833
H   0.7786691199 -0.2471786190  1.0621000874
H   1.0684541639 -1.3032968717 -0.9472256713
H   2.3008922558 -0.7184030298  0.3337404458
7
Iter 81  Energy = -29.6073266333
C   0.8780932400  0.7839499971 -0.1640353838
H   0.6989206854  1.5607817344 -0.9191567938
O   0.5255190494  0.9703804427  1.1228004132
C   1.3507167758 -0.5558491002 -0.1942908977
H   0.7786495757 -0.2471959030  1.0620828675
H   1.0683930962 -1.3033713322 -0.9471298486
H   2.3009492054 -0.7183291902  0.3336688809
7
Iter 82  Energy = -29.6073269463
C   0.8780878745  0.7839519538 -0.1640484381
H   0.6989992351  1.5608483547 -0.9191255962
O   0.5254586806  0.9703301375  1.1227835781
C   1.3507269767 -0.5558495689 -0.1942991463
H   0.7786304438 -0.2472129294  1.0620660170
H   1.0683325291 -1.3034451057 -0.9470348428
H   2.3010058888 -0.7182561951  0.3335976673
7
Iter 83  Energy = -29.6073272890
C   0.8780823924  0.7839539539 -0.1640614747
H   0.6990773481  1.5609144048 -0.9190946056
O   0.5253983790  0.9702803194  1.1227668437
C   1.3507371302 -0.5558501511 -0.1943072165
H   0.7786117058 -0.2472297074  1.0620495547
H   1.0682724597 -1.3035181604 -0.9469406232
H   2.3010622131 -0.7181840127  0.3335267585
7
Iter 84  Energy = -29.6073276317
C   0.8780768344  0.7839557816 -0.1640742742
H   0.6991550068  1.5609799749 -0.9190639092
O   0.5253381844  0.9702309525  1.1227500976
C   1.3507471685 -0.5558506707 -0.1943150894
H   0.7785933564 -0.2472462184  1.0620334460
H   1.0682128756 -1.3035905383 -0.9468472017
H   2.3011182026 -0.7181126357  0.3334561677
7
Iter 85  Energy = -29.6073279595
C   0.8780711573  0.7839576696 -0.1640869815
H   0.6992322333  1.5610449737 -0.9190334256
O   0.5252780800  0.9701820593  1.1227334085
C   1.3507570996 -0.5558513085 -0.1943228259
H   0.7785753971 -0.2472624993  1.0620176791
H   1.0681537866 -1.3036621978 -0.9467545274
H   2.3011738748 -0.7180420517  0.3333859090
7
Iter 86  Energy = -29.6073283321
C   0.8780654190  0.7839594295 -0.1640995139
H   0.6993090117  1.5611094839 -0.9190032261
O   0.5252180810  0.9701336231  1.1227167596
C   1.3507669369 -0.5558518933 -0.1943303500
H   0.7785578084 -0.2472785507  1.0620022503
H   1.0680951661 -1.3037332040 -0.9466626450
H   2.3012292061 -0.7179722435  0.3333159598
7
Iter 87  Energy = -29.6073285854
C   0.8780595806  0.7839612251 -0.1641119742
H   0.6993853549  1.5611734423 -0.9189732291
O   0.5251581892  0.9700856332  1.1227001708
C   1.3507767092 -0.5558526012 -0.1943377460
H   0.7785405744 -0.2472943599  1.0619871772
H   1.0680370171 -1.3038035035 -0.9465715039
H   2.3012842034 -0.7179031909  0.3332463394
7
Iter 88  Energy = -29.6073289281
C   0.8780536954  0.7839628443 -0.1641242319
H   0.6994612492  1.5612369285 -0.9189435162
O   0.5250984197  0.9700380722  1.1226836054
C   1.3507863518 -0.5558532271 -0.1943449692
H   0.7785236948 -0.2473099172  1.0619724253
H   1.0679793300 -1.3038731565 -0.9464811295
H   2.3013388880 -0.7178348986  0.3331770506
7
Iter 89  Energy = -29.6073292261
C   0.8780477162  0.7839645224 -0.1641364285
H   0.6995367168  1.5612998587 -0.9189140042
O   0.5250387618  0.9699909676  1.1226671106
C   1.3507958979 -0.5558539493 -0.1943520641
H   0.7785071615 -0.2473252787  1.0619580038
H   1.0679221051 -1.3039421311 -0.9463914826
H   2.3013932697 -0.7177673437  0.3331081001
7
Iter 90  Energy = -29.6073295391
C   0.8780417082  0.7839660495 -0.1641484763
H   0.6996117351  1.5613623200 -0.9188847601
O   0.5249792275  0.9699442932  1.1226506742
C   1.3508053371 -0.5558546021 -0.1943589750
H   0.7784909627 -0.2473404175  1.0619438825
H   1.0678653241 -1.3040104749 -0.9463025846
H   2.3014473341 -0.7177005222  0.3330394752
7
Iter 91  Energy = -29.6073297924
C   0.8780356235  0.7839675705 -0.1641604449
H   0.6996863238  1.5614242568 -0.9188557407
O   0.5249198175  0.9698980317  1.1226343265
C   1.3508147304 -0.5558553506 -0.1943657882
H   0.7784750754 -0.2473553036  1.0619301133
H   1.0678089985 -1.3040781458 -0.9462144028
H   2.3015010601 -0.7176344137  0.3329711731
7
Iter 92  Energy = -29.6073301202
C   0.8780294839  0.7839690225 -0.1641722459
H   0.6997604754  1.5614856980 -0.9188269608
O   0.5248605628  0.9698521618  1.1226179746
C   1.3508240055 -0.5558560596 -0.1943724381
H   0.7784595024 -0.2473699703  1.0619166554
H   1.0677531084 -1.3041451943 -0.9461269562
H   2.3015544902 -0.7175690130  0.3329032071
7
Iter 93  Energy = -29.6073304033
C   0.8780232722  0.7839704689 -0.1641839314
H   0.6998342027  1.5615466197 -0.9187984111
O   0.5248014476  0.9698067129  1.1226016922
C   1.3508331631 -0.5558568249 -0.1943789620
H   0.7784442527 -0.2473844468  1.0619034538
H   1.0676976643 -1.3042115743 -0.9460401866
H   2.3016076262 -0.7175043103  0.3328355797
7
Iter 94  Energy = -29.6073307014
C   0.8780170263  0.7839718553 -0.1641955437
H   0.6999074943  1.5616070572 -0.9187700918
O   0.5247424927  0.9697615535  1.1225854904
C   1.3508422764 -0.5558576034 -0.1943853827
H   0.7784292646 -0.2473985779  1.0618906345
H   1.0676426573 -1.3042773475 -0.9459541484
H   2.3016604172 -0.7174402926  0.3327682770
7
Iter 95  Energy = -29.6073309845
C   0.8780107338  0.7839731654 -0.1642069984
H   0.6999803582  1.5616670086 -0.9187420105
O   0.5246836800  0.9697168191  1.1225693362
C   1.3508513067 -0.5558583521 -0.1943916483
H   0.7784145764 -0.2474125266  1.0618780637
H   1.0675880581 -1.3043425180 -0.9458688107
H   2.3017129155 -0.7173769512  0.3327013041
7
Iter 96  Energy = -29.6073312676
C   0.8780043795  0.7839744884 -0.1642183557
H   0.7000528028  1.5617264410 -0.9187141420
O   0.5246250201  0.9696724648  1.1225532478
C   1.3508602576 -0.5558591273 -0.1943977824
H   0.7784001759 -0.2474262737  1.0618657580
H   1.0675338763 -1.3044070710 -0.9457841520
H   2.3017651165 -0.7173142788  0.3326346640
7
Iter 1  Energy = -29.6072649425
C   0.8773857473  0.7831655563 -0.1629102040
H   0.6911033834  1.5541788409 -0.9219902705
O   0.5295219440  0.9762798995  1.1235480517
C   1.3489718597 -0.5563722284 -0.1924022239
H   0.7827719029 -0.2433089327  1.0661333920
H   1.0762399517 -1.2945586426 -0.9580997484
H   2.2952468349 -0.7290178385  0.3396602557
7
Iter 2  Energy = -29.6072670883
C   0.8774419032  0.7831465747 -0.1628623818
H   0.6912244654  1.5542808535 -0.9219945565
O   0.5294788858  0.9762566031  1.1235768406
C   1.3490372963 -0.5563094486 -0.1924637289
H   0.7826716052 -0.2435015905  1.0659939889
H   1.0760489806 -1.2947408714 -0.9579095414
H   2.2953384877 -0.7287654650  0.3395986308
7
Iter 3  Energy = -29.6072686976
C   0.8774676050  0.7832397012 -0.1628865732
H   0.6913547238  1.5543430322 -0.9219615687
O   0.5294378382  0.9762066284  1.1236233018
C   1.3491170352 -0.5563404578 -0.1925484890
H   0.7825668561 -0.2436685217  1.0658819285
H   1.0758714802 -1.2948977848 -0.9577072123
H   2.2954260854 -0.7285159420  0.3395378656
7
Iter 4  Energy = -29.6072702920
C   0.8775218853  0.7832094095 -0.1628439967
H   0.6914734349  1.5544467946 -0.9219586760
O   0.5294050588  0.9761412116  1.1236341320
C   1.3491673488 -0.5562609412 -0.1926018899
H   0.7824632338 -0.2438134584  1.0657626051
H   1.0756926782 -1.2950788445 -0.9575270401
H   2.2955179839 -0.7282775153  0.3394741172
7
Iter 5  Energy = -29.6072718418
C   0.8775449502  0.7832938596 -0.1628689540
H   0.6916011114  1.5545120354 -0.9219210025
O   0.5293691806  0.9760700415  1.1236653468
C   1.3492323183 -0.5562817553 -0.1926733217
H   0.7823615208 -0.2439551108  1.0656563928
H   1.0755253911 -1.2952317826 -0.9573299785
H   2.2956071510 -0.7280406308  0.3394107671
7
Iter 6  Energy = -29.6072732872
C   0.8775914353  0.7832769827 -0.1628394102
H   0.6917190824  1.5546119623 -0.9219085629
O   0.5293385350  0.9759904948  1.1236691800
C   1.3492743687 -0.5562147012 -0.1927190962
H   0.7822619259 -0.2440817584  1.0655429668
H   1.0753572142 -1.2954033846 -0.9571503603
H   2.2956990620 -0.7278129391  0.3393445329
7
Iter 7  Energy = -29.6072747624
C   0.8776135034  0.7833499343 -0.1628641841
H   0.6918438760  1.5546819519 -0.9218688854
O   0.5293046698  0.9759068594  1.1236905432
C   1.3493290601 -0.5562284066 -0.1927804754
H   0.7821638637 -0.2442045895  1.0654414573
H   1.0751986646 -1.2955521433 -0.9569575720
H   2.2957879858 -0.7275869497  0.3392783656
7
Iter 8  Energy = -29.6072761631
C   0.8776544458  0.7833406878 -0.1628451537
H   0.6919606562  1.5547802472 -0.9218498076
O   0.5292742402  0.9758182729  1.1236905986
C   1.3493658656 -0.5561721697 -0.1928213873
H   0.7820680650 -0.2443160506  1.0653342783
H   1.0750396865 -1.2957155207 -0.9567789345
H   2.2958786640 -0.7273688103  0.3392096548
7
Iter 9  Energy = -29.6072775489
C   0.8776759187  0.7834026146 -0.1628697177
H   0.6920826969  1.5548548906 -0.9218091343
O   0.5292407278  0.9757271001  1.1237051642
C   1.3494132057 -0.5561809680 -0.1928752708
H   0.7819737541 -0.2444240846  1.0652374273
H   1.0748887773 -1.2958603418 -0.9565900912
H   2.2959665425 -0.7271525559  0.3391408704
7
Iter 10  Energy = -29.6072788900
C   0.8777124584  0.7833981945 -0.1628591373
H   0.6921981450  1.5549524476 -0.9217851226
O   0.5292094976  0.9756329296  1.1237028924
C   1.3494465084 -0.5561339489 -0.1929127854
H   0.7818816693 -0.2445231387  1.0651364234
H   1.0747378189 -1.2960167005 -0.9564129343
H   2.2960555252 -0.7269431280  0.3390699123
7
Iter 11  Energy = -29.6072802013
C   0.8777333409  0.7834504525 -0.1628834956
H   0.6923176498  1.5550311978 -0.9217438989
O   0.5291754276  0.9755372471  1.1237124001
C   1.3494883860 -0.5561392383 -0.1929609269
H   0.7817910687 -0.2446192149  1.0650442941
H   1.0745936647 -1.2961580179 -0.9562279658
H   2.2961420851 -0.7267357705  0.3389988403
7
Iter 12  Energy = -29.6072814977
C   0.8777661510  0.7834492676 -0.1628796896
H   0.6924317359  1.5551283980 -0.9217160899
O   0.5291428420  0.9754398748  1.1237084674
C   1.3495191560 -0.5560999549 -0.1929959039
H   0.7817026235 -0.2447081236  1.0649492421
H   1.0744497561 -1.2963083644 -0.9560527265
H   2.2962293578 -0.7265344416  0.3389259472
7
Iter 13  Energy = -29.6072826451
C   0.8777862651  0.7834933603 -0.1629039152
H   0.6925489590  1.5552105073 -0.9216744799
O   0.5291076758  0.9753418000  1.1237140113
C   1.3495569297 -0.5561027140 -0.1930394581
H   0.7816156598 -0.2447944810  1.0648618009
H   1.0743115994 -1.2964464900 -0.9558716111
H   2.2963145333 -0.7263353259  0.3388528963
7
Iter 14  Energy = -29.6072838372
C   0.8778158145  0.7834943681 -0.1629054523
H   0.6926617164  1.5553074468 -0.9216436639
O   0.5290734348  0.9752428218  1.1237087301
C   1.3495858285 -0.5560697452 -0.1930725377
H   0.7815307385 -0.2448749035  1.0647724758
H   1.0741739355 -1.2965917417 -0.9556986691
H   2.2964001542 -0.7261415885  0.3387783626
7
Iter 15  Energy = -29.6072850889
C   0.8778350062  0.7835316685 -0.1629295261
H   0.6927768847  1.5553922441 -0.9216017879
O   0.5290368775  0.9751436957  1.1237110589
C   1.3496203812 -0.5560706415 -0.1931124738
H   0.7814473195 -0.2449531582  1.0646896523
H   1.0740411793 -1.2967269950 -0.9555213459
H   2.2964839746 -0.7259501561  0.3387036698
7
Iter 16  Energy = -29.6072862363
C   0.8778616236  0.7835342656 -0.1629352805
H   0.6928883461  1.5554889493 -0.9215686037
O   0.5290008241  0.9750443158  1.1237046156
C   1.3496477991 -0.5560429314 -0.1931439684
H   0.7813658689 -0.2450265659  1.0646056495
H   1.0739091045 -1.2968678113 -0.9553509242
H   2.2965680564 -0.7257635644  0.3386277605
7
Iter 17  Energy = -29.6072873688
C   0.8778797664  0.7835659592 -0.1629590882
H   0.6930016301  1.5555758561 -0.9215265306
O   0.5289626969  0.9749452124  1.1237042020
C   1.3496797443 -0.5560424790 -0.1931809266
H   0.7812859244 -0.2450981006  1.0645272364
H   1.0737812539 -1.2970004495 -0.9551773474
H   2.2966506071 -0.7255793411  0.3385517022
7
Iter 18  Energy = -29.6072884566
C   0.8779037193  0.7835697216 -0.1629681657
H   0.6931118359  1.5556722680 -0.9214914437
O   0.5289247776  0.9748462484  1.1236966991
C   1.3497058847 -0.5560190767 -0.1932110663
H   0.7812078577 -0.2451655812  1.0644482063
H   1.0736542350 -1.2971374061 -0.9550096521
H   2.2967333130 -0.7253995167  0.3384746680
7
Iter 19  Energy = -29.6072894996
C   0.8779207091  0.7835968437 -0.1629917238
H   0.6932234024  1.5557607427 -0.9214492308
O   0.5288849973  0.9747478610  1.1236939994
C   1.3497356081 -0.5560176390 -0.1932455194
H   0.7811313051 -0.2452314411  1.0643739722
H   1.0735308780 -1.2972676294 -0.9548397677
H   2.2968147223 -0.7252220806  0.3383975159
7
Iter 20  Energy = -29.6072905129
C   0.8779422213  0.7836014455 -0.1630033909
H   0.6933323899  1.5558568110 -0.9214126479
O   0.5288452047  0.9746499153  1.1236855428
C   1.3497606533 -0.5559978295 -0.1932744384
H   0.7810565437 -0.2452938809  1.0642995539
H   1.0734084607 -1.2974011509 -0.9546749311
H   2.2968961488 -0.7250486530  0.3383195568
7
Iter 21  Energy = -29.6072914666
C   0.8779579869  0.7836248016 -0.1630266287
H   0.6934423645  1.5559464329 -0.9213703502
O   0.5288037551  0.9745527423  1.1236808537
C   1.3497885363 -0.5559957511 -0.1933067435
H   0.7809832792 -0.2453548867  1.0642292564
H   1.0732892529 -1.2975290710 -0.9545086312
H   2.2969764477 -0.7248776099  0.3382414885
7
Iter 22  Energy = -29.6072925395
C   0.8779772530  0.7836299993 -0.1630402932
H   0.6935501701  1.5560420773 -0.9213325884
O   0.5287621392  0.9744561969  1.1236714882
C   1.3498126009 -0.5559788884 -0.1933345053
H   0.7809117240 -0.2454129832  1.0641591044
H   1.0731710472 -1.2976594976 -0.9543467334
H   2.2970566881 -0.7247102468  0.3381627743
7
Iter 23  Energy = -29.6072934634
C   0.8779917608  0.7836502645 -0.1630632118
H   0.6936586674  1.5561324526 -0.9212902458
O   0.5287190358  0.9743605546  1.1236650999
C   1.3498388804 -0.5559763594 -0.1933649512
H   0.7808416366 -0.2454697637  1.0640925371
H   1.0730556786 -1.2977852450 -0.9541839696
H   2.2971359620 -0.7245452467  0.3380839875
7
Iter 24  Energy = -29.6072944319
C   0.8780089561  0.7836558866 -0.1630783734
H   0.6937653164  1.5562276146 -0.9212516047
O   0.5286756555  0.9742656986  1.1236549051
C   1.3498620356 -0.5559620194 -0.1933916429
H   0.7807732018 -0.2455240985  1.0640263004
H   1.0729413718 -1.2979127935 -0.9540250026
H   2.2972150848 -0.7243836311  0.3380046640
7
Iter 25  Energy = -29.6072953111
C   0.8780221929  0.7836735975 -0.1631009640
H   0.6938724222  1.5563184434 -0.9212092799
O   0.5286309413  0.9741718334  1.1236470532
C   1.3498869287 -0.5559592332 -0.1934204233
H   0.7807061906 -0.2455772269  1.0639632111
H   1.0728295800 -1.2980364114 -0.9538656480
H   2.2972933658 -0.7242243466  0.3379252952
7
Iter 26  Energy = -29.6072963095
C   0.8780374809  0.7836794664 -0.1631172525
H   0.6939779365  1.5564130452 -0.9211699452
O   0.5285858750  0.9740788543  1.1236360572
C   1.3499092538 -0.5559469605 -0.1934461085
H   0.7806407519 -0.2456282298  1.0639006465
H   1.0727188706 -1.2981613203 -0.9537096611
H   2.2973714526 -0.7240681990  0.3378455079
7
Iter 27  Energy = -29.6072971588
C   0.8780494781  0.7836950279 -0.1631394981
H   0.6940837226  1.5565040723 -0.9211276926
O   0.5285396010  0.9739869283  1.1236269382
C   1.3499328960 -0.5559440391 -0.1934734039
H   0.7805767098 -0.2456781458  1.0638408342
H   1.0726104233 -1.2982828611 -0.9535536264
H   2.2974487908 -0.7239143273  0.3377656922
7
Iter 28  Energy = -29.6072980678
C   0.8780629951  0.7837010219 -0.1631566108
H   0.6941881383  1.5565980272 -0.9210878678
O   0.5284929358  0.9738959415  1.1236152212
C   1.3499544463 -0.5559334984 -0.1934981164
H   0.7805141680 -0.2457262130  1.0637816552
H   1.0725030695 -1.2984052494 -0.9534005725
H   2.2975258688 -0.7237633745  0.3376855351
7
Iter 29  Energy = -29.6072988278
C   0.8780737463  0.7837148295 -0.1631784950
H   0.6942926779  1.5566889986 -0.9210457180
O   0.5284451923  0.9738060046  1.1236049700
C   1.3499769772 -0.5559305651 -0.1935240622
H   0.7804529849 -0.2457732626  1.0637248969
H   1.0723977662 -1.2985247145 -0.9532477256
H   2.2976022778 -0.7236146348  0.3376053764
7
Iter 30  Energy = -29.6072996771
C   0.8780856471  0.7837208300 -0.1631962099
H   0.6943960043  1.5567822663 -0.9210055715
O   0.5283970205  0.9737170530  1.1235926109
C   1.3499977439 -0.5559214846 -0.1935478358
H   0.7803932360 -0.2458186882  1.0636688468
H   1.0722935501 -1.2986446989 -0.9530975653
H   2.2976784210 -0.7234686229  0.3375249697
7
Iter 1  Energy = -29.6072649425
C   0.8774306196  0.7831284371 -0.1629171800
H   0.6910723754  1.5541998385 -0.9220001981
O   0.5295323761  0.9761919180  1.1235470383
C   1.3490037349 -0.5563157537 -0.1924564135
H   0.7827567387 -0.2432435964  1.0661447051
H   1.0762047277 -1.2945675573 -0.9580839230
H   2.2952410505 -0.7290266325  0.3397052237
7
Iter 2  Energy = -29.6072673565
C   0.8774561173  0.7832254665 -0.1629366459
H   0.6912041285  1.5542625213 -0.9219716494
O   0.5294848517  0.9761714151  1.1236022668
C   1.3490945374 -0.5563515821 -0.1925350870
H   0.7826563292 -0.2434435202  1.0660165475
H   1.0760198210 -1.2947278926 -0.9578787106
H   2.2953258373 -0.7287697545  0.3396425298
7
Iter 3  Energy = -29.6072689360
C   0.8775169306  0.7831749096 -0.1628776196
H   0.6913223285  1.5543741539 -0.9219787027
O   0.5294495743  0.9761202204  1.1236150394
C   1.3491484809 -0.5562574435 -0.1925884856
H   0.7825523583 -0.2436031489  1.0658900794
H   1.0758348652 -1.2949163410 -0.9576995206
H   2.2954170841 -0.7285256973  0.3395784611
7
Iter 4  Energy = -29.6072705603
C   0.8775373110  0.7832730868 -0.1629039394
H   0.6914526272  1.5544350708 -0.9219409092
O   0.5294105477  0.9760654524  1.1236533468
C   1.3492196689 -0.5562906936 -0.1926634215
H   0.7824513958 -0.2437643421  1.0657771859
H   1.0756638562 -1.2950694919 -0.9574983558
H   2.2955062151 -0.7282824289  0.3395153454
7
Iter 5  Energy = -29.6072719759
C   0.8775877847  0.7832434691 -0.1628617173
H   0.6915709676  1.5545392591 -0.9219349602
O   0.5293788530  0.9759978167  1.1236573297
C   1.3492623045 -0.5562116528 -0.1927074571
H   0.7823517244 -0.2439051443  1.0656564388
H   1.0754909284 -1.2952472985 -0.9573194753
H   2.2955990598 -0.7280497955  0.3394490953
7
Iter 6  Energy = -29.6072734511
C   0.8776071847  0.7833294654 -0.1628882472
H   0.6916983372  1.5546047215 -0.9218943499
O   0.5293433786  0.9759253109  1.1236836314
C   1.3493211681 -0.5562351845 -0.1927715478
H   0.7822536236 -0.2440428214  1.0655497887
H   1.0753293160 -1.2953966030 -0.9571233599
H   2.2956886139 -0.7278182361  0.3393833379
7
Iter 7  Energy = -29.6072749412
C   0.8776508928  0.7833115721 -0.1628591896
H   0.6918157968  1.5547057311 -0.9218799629
O   0.5293127185  0.9758455252  1.1236831640
C   1.3493577117 -0.5561693166 -0.1928104341
H   0.7821575306 -0.2441660687  1.0654360066
H   1.0751663438 -1.2955651677 -0.9569450279
H   2.2957806285 -0.7275956234  0.3393146991
7
Iter 8  Energy = -29.6072762674
C   0.8776701016  0.7833846988 -0.1628853155
H   0.6919402001  1.5547763537 -0.9218382301
O   0.5292784641  0.9757622049  1.1237013491
C   1.3494078967 -0.5561857746 -0.1928663081
H   0.7820627353 -0.2442857592  1.0653347899
H   1.0750128181 -1.2957106902 -0.9567533106
H   2.2958694077 -0.7273743823  0.3392462801
7
Iter 9  Energy = -29.6072776681
C   0.8777087718  0.7833739120 -0.1628667397
H   0.6920564596  1.5548758266 -0.9218177829
O   0.5292474701  0.9756744768  1.1236984443
C   1.3494405149 -0.5561309753 -0.1929019671
H   0.7819701032 -0.2443944104  1.0652279831
H   1.0748584950 -1.2958713620 -0.9565760713
H   2.2959598096 -0.7271608171  0.3391753875
7
Iter 10  Energy = -29.6072789645
C   0.8777278333  0.7834354862 -0.1628924480
H   0.6921780989  1.5549511866 -0.9217755813
O   0.5292131792  0.9755844531  1.1237107865
C   1.3494843841 -0.5561423571 -0.1929515561
H   0.7818787614 -0.2444998304  1.0651319929
H   1.0747120709 -1.2960133991 -0.9563885156
H   2.2960472962 -0.7269488891  0.3391045761
7
Iter 11  Energy = -29.6072802907
C   0.8777623845  0.7834294551 -0.1628822533
H   0.6922930620  1.5550498067 -0.9217505361
O   0.5291810995  0.9754917574  1.1237063134
C   1.3495143523 -0.5560967697 -0.1929849319
H   0.7817895441 -0.2445965205  1.0650318960
H   1.0745652855 -1.2961674065 -0.9562129216
H   2.2961358967 -0.7267436719  0.3390316876
7
Iter 12  Energy = -29.6072815424
C   0.8777811003  0.7834811743 -0.1629075260
H   0.6924121985  1.5551291680 -0.9217081149
O   0.5291460623  0.9753977388  1.1237140997
C   1.3495535093 -0.5561043657 -0.1930296006
H   0.7817016363 -0.2446904296  1.0649410581
H   1.0744251434 -1.2963063075 -0.9560294505
H   2.2962219750 -0.7265403292  0.3389587892
7
Iter 13  Energy = -29.6072827643
C   0.8778121099  0.7834783913 -0.1629039552
H   0.6925258512  1.5552272518 -0.9216795063
O   0.5291125073  0.9753020846  1.1237084178
C   1.3495816437 -0.5560663634 -0.1930612874
H   0.7816157646 -0.2447771778  1.0648473529
H   1.0742850004 -1.2964546367 -0.9558559303
H   2.2963087480 -0.7263429009  0.3388841630
7
Iter 14  Energy = -29.6072839266
C   0.8778302769  0.7835218430 -0.1629289538
H   0.6926427484  1.5553098397 -0.9216369468
O   0.5290762915  0.9752058209  1.1237126516
C   1.3496172095 -0.5560710757 -0.1931020292
H   0.7815312525 -0.2448615524  1.0647615036
H   1.0741504698 -1.2965907031 -0.9556764640
H   2.2963933768 -0.7261475230  0.3388094923
7
Iter 15  Energy = -29.6072851038
C   0.8778581668  0.7835214208 -0.1629306524
H   0.6927551123  1.5554074698 -0.9216054927
O   0.5290410106  0.9751087825  1.1237059353
C   1.3496438892 -0.5560392654 -0.1931324287
H   0.7814487065 -0.2449401427  1.0646737645
H   1.0740162326 -1.2967341754 -0.9555053102
H   2.2964785074 -0.7259574406  0.3387334384
7
Iter 16  Energy = -29.6072862959
C   0.8778755699  0.7835580742 -0.1629551782
H   0.6928699648  1.5554926312 -0.9215628543
O   0.5290033812  0.9750116675  1.1237070689
C   1.3496765084 -0.5560418601 -0.1931700478
H   0.7813675759 -0.2450167239  1.0645926517
H   1.0738867881 -1.2968676197 -0.9553297201
H   2.2965618373 -0.7257695206  0.3386573355
7
Iter 17  Energy = -29.6072874135
C   0.8779006071  0.7835594675 -0.1629610220
H   0.6929810788  1.5555898196 -0.9215291384
O   0.5289662791  0.9749143074  1.1236994205
C   1.3497020488 -0.5560152321 -0.1931992913
H   0.7812883240 -0.2450884987  1.0645103663
H   1.0737578541 -1.2970068586 -0.9551611581
H   2.2966454344 -0.7255863582  0.3385800778
7
Iter 18  Energy = -29.6072885013
C   0.8779170864  0.7835905502 -0.1629851814
H   0.6930940795  1.5556769446 -0.9214864483
O   0.5289270863  0.9748172451  1.1236980278
C   1.3497323145 -0.5560162334 -0.1932342804
H   0.7812105025 -0.2451585102  1.0644337613
H   1.0736330387 -1.2971379053 -0.9549894055
H   2.2967275186 -0.7254054420  0.3385027818
7
Iter 19  Energy = -29.6072895145
C   0.8779395409  0.7835932729 -0.1629942811
H   0.6932039712  1.5557736779 -0.9214509381
O   0.5288881233  0.9747203369  1.1236895334
C   1.3497568139 -0.5559938320 -0.1932624924
H   0.7811344960 -0.2452245213  1.0643564811
H   1.0735089053 -1.2972734456 -0.9548236193
H   2.2968097763 -0.7252288410  0.3384245726
7
Iter 20  Energy = -29.6072905874
C   0.8779549960  0.7836197989 -0.1630180417
H   0.6933152663  1.5558622750 -0.9214082497
O   0.5288473073  0.9746239708  1.1236859833
C   1.3497850580 -0.5559936612 -0.1932952723
H   0.7810599151 -0.2452889795  1.0642841099
H   1.0733883551 -1.2974022354 -0.9546555936
H   2.2968907284 -0.7250545201  0.3383463211
7
Iter 21  Energy = -29.6072915858
C   0.8779751051  0.7836234885 -0.1630296696
H   0.6934239601  1.5559585233 -0.9213713308
O   0.5288065185  0.9745280053  1.1236766460
C   1.3498086882 -0.5559747352 -0.1933225161
H   0.7809870600 -0.2453500401  1.0642115159
H   1.0732686090 -1.2975344638 -0.9544926934
H   2.2969716856 -0.7248841302  0.3382673044
7
Iter 22  Energy = -29.6072925395
C   0.8779894322  0.7836462973 -0.1630530222
H   0.6935336808  1.5560481430 -0.9213286464
O   0.5287640721  0.9744328061  1.1236712350
C   1.3498352749 -0.5559737842 -0.1933533656
H   0.7809156364 -0.2454097160  1.0641430821
H   1.0731520010 -1.2976610723 -0.9543282862
H   2.2970515292 -0.7247160263  0.3381882581
7
Iter 23  Energy = -29.6072935528
C   0.8780073728  0.7836506985 -0.1630665593
H   0.6936412076  1.5561438399 -0.9212906330
O   0.5287215062  0.9743382107  1.1236610924
C   1.3498580285 -0.5559577486 -0.1933796957
H   0.7808458747 -0.2454665463  1.0640747225
H   1.0730362897 -1.2977902718 -0.9541682930
H   2.2971313470 -0.7245515354  0.3381086213
7
Iter 24  Energy = -29.6072944617
C   0.8780205442  0.7836704511 -0.1630895358
H   0.6937494588  1.5562341247 -0.9212480122
O   0.5286774463  0.9742444987  1.1236541039
C   1.3498831285 -0.5559562276 -0.1934088421
H   0.7807775248 -0.2455221182  1.0640099714
H   1.0729233462 -1.2979147650 -0.9540073873
H   2.2972101781 -0.7243893171  0.3380289576
7
Iter 25  Energy = -29.6072953707
C   0.8780365041  0.7836753319 -0.1631045831
H   0.6938558455  1.5563292228 -0.9212091701
O   0.5286331464  0.9741515542  1.1236432658
C   1.3499051308 -0.5559425921 -0.1934342513
H   0.7807107678 -0.2455752738  1.0639455272
H   1.0728113506 -1.2980411784 -0.9538503449
H   2.2972888818 -0.7242304180  0.3379488134
7
Iter 26  Energy = -29.6072963095
C   0.8780485028  0.7836925355 -0.1631271592
H   0.6939627136  1.5564198775 -0.9211666344
O   0.5285875317  0.9740595535  1.1236348670
C   1.3499289291 -0.5559406784 -0.1934618713
H   0.7806453931 -0.2456272788  1.0638842216
H   1.0727018206 -1.2981636036 -0.9536928362
H   2.2973667358 -0.7240737597  0.3378686687
7
Iter 27  Energy = -29.6072972333
C   0.8780626323  0.7836977274 -0.1631432916
H   0.6940679757  1.5565143347 -0.9211271875
O   0.5285415998  0.9739683986  1.1236233373
C   1.3499501721 -0.5559290849 -0.1934864265
H   0.7805815409 -0.2456771707  1.0638233761
H   1.0725932845 -1.2982873811 -0.9535387079
H   2.2974444217 -0.7239201780  0.3377881566
7
Iter 28  Energy = -29.6072980380
C   0.8780734475  0.7837128750 -0.1631654623
H   0.6941735311  1.5566050946 -0.9210847795
O   0.5284944910  0.9738782374  1.1236137226
C   1.3499728392 -0.5559269771 -0.1935126833
H   0.7805190353 -0.2457260107  1.0637652991
H   1.0724869593 -1.2984077752 -0.9533844854
H   2.2975213239 -0.7237687969  0.3377076460
7
Iter 29  Energy = -29.6072988874
C   0.8780858854  0.7837182537 -0.1631824213
H   0.6942776951  1.5566988314 -0.9210448942
O   0.5284470164  0.9737889824  1.1236015514
C   1.3499934047 -0.5559170368 -0.1935363642
H   0.7804579839 -0.2457730240  1.0637078097
H   1.0723816444 -1.2985290809 -0.9532332678
H   2.2975979975 -0.7236202772  0.3376268429
7
Iter 30  Energy = -29.6072997516
C   0.8780955452  0.7837316243 -0.1632041836
H   0.6943819945  1.5567895094 -0.9210026784
O   0.5283984823  0.9737007620  1.1235908961
C   1.3500150542 -0.5559148037 -0.1935613077
H   0.7803982550 -0.2458190755  1.0636526975
H   1.0722783138 -1.2986474687 -0.9530822325
H   2.2976739824 -0.7234738995  0.3375460643
7
Iter 31  Energy = -29.6073005861
C   0.8781064203  0.7837370897 -0.1632217025
H   0.6944850753  1.5568824738 -0.9209625023
O   0.5283495559  0.9736134855  1.1235781225
C   1.3500349345 -0.5559063018 -0.1935841402
H   0.7803399167 -0.2458635167  1.0635982618
H   1.0721760166 -1.2987663918 -0.9529338609
H   2.2977497080 -0.7233301899  0.3374650775
7
Iter 32  Energy = -29.6073013461
C   0.8781149480  0.7837490400 -0.1632430864
H   0.6945881733  1.5569728476 -0.9209204682
O   0.5282996726  0.9735273215  1.1235665470
C   1.3500556110 -0.5559040866 -0.1936078932
H   0.7802828826 -0.2459071612  1.0635458967
H   1.0720755325 -1.2988827550 -0.9527858701
H   2.2978248069 -0.7231885573  0.3373841287
7
Iter 33  Energy = -29.6073021209
C   0.8781243755  0.7837545018 -0.1632609455
H   0.6946901815  1.5570650153 -0.9208801663
O   0.5282493951  0.9734421086  1.1235532066
C   1.3500748176 -0.5558967783 -0.1936298202
H   0.7802271760 -0.2459493897  1.0634942512
H   1.0719760674 -1.2989993861 -0.9526403010
H   2.2978996139 -0.7230494226  0.3373030294
7
Iter 34  Energy = -29.6073028511
C   0.8781318102  0.7837652131 -0.1632819177
H   0.6947921099  1.5571549732 -0.9208383883
O   0.5281982689  0.9733579228  1.1235408151
C   1.3500946593 -0.5558946477 -0.1936525037
H   0.7801726894 -0.2459907678  1.0634445362
H   1.0718782668 -1.2991137445 -0.9524952786
H   2.2979738217 -0.7229122993  0.3372219906
7
Iter 35  Energy = -29.6073036408
C   0.8781398925  0.7837706410 -0.1633000119
H   0.6948930704  1.5572462567 -0.9207980353
O   0.5281467529  0.9732746840  1.1235269483
C   1.3501132245 -0.5558883428 -0.1936736193
H   0.7801194733 -0.2460309014  1.0633955796
H   1.0717814735 -1.2992281589 -0.9523524707
H   2.2980477395 -0.7227775288  0.3371408647
7
Iter 36  Energy = -29.6073043710
C   0.8781462754  0.7837803089 -0.1633205887
H   0.6949938706  1.5573356525 -0.9207565302
O   0.5280944760  0.9731924697  1.1235138283
C   1.3501322304 -0.5558862832 -0.1936952805
H   0.7800674458 -0.2460702567  1.0633483194
H   1.0716862136 -1.2993405363 -0.9522103220
H   2.2981211150 -0.7226447052  0.3370598287
7
Iter 37  Energy = -29.6073051161
C   0.8781531108  0.7837856548 -0.1633387911
H   0.6950937843  1.5574260390 -0.9207162261
O   0.5280418050  0.9731112117  1.1234995091
C   1.3501502253 -0.5558809178 -0.1937155858
H   0.7800166292 -0.2461084731  1.0633018261
H   1.0715919422 -1.2994527807 -0.9520702055
H   2.2981941295 -0.7225140848  0.3369787293
7
Iter 38  Energy = -29.6073058015
C   0.8781585092  0.7837944145 -0.1633590011
H   0.6951934753  1.5575147779 -0.9206750191
O   0.5279884502  0.9730309425  1.1234857739
C   1.3501685125 -0.5558789885 -0.1937362894
H   0.7799669440 -0.2461459554  1.0632568977
H   1.0714990881 -1.2995631931 -0.9519308481
H   2.2982666467 -0.7223853490  0.3368977420
7
Iter 39  Energy = -29.6073065466
C   0.8781641996  0.7837996326 -0.1633772095
H   0.6952923576  1.5576042114 -0.9206348402
O   0.5279347202  0.9729516434  1.1234710175
C   1.3501858855 -0.5558743732 -0.1937558286
H   0.7799184255 -0.2461824587  1.0632127093
H   1.0714072044 -1.2996733084 -0.9517933415
H   2.2983388325 -0.7222586978  0.3368167492
7
Iter 40  Energy = -29.6073072320
C   0.8781686521  0.7838076006 -0.1633970326
H   0.6953909702  1.5576921957 -0.9205939719
O   0.5278803676  0.9728733238  1.1234567594
C   1.3502035037 -0.5558726033 -0.1937756144
H   0.7798709950 -0.2462182547  1.0631699314
H   1.0713166309 -1.2997817617 -0.9516566840
H   2.2984105057 -0.7221338509  0.3367358690
7
Iter 41  Energy = -29.6073078430
C   0.8781732896  0.7838126359 -0.1634152072
H   0.6954888313  1.5577806510 -0.9205539965
O   0.5278256582  0.9727959206  1.1234416718
C   1.3502203213 -0.5558686256 -0.1937943765
H   0.7798246758 -0.2462531418  1.0631278888
H   1.0712270045 -1.2998898059 -0.9515217491
H   2.2984818442 -0.7220109846  0.3366550250
7
Iter 42  Energy = -29.6073084837
C   0.8781768391  0.7838199426 -0.1634346520
H   0.6955863837  1.5578678070 -0.9205134922
O   0.5277704070  0.9727194543  1.1234269329
C   1.3502373183 -0.5558670234 -0.1938132754
H   0.7797793950 -0.2462873671  1.0630871398
H   1.0711385978 -1.2999963105 -0.9513877035
H   2.2985526839 -0.7218898543  0.3365743066
7
Iter 43  Energy = -29.6073091394
C   0.8781804813  0.7838248420 -0.1634527049
H   0.6956832352  1.5579552364 -0.9204737495
O   0.5277148167  0.9726439028  1.1234114882
C   1.3502536453 -0.5558636462 -0.1938313006
H   0.7797351664 -0.2463207724  1.0630471459
H   1.0710511094 -1.3001023216 -0.9512552771
H   2.2986231706 -0.7217705921  0.3364936537
7
Iter 44  Energy = -29.6073098099
C   0.8781831828  0.7838315448 -0.1634717482
H   0.6957797436  1.5580415061 -0.9204336334
O   0.5276587448  0.9725692569  1.1233963234
C   1.3502700237 -0.5558622003 -0.1938494037
H   0.7796919402 -0.2463535471  1.0630083138
H   1.0709647644 -1.3002069020 -0.9511237693
H   2.2986932254 -0.7216530098  0.3364131727
7
Iter 45  Energy = -29.6073104209
C   0.8781859294  0.7838362188 -0.1634896651
H   0.6958755885  1.5581279020 -0.9203941954
O   0.5276023491  0.9724954796  1.1233806254
C   1.3502858469 -0.5558593064 -0.1938667157
H   0.7796497089 -0.2463855288  1.0629702283
H   1.0708793116 -1.3003109168 -0.9509937913
H   2.2987628905 -0.7215372002  0.3363327689
7
Iter 46  Energy = -29.6073110467
C   0.8781878438  0.7838423894 -0.1635083592
H   0.6959710693  1.5582132254 -0.9203544768
O   0.5275455299  0.9724225711  1.1233651254
C   1.3503016923 -0.5558580144 -0.1938840103
H   0.7796084330 -0.2464169062  1.0629332098
H   1.0707949239 -1.3004136157 -0.9508647805
H   2.2988321335 -0.7214230014  0.3362525449
7
Iter 47  Energy = -29.6073116428
C   0.8781897438  0.7838468698 -0.1635260753
H   0.6960659218  1.5582985336 -0.9203153469
O   0.5274884245  0.9723504976  1.1233491377
C   1.3503170623 -0.5558555516 -0.1939006367
H   0.7795680980 -0.2464475489  1.0628969542
H   1.0707114066 -1.3005156711 -0.9507372036
H   2.2989009685 -0.7213104818  0.3361724234
7
Iter 48  Energy = -29.6073122537
C   0.8781909106  0.7838526008 -0.1635444098
H   0.6961603912  1.5583828585 -0.9202760550
O   0.5274309349  0.9722792778  1.1233333443
C   1.3503324382 -0.5558544650 -0.1939171934
H   0.7795286850 -0.2464776453  1.0628616677
H   1.0706289013 -1.3006164708 -0.9506105828
H   2.2989693643 -0.7211995082  0.3360924819
7
Iter 49  Energy = -29.6073127902
C   0.8781920258  0.7838569022 -0.1635618963
H   0.6962542508  1.5584670941 -0.9202373154
O   0.5273731717  0.9722089193  1.1233171717
C   1.3503473371 -0.5558524230 -0.1939331607
H   0.7794901813 -0.2465071019  1.0628270726
H   1.0705472298 -1.3007165934 -0.9504853241
H   2.2990374287 -0.7210901497  0.3360127042
7
Iter 50  Energy = -29.6073134011
C   0.8781925031  0.7838621824 -0.1635798630
H   0.6963477123  1.5585504109 -0.9201984787
O   0.5273150776  0.9721393612  1.1233011388
C   1.3503622356 -0.5558514961 -0.1939490190
H   0.7794525470 -0.2465360127  1.0627934027
H   1.0704665128 -1.3008155276 -0.9503610351
H   2.2991050358 -0.7209822708  0.3359331067
7
Iter 51  Energy = -29.6073139226
C   0.8781929001  0.7838662806 -0.1635970999
H   0.6964405854  1.5586335501 -0.9201601280
O   0.5272567530  0.9720705883  1.1232847495
C   1.3503767151 -0.5558497663 -0.1939643273
H   0.7794157685 -0.2465643051  1.0627604291
H   1.0703866006 -1.3009137677 -0.9502380583
H   2.2991723011 -0.7208759324  0.3358536889
7
Iter 52  Energy = -29.6073144889
C   0.8781927317  0.7838711788 -0.1636147109
H   0.6965330468  1.5587158223 -0.9201217460
O   0.5271981332  0.9720026225  1.1232684726
C   1.3503911553 -0.5558489690 -0.1939794859
H   0.7793798337 -0.2465921260  1.0627282938
H   1.0703075894 -1.3010108606 -0.9501160423
H   2.2992391344 -0.7207710208  0.3357744716
7
Iter 53  Energy = -29.6073149806
C   0.8781924686  0.7838750965 -0.1636317010
H   0.6966249474  1.5587978284 -0.9200838143
O   0.5271392985  0.9719354047  1.1232519363
C   1.3504052304 -0.5558475254 -0.1939941615
H   0.7793447116 -0.2466193451  1.0626968297
H   1.0702293563 -1.3011072403 -0.9499952833
H   2.2993056111 -0.7206675707  0.3356954466
7
Iter 54  Energy = -29.6073154873
C   0.8781917057  0.7838796556 -0.1636489762
H   0.6967164219  1.5588790231 -0.9200458902
O   0.5270802059  0.9718689743  1.1232354963
C   1.3504192462 -0.5558468853 -0.1940086997
H   0.7793103867 -0.2466461033  1.0626661612
H   1.0701519864 -1.3012025224 -0.9498754775
H   2.2993716716 -0.7205654938  0.3356166391
7
Iter 55  Energy = -29.6073160535
C   0.8781908162  0.7838834049 -0.1636656765
H   0.6968073464  1.5589599139 -0.9200083999
O   0.5270209411  0.9718032688  1.1232187997
C   1.3504329277 -0.5558457334 -0.1940227815
H   0.7792768447 -0.2466723304  1.0626361277
H   1.0700753726 -1.3012970568 -0.9497568622
H   2.2994373751 -0.7204648186  0.3355380444
7
Iter 56  Energy = -29.6073165900
C   0.8781895016  0.7838876203 -0.1636825970
H   0.6968978395  1.5590400335 -0.9199709698
O   0.5269614658  0.9717382193  1.1232022011
C   1.3504465412 -0.5558452084 -0.1940367734
H   0.7792440182 -0.2466979886  1.0626069240
H   1.0699995719 -1.3013905628 -0.9496392289
H   2.2995026855 -0.7203654640  0.3354596954
7
Iter 57  Energy = -29.6073170966
C   0.8781880598  0.7838911878 -0.1636990840
H   0.6969877998  1.5591197703 -0.9199339058
O   0.5269018329  0.9716738906  1.1231854149
C   1.3504598562 -0.5558442874 -0.1940503415
H   0.7792119389 -0.2467231670  1.0625783400
H   1.0699245055 -1.3014832986 -0.9495227376
H   2.2995676304 -0.7202674456  0.3353815672
7
Iter 58  Energy = -29.6073175734
C   0.8781862350  0.7838951066 -0.1637156595
H   0.6970773128  1.5591988068 -0.9198969706
O   0.5268420130  0.9716103008  1.1231686832
C   1.3504731115 -0.5558438868 -0.1940637064
H   0.7791805836 -0.2467479406  1.0625504436
H   1.0698502083 -1.3015750463 -0.9494072046
H   2.2996321585 -0.7201706908  0.3353036677
7
Iter 59  Energy = -29.6073180503
C   0.8781842646  0.7838984857 -0.1637318490
H   0.6971663111  1.5592774185 -0.9198603952
O   0.5267820518  0.9715474131  1.1231518251
C   1.3504860866 -0.5558431760 -0.1940767231
H   0.7791499399 -0.2467722552  1.0625231419
H   1.0697766176 -1.3016660119 -0.9492927686
H   2.2996963509 -0.7200752246  0.3352260229
7
Iter 60  Energy = -29.6073185271
C   0.8781819457  0.7839021873 -0.1637481371
H   0.6972548606  1.5593553287 -0.9198239414
O   0.5267219418  0.9714852167  1.1231350166
C   1.3504990033 -0.5558429150 -0.1940895145
H   0.7791199782 -0.2467961697  1.0624965061
H   1.0697037635 -1.3017560239 -0.9491792926
H   2.2997601291 -0.7199809746  0.3351486167
7
Iter 61  Energy = -29.6073190486
C   0.8781794956  0.7839053945 -0.1637640361
H   0.6973428972  1.5594328086 -0.9197878372
O   0.5266617239  0.9714236962  1.1231180746
C   1.3505116335 -0.5558423773 -0.1941019771
H   0.7790906937 -0.2468196510  1.0624704251
H   1.0696315966 -1.3018452635 -0.9490668717
H   2.2998235818 -0.7198879584  0.3350714759
7
Iter 62  Energy = -29.6073194659
C   0.8781767371  0.7839088502 -0.1637799757
H   0.6974304851  1.5595096120 -0.9197519006
O   0.5266013722  0.9713628508  1.1231012040
C   1.3505241630 -0.5558422444 -0.1941142810
H   0.7790620588 -0.2468427432  1.0624449817
H   1.0695601447 -1.3019335597 -0.9489553772
H   2.2998866608 -0.7197961169  0.3349946026
7
Iter 63  Energy = -29.6073199725
C   0.8781738400  0.7839118927 -0.1637955597
H   0.6975175656  1.5595859684 -0.9197163049
O   0.5265409448  0.9713026521  1.1230842064
C   1.3505365047 -0.5558418814 -0.1941262295
H   0.7790340608 -0.2468654361  1.0624200893
H   1.0694893405 -1.3020210961 -0.9488449291
H   2.2999493650 -0.7197054511  0.3349179820
7
Iter 64  Energy = -29.6073204196
C   0.8781706545  0.7839151516 -0.1638111546
H   0.6976041960  1.5596616583 -0.9196808719
O   0.5264804167  0.9712431088  1.1230672609
C   1.3505487640 -0.5558418701 -0.1941379869
H   0.7790066872 -0.2468877592  1.0623957705
H   1.0694192192 -1.3021077265 -0.9487353934
H   2.3000116841 -0.7196159135  0.3348416278
7
Iter 65  Energy = -29.6073208070
C   0.8781673441  0.7839180295 -0.1638264309
H   0.6976903273  1.5597368830 -0.9196457702
O   0.5264198297  0.9711841774  1.1230502319
C   1.3505607932 -0.5558416682 -0.1941494465
H   0.7789799221 -0.2469096747  1.0623719698
H   1.0693497355 -1.3021935874 -0.9486268601
H   2.3000736696 -0.7195275105  0.3347655572
7
Iter 66  Energy = -29.6073212540
C   0.8781637785  0.7839210932 -0.1638417213
H   0.6977760085  1.5598114495 -0.9196108378
O   0.5263591715  0.9711258675  1.1230332549
C   1.3505727136 -0.5558417479 -0.1941607332
H   0.7789537447 -0.2469312455  1.0623487412
H   1.0692809124 -1.3022785675 -0.9485192209
H   2.3001352924 -0.7194402007  0.3346897693
7
Iter 67  Energy = -29.6073216713
C   0.8781601022  0.7839237835 -0.1638567037
H   0.6978611976  1.5598855404 -0.9195762252
O   0.5262984750  0.9710681593  1.1230161983
C   1.3505844621 -0.5558416419 -0.1941717278
H   0.7789281422 -0.2469524376  1.0623260159
H   1.0692127050 -1.3023627822 -0.9484125509
H   2.3001965377 -0.7193539726  0.3346142472
7
Iter 68  Energy = -29.6073221332
C   0.8781561807  0.7839266850 -0.1638716842
H   0.6979459332  1.5599589913 -0.9195417994
O   0.5262377355  0.9710110406  1.1229991921
C   1.3505960882 -0.5558418288 -0.1941825065
H   0.7789031091 -0.2469733048  1.0623037945
H   1.0691451301 -1.3024461396 -0.9483067671
H   2.3002574450 -0.7192687956  0.3345390241
7
Iter 69  Energy = -29.6073225355
C   0.8781521631  0.7839292467 -0.1638863830
H   0.6980301800  1.5600319701 -0.9195077087
O   0.5261769661  0.9709545161  1.1229821690
C   1.3506075311 -0.5558418491 -0.1941930466
H   0.7788786163 -0.2469938116  1.0622820644
H   1.0690781459 -1.3025287563 -0.9482019377
H   2.3003180191 -0.7191846669  0.3344640961
7
Iter 70  Energy = -29.6073229229
C   0.8781479107  0.7839319996 -0.1639010766
H   0.6981139806  1.5601043033 -0.9194737932
O   0.5261161796  0.9708985505  1.1229651785
C   1.3506189060 -0.5558421326 -0.1942033892
H   0.7788546531 -0.2470139898  1.0622608582
H   1.0690117722 -1.3026105319 -0.9480979764
H   2.3003782188 -0.7191015500  0.3343894539
7
Iter 71  Energy = -29.6073233253
C   0.8781435791  0.7839344103 -0.1639154761
H   0.6981972898  1.5601761696 -0.9194402011
O   0.5260553907  0.9708431702  1.1229481438
C   1.3506300879 -0.5558422572 -0.1942134860
H   0.7788312167 -0.2470338430  1.0622400936
H   1.0689459757 -1.3026915630 -0.9479949319
H   2.3004380820 -0.7190194378  0.3343151129
7
Iter 72  Energy = -29.6073237425
C   0.8781390371  0.7839369547 -0.1639298405
H   0.6982801519  1.5602474099 -0.9194068016
O   0.5259945930  0.9707883739  1.1229311671
C   1.3506412009 -0.5558426193 -0.1942233789
H   0.7788082956 -0.2470534101  1.0622197778
H   1.0688807621 -1.3027717648 -0.9478927334
H   2.3004975816 -0.7189382963  0.3342410642
7
Iter 73  Energy = -29.6073241150
C   0.8781344162  0.7839392406 -0.1639439780
H   0.6983625325  1.5603181612 -0.9193737009
O   0.5259338157  0.9707340985  1.1229141664
C   1.3506521041 -0.5558428232 -0.1942330449
H   0.7787858649 -0.2470726418  1.0621999176
H   1.0688161122 -1.3028512515 -0.9477914391
H   2.3005567766 -0.7188581365  0.3341673344
7
Iter 74  Energy = -29.6073245323
C   0.8781295997  0.7839416514 -0.1639580500
H   0.6984444672  1.5603883049 -0.9193408160
O   0.5258730533  0.9706803787  1.1228972209
C   1.3506629433 -0.5558432420 -0.1942425258
H   0.7787639211 -0.2470915918  1.0621804984
H   1.0687520265 -1.3029299396 -0.9476909791
H   2.3006156117 -0.7187789126  0.3340939065
7
Iter 75  Energy = -29.6073248750
C   0.8781246904  0.7839438425 -0.1639718791
H   0.6985259257  1.5604579564 -0.9193082294
O   0.5258123318  0.9706271737  1.1228802458
C   1.3506736377 -0.5558435653 -0.1942517690
H   0.7787424453 -0.2471102337  1.0621614947
H   1.0686884770 -1.3030079020 -0.9475913955
H   2.3006741143 -0.7187006221  0.3340207859
7
Iter 76  Energy = -29.6073253071
C   0.8781196377  0.7839461114 -0.1639856642
H   0.6986069349  1.5605270145 -0.9192758559
O   0.5257516279  0.9705745133  1.1228633590
C   1.3506842576 -0.5558440784 -0.1942608743
H   0.7787214244 -0.2471285946  1.0621429386
H   1.0686254834 -1.3030850852 -0.9474926208
H   2.3007322563 -0.7186232316  0.3339479691
7
Iter 77  Energy = -29.6073256052
C   0.8781145020  0.7839481653 -0.1639992065
H   0.6986874696  1.5605955908 -0.9192437774
O   0.5256909838  0.9705223563  1.1228464467
C   1.3506947368 -0.5558444724 -0.1942697295
H   0.7787008505 -0.2471466597  1.0621247709
H   1.0685630131 -1.3031615809 -0.9473947148
H   2.3007900672 -0.7185467495  0.3338754601
7
Iter 78  Energy = -29.6073259777
C   0.8781092208  0.7839503101 -0.1640127034
H   0.6987675588  1.5606635711 -0.9192118995
O   0.5256303876  0.9704707090  1.1228295917
C   1.3507051173 -0.5558450425 -0.1942784415
H   0.7786807138 -0.2471644640  1.0621070180
H   1.0685010779 -1.3032372919 -0.9472975907
H   2.3008475465 -0.7184711408  0.3338032743
7
Iter 79  Energy = -29.6073263651
C   0.8781038668  0.7839522462 -0.1640259870
H   0.6988471808  1.5607310555 -0.9191803031
O   0.5255698601  0.9704195567  1.1228127322
C   1.3507153742 -0.5558455091 -0.1942869464
H   0.7786609978 -0.2471819811  1.0620896598
H   1.0684396500 -1.3033123139 -0.9472013099
H   2.3009046933 -0.7183964029  0.3337314025
7
Iter 80  Energy = -29.6073267376
C   0.8780983827  0.7839542462 -0.1640391847
H   0.6989263567  1.5607979702 -0.9191489309
O   0.5255093954  0.9703689032  1.1227959398
C   1.3507255488 -0.5558461184 -0.1942952756
H   0.7786417005 -0.2471992465  1.0620726665
H   1.0683787356 -1.3033865937 -0.9471058141
H   2.3009615034 -0.7183225093  0.3336598454
7
Iter 81  Energy = -29.6073270804
C   0.8780928326  0.7839560826 -0.1640522197
H   0.6990050704  1.5608643901 -0.9191178265
O   0.5254490076  0.9703187306  1.1227791770
C   1.3507355797 -0.5558466543 -0.1943034129
H   0.7786228050 -0.2472162392  1.0620560449
H   1.0683183201 -1.3034601976 -0.9470111337
H   2.3010180084 -0.7182494615  0.3335886178
7
Iter 82  Energy = -29.6073273635
C   0.8780871570  0.7839579734 -0.1640651625
H   0.6990833404  1.5609302480 -0.9190869520
O   0.5253887052  0.9702690227  1.1227624726
C   1.3507455456 -0.5558473423 -0.1943114151
H   0.7786042965 -0.2472329693  1.0620398059
H   1.0682584053 -1.3035330550 -0.9469172160
H   2.3010741727 -0.7181772266  0.3335177136
7
Iter 83  Energy = -29.6073276913
C   0.8780814241  0.7839596952 -0.1640779146
H   0.6991611535  1.5609956068 -0.9190563460
O   0.5253284941  0.9702197962  1.1227457876
C   1.3507553932 -0.5558479203 -0.1943192028
H   0.7785861796 -0.2472494585  1.0620239002
H   1.0681989703 -1.3036052621 -0.9468241028
H   2.3011300073 -0.7181058062  0.3334471242
7
Iter 84  Energy = -29.6073280191
C   0.8780755756  0.7839614919 -0.1640905949
H   0.6992385240  1.5610604137 -0.9190259551
O   0.5252683770  0.9701710271  1.1227291721
C   1.3507651770 -0.5558486499 -0.1943268508
H   0.7785684318 -0.2472657006  1.0620083555
H   1.0681400247 -1.3036767552 -0.9467317377
H   2.3011855124 -0.7180351760  0.3333768576
7
Iter 85  Energy = -29.6073283172
C   0.8780696800  0.7839631290 -0.1641030607
H   0.6993154351  1.5611247408 -0.9189958395
O   0.5252083800  0.9701226964  1.1227125412
C   1.3507748077 -0.5558492900 -0.1943343183
H   0.7785510475 -0.2472817028  1.0619931420
H   1.0680815499 -1.3037475892 -0.9466401454
H   2.3012407220 -0.7179653329  0.3333069270
7
Iter 86  Energy = -29.6073286450
C   0.8780636863  0.7839648054 -0.1641154797
H   0.6993919082  1.5611885254 -0.9189659433
O   0.5251484765  0.9700748420  1.1226960171
C   1.3507843878 -0.5558500303 -0.1943416200
H   0.7785340222 -0.2472974909  1.0619782610
H   1.0680235390 -1.3038177454 -0.9465493109
H   2.3012956017 -0.7178962542  0.3332373214
7
Iter 87  Energy = -29.6073289877
C   0.8780576554  0.7839663447 -0.1641277146
H   0.6994679299  1.5612518220 -0.9189363132
O   0.5250887006  0.9700274023  1.1226795012
C   1.3507938106 -0.5558506971 -0.1943487626
H   0.7785173439 -0.2473130429  1.0619637035
H   1.0679659867 -1.3038872451 -0.9464592263
H   2.3013501956 -0.7178279329  0.3331680580
7
Iter 88  Energy = -29.6073292708
C   0.8780515343  0.7839679199 -0.1641398747
H   0.6995435167  1.5613145759 -0.9189068992
O   0.5250290362  0.9699804078  1.1226630757
C   1.3508031861 -0.5558514933 -0.1943557938
H   0.7785009978 -0.2473283624  1.0619494740
H   1.0679089023 -1.3039560484 -0.9463698521
H   2.3014044498 -0.7177603489  0.3330991158
7
Iter 89  Energy = -29.6073295689
C   0.8780453659  0.7839693712 -0.1641518486
H   0.6996186526  1.5613768602 -0.9188777514
O   0.5249695031  0.9699338608  1.1226466779
C   1.3508124752 -0.5558522453 -0.1943626295
H   0.7784849864 -0.2473434792  1.0619355260
H   1.0678522636 -1.3040242182 -0.9462812149
H   2.3014583767 -0.7176934986  0.3330304867
7
Iter 90  Energy = -29.6073299414
C   0.8780391197  0.7839708433 -0.1641637330
H   0.6996933514  1.5614386215 -0.9188488178
O   0.5249101162  0.9698876791  1.1226303215
C   1.3508216954 -0.5558530605 -0.1943693757
H   0.7784692695 -0.2473583229  1.0619219555
H   1.0677960749 -1.3040917383 -0.9461933047
H   2.3015119963 -0.7176273724  0.3329622011
7
Iter 91  Energy = -29.6073301500
C   0.8780328393  0.7839722211 -0.1641754920
H   0.6997676105  1.5614998872 -0.9188201225
O   0.5248508667  0.9698419149  1.1226140153
C   1.3508308090 -0.5558538261 -0.1943759469
H   0.7784538729 -0.2473729653  1.0619086627
H   1.0677403223 -1.3041586270 -0.9461061100
H   2.3015653034 -0.7175619562  0.3328942414
7
Iter 92  Energy = -29.6073304778
C   0.8780264858  0.7839735932 -0.1641871249
H   0.6998414360  1.5615606483 -0.9187916596
O   0.5247917643  0.9697965669  1.1225977661
C   1.3508398473 -0.5558546459 -0.1943823751
H   0.7784387900 -0.2473874084  1.0618956368
H   1.0676850070 -1.3042248684 -0.9460196086
H   2.3016182943 -0.7174972360  0.3328266128
7
Iter 93  Energy = -29.6073307759
C   0.8780201087  0.7839749111 -0.1641986959
H   0.6999148225  1.5616209181 -0.9187634174
O   0.5247328122  0.9697515192  1.1225816037
C   1.3508488179 -0.5558554866 -0.1943887476
H   0.7784239587 -0.2474015092  1.0618830042
H   1.0676301231 -1.3042904984 -0.9459338296
H   2.3016709821 -0.7174332038  0.3327593309
7
Iter 94  Energy = -29.6073310292
C   0.8780136865  0.7839761530 -0.1642100882
H   0.6999877742  1.5616807108 -0.9187354177
O   0.5246740104  0.9697068862  1.1225654722
C   1.3508577111 -0.5558562938 -0.1943949432
H   0.7784094258 -0.2474154301  1.0618705994
H   1.0675756521 -1.3043555217 -0.9458487375
H   2.3017233650 -0.7173698535  0.3326923654
7
Iter 95  Energy = -29.6073313421
C   0.8780072118  0.7839774096 -0.1642213770
H   0.7000602981  1.5617399966 -0.9187076269
O   0.5246153653  0.9696626303  1.1225493962
C   1.3508665383 -0.5558571429 -0.1944010024
H   0.7783951736 -0.2474291416  1.0618584561
H   1.0675215976 -1.3044199327 -0.9457643201
H   2.3017754405 -0.7173071693  0.3326257251
7
Iter 96  Energy = -29.6073315805
C   0.8780006954  0.7839786348 -0.1642325251
H   0.7001323906  1.5617988116 -0.9186800862
O   0.5245568760  0.9696187687  1.1225333828
C   1.3508752496 -0.5558579705 -0.1944069111
H   0.7783812054 -0.2474426788  1.0618465470
H   1.0674679473 -1.3044837621 -0.9456805891
H   2.3018272612 -0.7172451537  0.3325594326
7
Iter 97  Energy = -29.6073318934
C   0.8779941397  0.7839798442 -0.1642435610
H   0.7002040542  1.5618571476 -0.9186527619
O   0.5244985518  0.9695752673  1.1225174267
C   1.3508838778 -0.5558588468 -0.1944127211
H   0.7783674992 -0.2474560007  1.0618348985
H   1.0674147085 -1.3045469755 -0.9455975053
H   2.3018787945 -0.7171837849  0.3324934769
7
Iter 98  Energy = -29.6073321319
C   0.8779875601  0.7839809643 -0.1642544731
H   0.7002752882  1.5619150151 -0.9186256608
O   0.5244403869  0.9695321518  1.1225015371
C   1.3508924773 -0.5558596829 -0.1944183761
H   0.7783540502 -0.2474691280  1.0618234828
H   1.0673618562 -1.3046096118 -0.9455150888
H   2.3019300063 -0.7171230558  0.3324278320
7
Iter 99  Energy = -29.6073323852
C   0.8779809401  0.7839821202 -0.1642653177
H   0.7003461037  1.5619723952 -0.9185987703
O   0.5243823778  0.9694894138  1.1224857517
C   1.3509010089 -0.5558605901 -0.1944239345
H   0.7783408569 -0.2474820775  1.0618123081
H   1.0673094070 -1.3046716533 -0.9454333041
H   2.3019809313 -0.7170629556  0.3323625182
7
Iter 100  Energy = -29.6073326236
C   0.8779742981  0.7839832146 -0.1642760095
H   0.7004164943  1.5620293149 -0.9185721053
O   0.5243245466  0.9694470236  1.1224700044
C   1.3509094776 -0.5558614548 -0.1944293322
H   0.7783279144 -0.2474948340  1.0618013436
H   1.0672573381 -1.3047331367 -0.9453521735
H   2.3020315569 -0.7170034753  0.3322975234
7
Iter 101  Energy = -29.6073329365
C   0.8779676286  0.7839842867 -0.1642865823
H   0.7004864640  1.5620857689 -0.9185456557
O   0.5242668986  0.9694049800  1.1224543021
C   1.3509178411 -0.5558623230 -0.1944346513
H   0.7783152096 -0.2475074112  1.0617906277
H   1.0672056635 -1.3047940402 -0.9452716662
H   2.3020819206 -0.7169446091  0.3322328760
7
Iter 102  Energy = -29.6073331600
C   0.8779609197  0.7839853452 -0.1642970281
H   0.7005560122  1.5621417759 -0.9185194359
O   0.5242094281  0.9693633103  1.1224386671
C   1.3509261747 -0.5558632108 -0.1944398034
H   0.7783027503 -0.2475198387  1.0617800974
H   1.0671543586 -1.3048543822 -0.9451917904
H   2.3021319826 -0.7168863468  0.3321685444
7
Iter 103  Energy = -29.6073334283
C   0.8779542063  0.7839863821 -0.1643073835
H   0.7006251396  1.5621973277 -0.9184934347
O   0.5241521294  0.9693220065  1.1224231156
C   1.3509344404 -0.5558640919 -0.1944448622
H   0.7782905168 -0.2475321127  1.0617698120
H   1.0671034306 -1.3049141808 -0.9451125444
H   2.3021817634 -0.7168286784  0.3321045483
7
Iter 104  Energy = -29.6073336667
C   0.8779474646  0.7839874048 -0.1643176112
H   0.7006938526  1.5622524233 -0.9184676433
O   0.5240950180  0.9692810521  1.1224076127
C   1.3509426510 -0.5558649821 -0.1944498333
H   0.7782785013 -0.2475442278  1.0617597418
H   1.0670528765 -1.3049734185 -0.9450338924
H   2.3022312622 -0.7167715991  0.3320408749
7
Iter 105  Energy = -29.6073338753
C   0.8779407105  0.7839884095 -0.1643277413
H   0.7007621537  1.5623070668 -0.9184420628
O   0.5240380883  0.9692404373  1.1223921982
C   1.3509508234 -0.5558658540 -0.1944546778
H   0.7782666995 -0.2475561749  1.0617498709
H   1.0670026821 -1.3050321367 -0.9449558599
H   2.3022804683 -0.7167150962  0.3319775209
7
Iter 106  Energy = -29.6073341286
C   0.8779339359  0.7839893939 -0.1643377628
H   0.7008300459  1.5623612578 -0.9184166936
O   0.5239813489  0.9692001563  1.1223768582
C   1.3509589206 -0.5558667232 -0.1944594684
H   0.7782551025 -0.2475679536  1.0617402225
H   1.0669528537 -1.3050903096 -0.9448784175
H   2.3023294181 -0.7166591701  0.3319145092
7
Iter 107  Energy = -29.6073343521
C   0.8779271549  0.7839903437 -0.1643476890
H   0.7008975320  1.5624149952 -0.9183915290
O   0.5239247859  0.9691602351  1.1223616141
C   1.3509669705 -0.5558675565 -0.1944641297
H   0.7782437192 -0.2475795917  1.0617307439
H   1.0669033708 -1.3051479702 -0.9448015829
H   2.3023780915 -0.7166038044  0.3318518202
7
Iter 108  Energy = -29.6073345608
C   0.8779203544  0.7839912896 -0.1643574994
H   0.7009646088  1.5624682994 -0.9183665789
O   0.5238684257  0.9691206251  1.1223464311
C   1.3509749956 -0.5558684284 -0.1944687192
H   0.7782325292 -0.2475910580  1.0617214832
H   1.0668542501 -1.3052050877 -0.9447253207
H   2.3024264623 -0.7165489894  0.3317894510
7
Iter 109  Energy = -29.6073348290
C   0.8779135548  0.7839921821 -0.1643671676
H   0.7010312738  1.5625211837 -0.9183418519
O   0.5238122664  0.9690813442  1.1223312932
C   1.3509829523 -0.5558692634 -0.1944732041
H   0.7782215396 -0.2476023897  1.0617124083
H   1.0668054804 -1.3052616828 -0.9446496335
H   2.3024745587 -0.7164947227  0.3317274047
7
Iter 110  Energy = -29.6073350674
C   0.8779067419  0.7839930868 -0.1643767531
H   0.7010975391  1.5625736213 -0.9183173202
O   0.5237563024  0.9690423990  1.1223162404
C   1.3509908539 -0.5558701006 -0.1944775902
H   0.7782107453 -0.2476135960  1.0617035116
H   1.0667570518 -1.3053177670 -0.9445745280
H   2.3025223919 -0.7164409910  0.3316656891
7
Iter 111  Energy = -29.6073352909
C   0.8778999223  0.7839939453 -0.1643862142
H   0.7011634018  1.5626256230 -0.9182929790
O   0.5237005386  0.9690037902  1.1223012471
C   1.3509987096 -0.5558709115 -0.1944818887
H   0.7782001371 -0.2476246568  1.0616947808
H   1.0667089644 -1.3053733444 -0.9444999935
H   2.3025699528 -0.7163877943  0.3316042965
7
Iter 112  Energy = -29.6073354846
C   0.8778931028  0.7839948282 -0.1643956403
H   0.7012288653  1.5626771946 -0.9182688255
O   0.5236449719  0.9689654815  1.1222863628
C   1.3510064914 -0.5558717638 -0.1944861192
H   0.7781897096 -0.2476355640  1.0616862443
H   1.0666612238 -1.3054284075 -0.9444260146
H   2.3026172615 -0.7163351177  0.3315432425
7
Iter 113  Energy = -29.6073357230
C   0.8778862832  0.7839956345 -0.1644048886
H   0.7012939232  1.5627283723 -0.9182448987
O   0.5235896198  0.9689275004  1.1222715133
C   1.3510142512 -0.5558725614 -0.1944902427
H   0.7781794585 -0.2476463438  1.0616778747
H   1.0666138137 -1.3054829924 -0.9443526082
H   2.3026642765 -0.7162829586  0.3314824981
7
Iter 114  Energy = -29.6073359168
C   0.8778794444  0.7839964886 -0.1644140681
H   0.7013585900  1.5627791041 -0.9182211483
O   0.5235344723  0.9688898370  1.1222567496
C   1.3510219696 -0.5558734054 -0.1944942815
H   0.7781693849 -0.2476569983  1.0616696642
H   1.0665667371 -1.3055370703 -0.9442797480
H   2.3027110281 -0.7162313047  0.3314220799
7
Iter 115  Energy = -29.6073361552
C   0.8778726288  0.7839972789 -0.1644231378
H   0.7014228537  1.5628294475 -0.9181976095
O   0.5234795348  0.9688524823  1.1222420519
C   1.3510296046 -0.5558742170 -0.1944982522
H   0.7781594802 -0.2476675251  1.0616616366
H   1.0665199924 -1.3055906614 -0.9442074387
H   2.3027575320 -0.7161801540  0.3313619959
7
Iter 116  Energy = -29.6073363489
C   0.8778657989  0.7839980975 -0.1644321375
H   0.7014867292  1.5628793578 -0.9181742442
O   0.5234248110  0.9688154268  1.1222274314
C   1.3510372200 -0.5558750486 -0.1945021131
H   0.7781497440 -0.2476779201  1.0616537601
H   1.0664735704 -1.3056437682 -0.9441356784
H   2.3028037535 -0.7161294937  0.3313022265
7
Iter 117  Energy = -29.6073365575
C   0.8778589866  0.7839988593 -0.1644410116
H   0.7015502075  1.5629288877 -0.9181510962
O   0.5233703000  0.9687786669  1.1222128826
C   1.3510447766 -0.5558758583 -0.1945058982
H   0.7781401688 -0.2476881821  1.0616460471
H   1.0664274739 -1.3056964005 -0.9440644578
H   2.3028497130 -0.7160793203  0.3312427786
7
Iter 118  Energy = -29.6073367512
C   0.8778521763  0.7839996160 -0.1644498155
H   0.7016132975  1.5629780067 -0.9181281294
O   0.5233159995  0.9687422142  1.1221984297
C   1.3510523025 -0.5558766872 -0.1945095989
H   0.7781307516 -0.2476983192  1.0616384802
H   1.0663817013 -1.3057485530 -0.9439937644
H   2.3028953973 -0.7160296249  0.3311836430
7
Iter 119  Energy = -29.6073369151
C   0.8778453770  0.7840003164 -0.1644584894
H   0.7016759973  1.5630267340 -0.9181053547
O   0.5232619277  0.9687060436  1.1221840187
C   1.3510597555 -0.5558774671 -0.1945132363
H   0.7781214849 -0.2477083199  1.0616310731
H   1.0663362410 -1.3058002473 -0.9439236115
H   2.3029408427 -0.7159804070  0.3311248446
7
Iter 120  Energy = -29.6073371089
C   0.8778386177  0.7840009399 -0.1644671140
H   0.7017383031  1.5630750854 -0.9180827709
O   0.5232081014  0.9686700131  1.1221696798
C   1.3510672013 -0.5558781684 -0.1945168309
H   0.7781123193 -0.2477180458  1.0616239441
H   1.0662911062 -1.3058515078 -0.9438540133
H   2.3029859770 -0.7159316624  0.3310663510
7
Iter 121  Energy = -29.6073373324
C   0.8778318267  0.7840016875 -0.1644756728
H   0.7018002326  1.5631230148 -0.9180603585
O   0.5231544920  0.9686343023  1.1221554157
C   1.3510745912 -0.5558789953 -0.1945203867
H   0.7781033157 -0.2477277079  1.0616169629
H   1.0662462882 -1.3059022749 -0.9437849132
H   2.3030308794 -0.7158833729  0.3310081977
7
Iter 122  Energy = -29.6073375261
C   0.8778250872  0.7840022768 -0.1644840988
H   0.7018617720  1.5631705876 -0.9180381502
O   0.5231011089  0.9685988699  1.1221412083
C   1.3510819185 -0.5558796946 -0.1945238301
H   0.7780944588 -0.2477372381  1.0616101140
H   1.0662017801 -1.3059526098 -0.9437163464
H   2.3030755007 -0.7158355380  0.3309503493
7
Iter 123  Energy = -29.6073376751
C   0.8778183423  0.7840029325 -0.1644924828
H   0.7019229339  1.5632177578 -0.9180161085
O   0.5230479524  0.9685637032  1.1221270847
C   1.3510892092 -0.5558804579 -0.1945272002
H   0.7780857477 -0.2477466569  1.0616034112
H   1.0661575847 -1.3060024794 -0.9436482771
H   2.3031198560 -0.7157881453  0.3308928190
7
Iter 124  Energy = -29.6073378539
C   0.8778116246  0.7840035172 -0.1645007599
H   0.7019837109  1.5632645631 -0.9179942502
O   0.5229950248  0.9685288152  1.1221130143
C   1.3510964321 -0.5558811686 -0.1945304989
H   0.7780771777 -0.2477559592  1.0615968522
H   1.0661136912 -1.3060519157 -0.9435807286
H   2.3031639649 -0.7157411977  0.3308356166
7
Iter 125  Energy = -29.6073380774
C   0.8778048951  0.7840041747 -0.1645089719
H   0.7020441168  1.5633109687 -0.9179725633
O   0.5229423234  0.9684942187  1.1220990237
C   1.3511036174 -0.5558819412 -0.1945337192
H   0.7780687548 -0.2477651914  1.0615904085
H   1.0660701010 -1.3061008923 -0.9435136642
H   2.3032078172 -0.7156946826  0.3307787329
7
Iter 126  Energy = -29.6073381966
C   0.8777982103  0.7840047367 -0.1645170857
H   0.7021041409  1.5633570252 -0.9179510669
O   0.5228898536  0.9684598839  1.1220850947
C   1.3511107506 -0.5558826302 -0.1945368510
H   0.7780604616 -0.2477743049  1.0615841160
H   1.0660268080 -1.3061494586 -0.9434471174
H   2.3032514005 -0.7156485982  0.3307221571
7
Iter 127  Energy = -29.6073384053
C   0.8777915090  0.7840053488 -0.1645251201
H   0.7021637931  1.5634027000 -0.9179297232
O   0.5228376162  0.9684258282  1.1220712119
C   1.3511178665 -0.5558833890 -0.1945399288
H   0.7780523029 -0.2477833222  1.0615779621
H   1.0659838150 -1.3061975756 -0.9433810536
H   2.3032947232 -0.7156029373  0.3306658981
7
Iter 128  Energy = -29.6073385841
C   0.8777848487  0.7840058880 -0.1645330532
H   0.7022230710  1.5634480159 -0.9179085641
O   0.5227856122  0.9683920403  1.1220573887
C   1.3511248664 -0.5558840509 -0.1945429390
H   0.7780442749 -0.2477922534  1.0615719245
H   1.0659411168 -1.3062452818 -0.9433154814
H   2.3033378364 -0.7155577048  0.3306099709
7
Iter 129  Energy = -29.6073387629
C   0.8777781942  0.7840064462 -0.1645409292
H   0.7022819803  1.5634929596 -0.9178875645
O   0.5227338408  0.9683585042  1.1220436486
C   1.3511318447 -0.5558847708 -0.1945458781
H   0.7780363740 -0.2478010632  1.0615660048
H   1.0658987142 -1.3062925437 -0.9432503865
H   2.3033806782 -0.7155128787  0.3305543524
7
Iter 130  Energy = -29.6073389268
C   0.8777715596  0.7840069983 -0.1645487472
H   0.7023405248  1.5635375416 -0.9178667456
O   0.5226822924  0.9683252273  1.1220300223
C   1.3511388063 -0.5558854834 -0.1945487391
H   0.7780285930 -0.2478097603  1.0615602100
H   1.0658565979 -1.3063394086 -0.9431857857
H   2.3034232528 -0.7154684603  0.3304990345
7
Iter 131  Energy = -29.6073391205
C   0.8777649369  0.7840075402 -0.1645564550
H   0.7023986992  1.5635817829 -0.9178461093
O   0.5226309879  0.9682922117  1.1220164288
C   1.3511456823 -0.5558862038 -0.1945515520
H   0.7780209363 -0.2478183853  1.0615545356
H   1.0658147740 -1.3063858419 -0.9431216449
H   2.3034656104 -0.7154244499  0.3304440450
7
Iter 132  Energy = -29.6073392993
C   0.8777583251  0.7840080653 -0.1645640779
H   0.7024565107  1.5636256611 -0.9178256272
O   0.5225799246  0.9682594558  1.1220028914
C   1.3511525582 -0.5558869100 -0.1945542644
H   0.7780133985 -0.2478269134  1.0615489675
H   1.0657732300 -1.3064318738 -0.9430579882
H   2.3035076803 -0.7153808306  0.3303893486
7
Iter 133  Energy = -29.6073394185
C   0.8777517445  0.7840085622 -0.1645716251
H   0.7025139580  1.5636691953 -0.9178053148
O   0.5225290884  0.9682269610  1.1219894402
C   1.3511593601 -0.5558875958 -0.1945569397
H   0.7780059705 -0.2478353414  1.0615435214
H   1.0657319665 -1.3064775174 -0.9429948107
H   2.3035495394 -0.7153376090  0.3303349790
7
Iter 134  Energy = -29.6073395228
C   0.8777451815  0.7840090515 -0.1645790801
H   0.7025710429  1.5637123903 -0.9177851751
O   0.5224784912  0.9681947133  1.1219760493
C   1.3511661412 -0.5558882960 -0.1945595454
H   0.7779986608 -0.2478436822  1.0615381808
H   1.0656909870 -1.3065227526 -0.9429320861
H   2.3035911231 -0.7152947684  0.3302809043
7
Iter 135  Energy = -29.6073397613
C   0.8777386440  0.7840095304 -0.1645865088
H   0.7026277713  1.5637552397 -0.9177651968
O   0.5224281171  0.9681627301  1.1219627753
C   1.3511728720 -0.5558890096 -0.1945621030
H   0.7779914617 -0.2478519358  1.0615329551
H   1.0656502889 -1.3065675841 -0.9428698172
H   2.3036324728 -0.7152523145  0.3302271424
7
Iter 136  Energy = -29.6073398507
C   0.8777321274  0.7840100005 -0.1645938433
H   0.7026841391  1.5637977449 -0.9177453663
O   0.5223779931  0.9681309819  1.1219495247
C   1.3511795443 -0.5558896946 -0.1945645863
H   0.7779843716 -0.2478601027  1.0615278387
H   1.0656098672 -1.3066120318 -0.9428080116
H   2.3036735849 -0.7152102430  0.3301736904
7
Iter 137  Energy = -29.6073400593
C   0.8777256404  0.7840104606 -0.1646011101
H   0.7027401488  1.5638399231 -0.9177257062
O   0.5223281035  0.9680994688  1.1219363676
C   1.3511861626 -0.5558903879 -0.1945670194
H   0.7779773798 -0.2478681677  1.0615228275
H   1.0655697210 -1.3066560954 -0.9427466607
H   2.3037144714 -0.7151685470  0.3301205485
7
Iter 138  Energy = -29.6073401934
C   0.8777191633  0.7840109155 -0.1646083066
H   0.7027958111  1.5638817610 -0.9177062069
O   0.5222784489  0.9680682068  1.1219232940
C   1.3511927765 -0.5558910843 -0.1945693783
H   0.7779704936 -0.2478761441  1.0615179077
H   1.0655298438 -1.3066997823 -0.9426857606
H   2.3037550903 -0.7151272174  0.3300676967
7
Iter 139  Energy = -29.6073403573
C   0.8777127092  0.7840113647 -0.1646154090
H   0.7028511165  1.5639232799 -0.9176868697
O   0.5222290386  0.9680371826  1.1219102668
C   1.3511993188 -0.5558917730 -0.1945716951
H   0.7779637093 -0.2478840500  1.0615130943
H   1.0654902410 -1.3067430887 -0.9426252997
H   2.3037954945 -0.7150862599  0.3300151592
7
Iter 140  Energy = -29.6073405212
C   0.8777062793  0.7840117909 -0.1646224694
H   0.7029060745  1.5639644677 -0.9176676836
O   0.5221798597  0.9680063967  1.1218973377
C   1.3512058769 -0.5558924721 -0.1945739602
H   0.7779570141 -0.2478918470  1.0615084029
H   1.0654509002 -1.3067860233 -0.9425652926
H   2.3038356235 -0.7150456578  0.3299629107
7
Iter 141  Energy = -29.6073406404
C   0.8776998795  0.7840121932 -0.1646294514
H   0.7029606845  1.5640053279 -0.9176486524
O   0.5221309215  0.9679758524  1.1218844738
C   1.3512123561 -0.5558931396 -0.1945761698
H   0.7779504204 -0.2478995759  1.0615037848
H   1.0654118291 -1.3068285847 -0.9425057095
H   2.3038755372 -0.7150054185  0.3299109693
7
Iter 142  Energy = -29.6073407745
C   0.8776934892  0.7840126429 -0.1646363741
H   0.7030149539  1.5640458410 -0.9176297499
O   0.5220822270  0.9679455371  1.1218716560
C   1.3512187852 -0.5558938273 -0.1945783145
H   0.7779439246 -0.2479072297  1.0614992573
H   1.0653730212 -1.3068707785 -0.9424465609
H   2.3039152277 -0.7149655315  0.3298593315
7
Iter 143  Energy = -29.6073409534
C   0.8776871409  0.7840130204 -0.1646432008
H   0.7030688718  1.5640860665 -0.9176110255
O   0.5220337755  0.9679154366  1.1218589080
C   1.3512251858 -0.5558944729 -0.1945804110
H   0.7779375141 -0.2479147869  1.0614948364
H   1.0653344770 -1.3069126160 -0.9423878457
H   2.3039546637 -0.7149259934  0.3298079832
7
Iter 144  Energy = -29.6073410726
C   0.8776808283  0.7840133568 -0.1646499885
H   0.7031224471  1.5641259783 -0.9175924452
O   0.5219855704  0.9678854971  1.1218462578
C   1.3512315558 -0.5558951084 -0.1945824997
H   0.7779311663 -0.2479221623  1.0614905561
H   1.0652961934 -1.3069541054 -0.9423295772
H   2.3039938681 -0.7148868014  0.3297569433
7
Iter 145  Energy = -29.6073412216
C   0.8776745234  0.7840137743 -0.1646567633
H   0.7031756899  1.5641655469 -0.9175739901
O   0.5219375914  0.9678558043  1.1218337115
C   1.3512379008 -0.5558958108 -0.1945845412
H   0.7779249158 -0.2479294785  1.0614863578
H   1.0652581740 -1.3069952343 -0.9422717235
H   2.3040328342 -0.7148479472  0.3297061958
7
Iter 146  Energy = -29.6073413557
C   0.8776682590  0.7840140901 -0.1646634211
H   0.7032285887  1.5642048228 -0.9175556901
O   0.5218898575  0.9678263307  1.1218212083
C   1.3512441955 -0.5558964494 -0.1945865451
H   0.7779187444 -0.2479366836  1.0614822505
H   1.0652204098 -1.3070360198 -0.9422142985
H   2.3040715746 -0.7148094367  0.3296557446
7
Iter 147  Energy = -29.6073414749
C   0.8776620152  0.7840144092 -0.1646700014
H   0.7032811512  1.5642437922 -0.9175375352
O   0.5218423553  0.9677971354  1.1218087712
C   1.3512504462 -0.5558970954 -0.1945884728
H   0.7779126761 -0.2479438803  1.0614781864
H   1.0651828979 -1.3070764503 -0.9421572804
H   2.3041100878 -0.7147712566  0.3296055823
7
Iter 148  Energy = -29.6073416537
C   0.8776557982  0.7840147177 -0.1646765137
H   0.7033333826  1.5642824419 -0.9175195141
O   0.5217950972  0.9677681574  1.1217963895
C   1.3512566464 -0.5558977088 -0.1945903701
H   0.7779066822 -0.2479509997  1.0614742138
H   1.0651456360 -1.3071165467 -0.9421006730
H   2.3041483865 -0.7147334089  0.3295557163
7
Iter 149  Energy = -29.6073417878
C   0.8776495984  0.7840150449 -0.1646829734
H   0.7033852820  1.5643207780 -0.9175016213
O   0.5217480728  0.9677394193  1.1217840890
C   1.3512628381 -0.5558983210 -0.1945922034
H   0.7779007675 -0.2479580568  1.0614703071
H   1.0651086201 -1.3071563212 -0.9420444803
H   2.3041864498 -0.7146958906  0.3295061317
7
Iter 150  Energy = -29.6073418474
C   0.8776434356  0.7840153389 -0.1646893675
H   0.7034368511  1.5643588176 -0.9174838766
O   0.5217012885  0.9677108866  1.1217718664
C   1.3512689383 -0.5558989142 -0.1945940320
H   0.7778949274 -0.2479650278  1.0614664750
H   1.0650718630 -1.3071957444 -0.9419886691
H   2.3042243251 -0.7146587045  0.3294568509
7
Iter 151  Energy = -29.6073419666
C   0.8776373075  0.7840156147 -0.1646957077
H   0.7034880903  1.5643965636 -0.9174662776
O   0.5216547365  0.9676825747  1.1217597387
C   1.3512750275 -0.5558994935 -0.1945958071
H   0.7778891569 -0.2479719203  1.0614627211
H   1.0650353515 -1.3072348510 -0.9419332673
H   2.3042619582 -0.7146218358  0.3294078461
7
Iter 152  Energy = -29.6073421007
C   0.8776311956  0.7840159368 -0.1647019836
H   0.7035390019  1.5644340013 -0.9174487919
O   0.5216084292  0.9676544748  1.1217476571
C   1.3512810747 -0.5559001041 -0.1945975850
H   0.7778834502 -0.2479787336  1.0614590744
H   1.0649990914 -1.3072736365 -0.9418782647
H   2.3042993850 -0.7145852857  0.3293591392
7
Iter 153  Energy = -29.6073422498
C   0.8776251135  0.7840162166 -0.1647081855
H   0.7035895850  1.5644711684 -0.9174314636
O   0.5215623584  0.9676265927  1.1217356527
C   1.3512871181 -0.5559006785 -0.1945992569
H   0.7778778209 -0.2479854878  1.0614554671
H   1.0649630630 -1.3073121101 -0.9418236660
H   2.3043365692 -0.7145490485  0.3293106972
7
Iter 154  Energy = -29.6073423690
C   0.8776190530  0.7840164951 -0.1647143205
H   0.7036398477  1.5645080400 -0.9174142660
O   0.5215165238  0.9675989387  1.1217237126
C   1.3512931073 -0.5559012469 -0.1946008992
H   0.7778722675 -0.2479921949  1.0614519180
H   1.0649272805 -1.3073502565 -0.9417694443
H   2.3043735489 -0.7145131247  0.3292625437
7
Iter 155  Energy = -29.6073424584
C   0.8776130299  0.7840167556 -0.1647203807
H   0.7036897856  1.5645446301 -0.9173972085
O   0.5214709282  0.9675714855  1.1217118434
C   1.3512990688 -0.5559018159 -0.1946025261
H   0.7778667738 -0.2479988142  1.0614484520
H   1.0648917414 -1.3073880842 -0.9417156034
H   2.3044103004 -0.7144775049  0.3292146677
7
Iter 156  Energy = -29.6073425776
C   0.8776070307  0.7840170319 -0.1647264189
H   0.7037394061  1.5645809216 -0.9173802640
O   0.5214255690  0.9675442352  1.1217000487
C   1.3513050012 -0.5559023791 -0.1946041246
H   0.7778613425 -0.2480053636  1.0614450774
H   1.0648564434 -1.3074256014 -0.9416621469
H   2.3044468351 -0.7144421922  0.3291670731
7
Iter 157  Energy = -29.6073427266
C   0.8776010575  0.7840172905 -0.1647323769
H   0.7037887080  1.5646169432 -0.9173634689
O   0.5213804498  0.9675171880  1.1216883292
C   1.3513109160 -0.5559029546 -0.1946056557
H   0.7778559836 -0.2480118462  1.0614417378
H   1.0648213830 -1.3074627972 -0.9416090630
H   2.3044831293 -0.7144071714  0.3291197423
7
Iter 158  Energy = -29.6073428011
C   0.8775951219  0.7840175491 -0.1647383137
H   0.7038376968  1.5646526710 -0.9173467814
O   0.5213355623  0.9674903413  1.1216766926
C   1.3513167667 -0.5559035015 -0.1946071720
H   0.7778506857 -0.2480182552  1.0614384810
H   1.0647865635 -1.3074996984 -0.9415563622
H   2.3045192299 -0.7143724535  0.3290727010
7
Iter 159  Energy = -29.6073429352
C   0.8775892138  0.7840177930 -0.1647441748
H   0.7038863708  1.5646881269 -0.9173302278
O   0.5212909128  0.9674637070  1.1216651127
C   1.3513225815 -0.5559040303 -0.1946086565
H   0.7778454458 -0.2480246080  1.0614353005
H   1.0647519665 -1.3075363092 -0.9415040514
H   2.3045551358 -0.7143380277  0.3290259449
7
Iter 160  Energy = -29.6073430693
C   0.8775833287  0.7840180257 -0.1647499466
H   0.7039347276  1.5647233281 -0.9173138254
O   0.5212465101  0.9674372621  1.1216535854
C   1.3513283809 -0.5559045824 -0.1946100955
H   0.7778402700 -0.2480309010  1.0614321664
H   1.0647176052 -1.3075725938 -0.9414520892
H   2.3045908034 -0.7143038866  0.3289794511
7
Iter 161  Energy = -29.6073431438
C   0.8775774835  0.7840182466 -0.1647556897
H   0.7039827743  1.5647582399 -0.9172975211
O   0.5212023328  0.9674110272  1.1216421401
C   1.3513341381 -0.5559051127 -0.1946114988
H   0.7778351558 -0.2480371216  1.0614290852
H   1.0646834700 -1.3076085946 -0.9414005040
H   2.3046262719 -0.7142700330  0.3289332347
7
Iter 162  Energy = -29.6073432928
C   0.8775716534  0.7840184925 -0.1647613886
H   0.7040305132  1.5647928789 -0.9172813372
O   0.5211584014  0.9673849718  1.1216307503
C   1.3513398817 -0.5559056525 -0.1946128495
H   0.7778300968 -0.2480432747  1.0614260763
H   1.0646495632 -1.3076442989 -0.9413492905
H   2.3046615173 -0.7142364655  0.3288872846
7
Iter 163  Energy = -29.6073433673
C   0.8775658626  0.7840187186 -0.1647670057
H   0.7040779415  1.5648272648 -0.9172652903
O   0.5211147076  0.9673591051  1.1216194141
C   1.3513455635 -0.5559061767 -0.1946142030
H   0.7778250924 -0.2480493625  1.0614231484
H   1.0646158856 -1.3076797174 -0.9412984397
H   2.3046965739 -0.7142031791  0.3288416222
7
Iter 164  Energy = -29.6073435015
C   0.8775600919  0.7840189699 -0.1647725912
H   0.7041250678  1.5648613757 -0.9172493633
O   0.5210712504  0.9673334200  1.1216081591
C   1.3513512368 -0.5559067228 -0.1946155166
H   0.7778201417 -0.2480553823  1.0614202828
H   1.0645824378 -1.3077148391 -0.9412479407
H   2.3047314006 -0.7141701687  0.3287962171
7
Iter 165  Energy = -29.6073436058
C   0.8775543725  0.7840191492 -0.1647781222
H   0.7041718900  1.5648952318 -0.9172335597
O   0.5210280200  0.9673079397  1.1215969824
C   1.3513568573 -0.5559072127 -0.1946167943
H   0.7778152479 -0.2480613435  1.0614174592
H   1.0645492099 -1.3077496781 -0.9411977999
H   2.3047660294 -0.7141374327  0.3287510816
7
Iter 166  Energy = -29.6073436803
C   0.8775486729  0.7840193735 -0.1647836333
H   0.7042184118  1.5649288203 -0.9172178677
O   0.5209850130  0.9672826550  1.1215859011
C   1.3513624477 -0.5559077403 -0.1946180490
H   0.7778104113 -0.2480672471  1.0614146905
H   1.0645162062 -1.3077842345 -0.9411480109
H   2.3048004635 -0.7141049733  0.3287062180
7
Iter 167  Energy = -29.6073437846
C   0.8775430010  0.7840195740 -0.1647890628
H   0.7042646301  1.5649621747 -0.9172023192
O   0.5209422527  0.9672575470  1.1215748612
C   1.3513680261 -0.5559082582 -0.1946192448
H   0.7778056257 -0.2480730979  1.0614119856
H   1.0644834206 -1.3078185106 -0.9410985808
H   2.3048346707 -0.7140727755  0.3286616094
7
Iter 168  Energy = -29.6073439187
C   0.8775373656  0.7840197841 -0.1647944269
H   0.7043105470  1.5649952698 -0.9171868845
O   0.5208997262  0.9672326421  1.1215638674
C   1.3513735262 -0.5559087614 -0.1946204068
H   0.7778009019 -0.2480789280  1.0614093057
H   1.0644508539 -1.3078525062 -0.9410494843
H   2.3048687063 -0.7140408464  0.3286172774
7
Iter 169  Energy = -29.6073439634
C   0.8775317535  0.7840199822 -0.1647997195
H   0.7043561710  1.5650281133 -0.9171715757
O   0.5208574359  0.9672079021  1.1215529386
C   1.3513790168 -0.5559092649 -0.1946215578
H   0.7777962216 -0.2480846716  1.0614066959
H   1.0644185091 -1.3078862288 -0.9410007337
H   2.3049025191 -0.7140091775  0.3285732006
7
Iter 170  Energy = -29.6073441273
C   0.8775261670  0.7840201865 -0.1648049803
H   0.7044014995  1.5650607049 -0.9171563713
O   0.5208153778  0.9671833517  1.1215420752
C   1.3513844869 -0.5559097805 -0.1946226624
H   0.7777915957 -0.2480903684  1.0614041300
H   1.0643863761 -1.3079196722 -0.9409523273
H   2.3049361243 -0.7139777677  0.3285293852
7
Iter 171  Energy = -29.6073441869
C   0.8775206211  0.7840203788 -0.1648102360
H   0.7044465386  1.5650930367 -0.9171412685
O   0.5207735465  0.9671589767  1.1215312980
C   1.3513899270 -0.5559102715 -0.1946237277
H   0.7777870139 -0.2480960025  1.0614016283
H   1.0643544551 -1.3079528510 -0.9409042698
H   2.3049695251 -0.7139466132  0.3284858253
7
Iter 172  Energy = -29.6073442465
C   0.8775150962  0.7840205816 -0.1648154264
H   0.7044912879  1.5651251224 -0.9171262945
O   0.5207319505  0.9671347722  1.1215205855
C   1.3513953482 -0.5559107716 -0.1946247817
H   0.7777824768 -0.2481015805  1.0613991843
H   1.0643227492 -1.3079857578 -0.9408565417
H   2.3050027181 -0.7139157131  0.3284425252
7
Iter 1  Energy = -29.6072649276
C   0.8773533057  0.7830696590 -0.1628286323
H   0.6911213452  1.5541140978 -0.9220433934
O   0.5295703200  0.9764086324  1.1235463771
C   1.3488657520 -0.5563568066 -0.1923095889
H   0.7828218533 -0.2433897540  1.0661293635
H   1.0762974441 -1.2944993514 -0.9582299912
H   2.2952116028 -0.7289798236  0.3396751184
7
Iter 2  Energy = -29.6072664028
C   0.8773824035  0.7831675625 -0.1628556697
H   0.6912509937  1.5541761281 -0.9220139399
O   0.5295259942  0.9763644115  1.1236058482
C   1.3489604511 -0.5563972266 -0.1924099785
H   0.7827114021 -0.2435609376  1.0660209356
H   1.0761151982 -1.2946579124 -0.9580231671
H   2.2952951797 -0.7287253723  0.3396152250
7
Iter 3  Energy = -29.6072681016
C   0.8774395716  0.7831419407 -0.1628131914
H   0.6913692253  1.5542801318 -0.9220137298
O   0.5294903076  0.9763066707  1.1236253297
C   1.3490219959 -0.5563221689 -0.1924734315
H   0.7826039818 -0.2437150953  1.0658999916
H   1.0759309970 -1.2948421532 -0.9578380969
H   2.2953855437 -0.7284826717  0.3395523821
7
Iter 4  Energy = -29.6072696811
C   0.8774663002  0.7832281401 -0.1628384504
H   0.6914963479  1.5543459768 -0.9219784137
O   0.5294530927  0.9762367179  1.1236634883
C   1.3490966856 -0.5563431325 -0.1925554284
H   0.7824969150 -0.2438593745  1.0657955933
H   1.0757587227 -1.2949995090 -0.9576377658
H   2.2954735586 -0.7282421646  0.3394902299
7
Iter 5  Energy = -29.6072713053
C   0.8775156780  0.7832141806 -0.1628082612
H   0.6916138753  1.5544460946 -0.9219678205
O   0.5294213966  0.9761597229  1.1236723718
C   1.3491464316 -0.5562755865 -0.1926088703
H   0.7823931848 -0.2439913024  1.0656812406
H   1.0755856698 -1.2951752841 -0.9574546485
H   2.2955653868 -0.7280111701  0.3394252404
7
Iter 6  Energy = -29.6072728252
C   0.8775408430  0.7832888141 -0.1628322348
H   0.6917381855  1.5545164741 -0.9219298115
O   0.5293871585  0.9760762971  1.1236977379
C   1.3492077243 -0.5562871328 -0.1926774532
H   0.7822906871 -0.2441171716  1.0655794887
H   1.0754225185 -1.2953284434 -0.9572588573
H   2.2956545067 -0.7277821829  0.3393603810
7
Iter 7  Energy = -29.6072742707
C   0.8775844450  0.7832820646 -0.1628124321
H   0.6918545490  1.5546149161 -0.9219119853
O   0.5293565486  0.9759880307  1.1237010072
C   1.3492501659 -0.5562290018 -0.1927243069
H   0.7821909600 -0.2442323111  1.0654710450
H   1.0752591573 -1.2954958328 -0.9570770304
H   2.2957457979 -0.7275612106  0.3392929551
7
Iter 8  Energy = -29.6072757161
C   0.8776086514  0.7833457389 -0.1628360774
H   0.6919761370  1.5546899122 -0.9218724709
O   0.5293231618  0.9758962206  1.1237181722
C   1.3493024409 -0.5562351341 -0.1927835428
H   0.7820927321 -0.2443431119  1.0653729571
H   1.0751040538 -1.2956446715 -0.9568851989
H   2.2958344460 -0.7273422990  0.3392254129
7
Iter 9  Energy = -29.6072770870
C   0.8776476239  0.7833436370 -0.1628248661
H   0.6920911894  1.5547876613 -0.9218492987
O   0.5292921695  0.9758012730  1.1237181444
C   1.3493401863 -0.5561859382 -0.1928257576
H   0.7819970047 -0.2444450087  1.0652702993
H   1.0749491210 -1.2958046595 -0.9567049014
H   2.2959243283 -0.7271303095  0.3391556336
7
Iter 10  Energy = -29.6072784728
C   0.8776709671  0.7833976479 -0.1628484664
H   0.6922102716  1.5548667921 -0.9218088752
O   0.5292584830  0.9757044068  1.1237295142
C   1.3493860533 -0.5561886571 -0.1928780396
H   0.7819028804 -0.2445435135  1.0651763534
H   1.0748011353 -1.2959495236 -0.9565168909
H   2.2960118327 -0.7269204962  0.3390856587
7
Iter 11  Energy = -29.6072797543
C   0.8777060623  0.7833986114 -0.1628441955
H   0.6923239772  1.5549642788 -0.9217816159
O   0.5292263414  0.9756056193  1.1237272970
C   1.3494204614 -0.5561472568 -0.1929168955
H   0.7818110616 -0.2446346618  1.0650793476
H   1.0746536087 -1.2961031637 -0.9563385072
H   2.2961001104 -0.7267167706  0.3390138232
7
Iter 12  Energy = -29.6072809762
C   0.8777284676  0.7834443858 -0.1628678346
H   0.6924407856  1.5550468835 -0.9217405606
O   0.5291916937  0.9755059828  1.1237342606
C   1.3494615151 -0.5561476954 -0.1929638413
H   0.7817208897 -0.2447230981  1.0649897665
H   1.0745119513 -1.2962444645 -0.9561543066
H   2.2961863194 -0.7265153375  0.3389417694
7
Iter 13  Energy = -29.6072823024
C   0.8777601537  0.7834473485 -0.1628690703
H   0.6925531665  1.5551442533 -0.9217101156
O   0.5291580078  0.9754053013  1.1237303052
C   1.3494934302 -0.5561128430 -0.1930000755
H   0.7816328846 -0.2448054783  1.0648982179
H   1.0743709643 -1.2963925940 -0.9559781866
H   2.2962730157 -0.7263193322  0.3388681791
7
Iter 14  Energy = -29.6072834349
C   0.8777814794  0.7834862566 -0.1628927862
H   0.6926679392  1.5552296363 -0.9216685943
O   0.5291220442  0.9753043695  1.1237337717
C   1.3495308054 -0.5561117070 -0.1930427811
H   0.7815464894 -0.2448855173  1.0648130960
H   1.0742349851 -1.2965306887 -0.9557977883
H   2.2963578795 -0.7261256955  0.3387943375
7
Iter 15  Energy = -29.6072846419
C   0.8778101177  0.7834905934 -0.1628983811
H   0.6927790351  1.5553268980 -0.9216356188
O   0.5290865924  0.9752031220  1.1237283760
C   1.3495608598 -0.5560822769 -0.1930768906
H   0.7814621778 -0.2449606290  1.0647267586
H   1.0740998280 -1.2966741126 -0.9556242211
H   2.2964430113 -0.7259369426  0.3387192317
7
Iter 16  Energy = -29.6072857893
C   0.8778302636  0.7835237769 -0.1629220067
H   0.6928919549  1.5554144726 -0.9215937464
O   0.5290490815  0.9751020907  1.1237288866
C   1.3495952638 -0.5560800400 -0.1931162173
H   0.7813794735 -0.2450337511  1.0646459731
H   1.0739689821 -1.2968092919 -0.9554475572
H   2.2965266027 -0.7257506035  0.3386439243
7
Iter 17  Energy = -29.6072869068
C   0.8778561342  0.7835290550 -0.1629310036
H   0.6930018124  1.5555115806 -0.9215587777
O   0.5290117653  0.9750011768  1.1237222445
C   1.3496237752 -0.5560551277 -0.1931485951
H   0.7812987428 -0.2451027239  1.0645645581
H   1.0738390830 -1.2969486106 -0.9552767433
H   2.2966103097 -0.7255686963  0.3385675730
7
Iter 18  Energy = -29.6072880691
C   0.8778750133  0.7835575186 -0.1629544913
H   0.6931130377  1.5556008284 -0.9215166519
O   0.5289725935  0.9749008215  1.1237202907
C   1.3496557371 -0.5560521293 -0.1931850828
H   0.7812196161 -0.2451700150  1.0644879365
H   1.0737129247 -1.2970811462 -0.9551037947
H   2.2966927005 -0.7253892236  0.3384910497
7
Iter 19  Energy = -29.6072890824
C   0.8778983286  0.7835635222 -0.1629661851
H   0.6932217073  1.5556976608 -0.9214800664
O   0.5289334025  0.9748008971  1.1237125079
C   1.3496828907 -0.5560309434 -0.1932159137
H   0.7811423742 -0.2452338347  1.0644111114
H   1.0735877976 -1.2972168503 -0.9549358881
H   2.2967751222 -0.7252137975  0.3384136894
7
Iter 20  Energy = -29.6072901404
C   0.8779158632  0.7835881185 -0.1629894496
H   0.6933313792  1.5557881004 -0.9214377359
O   0.5288925497  0.9747017281  1.1237084072
C   1.3497127780 -0.5560274768 -0.1932499995
H   0.7810667034 -0.2452961249  1.0643384325
H   1.0734659548 -1.2973468975 -0.9547665713
H   2.2968563947 -0.7250407954  0.3383361721
7
Iter 21  Energy = -29.6072911686
C   0.8779368268  0.7835945773 -0.1630032002
H   0.6934388968  1.5558845957 -0.9213999100
O   0.5288515064  0.9746032203  1.1236995923
C   1.3497388079 -0.5560094057 -0.1932794460
H   0.7809928239 -0.2453554847  1.0642659256
H   1.0733451886 -1.2974793491 -0.9546016668
H   2.2969375722 -0.7248715016  0.3382579626
7
Iter 22  Energy = -29.6072921819
C   0.8779530093  0.7836159557 -0.1630262414
H   0.6935471205  1.5559758763 -0.9213574728
O   0.5288089579  0.9745056203  1.1236937052
C   1.3497669287 -0.5560056473 -0.1933114632
H   0.7809204886 -0.2454134639  1.0641970233
H   1.0732273302 -1.2976070754 -0.9544359418
H   2.2970177873 -0.7247046127  0.3381796482
7
Iter 23  Energy = -29.6072931206
C   0.8779718195  0.7836226952 -0.1630415820
H   0.6936535152  1.5560719441 -0.9213186785
O   0.5287661055  0.9744088385  1.1236839673
C   1.3497918684 -0.5559901695 -0.1933396582
H   0.7808498662 -0.2454689494  1.0641285018
H   1.0731105981 -1.2977365573 -0.9542740643
H   2.2970978489 -0.7245411479  0.3381007685
7
Iter 24  Energy = -29.6072940445
C   0.8779866326  0.7836414422 -0.1630643304
H   0.6937603858  1.5561637228 -0.9212762009
O   0.5287219105  0.9743130496  1.1236765096
C   1.3498184593 -0.5559862803 -0.1933698284
H   0.7807807497 -0.2455231981  1.0640631310
H   1.0729964494 -1.2978620436 -0.9541118188
H   2.2971770345 -0.7243800380  0.3380217925
7
Iter 25  Energy = -29.6072950429
C   0.8780034446  0.7836483016 -0.1630808226
H   0.6938656810  1.5562592893 -0.9212366638
O   0.5286773412  0.9742181743  1.1236658612
C   1.3498424276 -0.5559729787 -0.1933968695
H   0.7807132605 -0.2455752655  1.0639983481
H   1.0728834440 -1.2979887635 -0.9539529781
H   2.2972560230 -0.7242221023  0.3379423775
7
Iter 26  Energy = -29.6072959518
C   0.8780169152  0.7836648209 -0.1631032617
H   0.6939712699  1.5563513017 -0.9211941983
O   0.5286315490  0.9741243761  1.1236570423
C   1.3498676698 -0.5559690764 -0.1934254259
H   0.7806472415 -0.2456262299  1.0639363322
H   1.0727727527 -1.2981120785 -0.9537941294
H   2.2973342234 -0.7240664589  0.3378628943
7
Iter 27  Energy = -29.6072967863
C   0.8780318847  0.7836717361 -0.1631206642
H   0.6940754979  1.5564462700 -0.9211541274
O   0.5285853243  0.9740315483  1.1236456471
C   1.3498907169 -0.5559576203 -0.1934513799
H   0.7805827789 -0.2456753015  1.0638750068
H   1.0726632189 -1.2982361988 -0.9536382939
H   2.2974121997 -0.7239137781  0.3377830655
7
Iter 28  Energy = -29.6072976953
C   0.8780440243  0.7836864208 -0.1631428036
H   0.6941798719  1.5565382634 -0.9211117043
O   0.5285380157  0.9739397950  1.1236356346
C   1.3499147472 -0.5559537887 -0.1934784866
H   0.7805197281 -0.2457233207  1.0638161505
H   1.0725557779 -1.2983573769 -0.9534827279
H   2.2974894559 -0.7237633384  0.3377031910
7
Iter 29  Energy = -29.6072985596
C   0.8780572727  0.7836932931 -0.1631607735
H   0.6942830494  1.5566325731 -0.9210712766
O   0.5284902513  0.9738490686  1.1236234877
C   1.3499369517 -0.5559438890 -0.1935033888
H   0.7804581682 -0.2457696988  1.0637580337
H   1.0724494824 -1.2984790395 -0.9533298750
H   2.2975664453 -0.7236156533  0.3376230448
7
Iter 30  Energy = -29.6072993791
C   0.8780681409  0.7837063977 -0.1631825688
H   0.6943862507  1.5567243854 -0.9210289759
O   0.5284414932  0.9737594528  1.1236124530
C   1.3499598865 -0.5559401888 -0.1935291386
H   0.7803979812 -0.2458151196  1.0637021046
H   1.0723450909 -1.2985981316 -0.9531774994
H   2.2976427777 -0.7234701413  0.3375428767
7
Iter 31  Energy = -29.6073002434
C   0.8780797969  0.7837131471 -0.1632009646
H   0.6944884007  1.5568179510 -0.9209883112
O   0.5283922731  0.9736708657  1.1235996577
C   1.3499813024 -0.5559316055 -0.1935530379
H   0.7803392072 -0.2458590680  1.0636469855
H   1.0722418229 -1.2987174274 -0.9530275896
H   2.2977188180 -0.7233272093  0.3374625108
7
Iter 32  Energy = -29.6073010927
C   0.8780894283  0.7837249547 -0.1632224050
H   0.6945904753  1.5569093907 -0.9209461662
O   0.5283421610  0.9735833784  1.1235877080
C   1.3500032379 -0.5559280910 -0.1935775717
H   0.7802817545 -0.2459021388  1.0635938328
H   1.0721403022 -1.2988344585 -0.9528783032
H   2.2977942623 -0.7231863825  0.3373821552
7
Iter 33  Energy = -29.6073018080
C   0.8780995915  0.7837316006 -0.1632410435
H   0.6946916134  1.5570021497 -0.9209053969
O   0.5282915803  0.9734970006  1.1235743016
C   1.3500238880 -0.5559206330 -0.1936004393
H   0.7802256884 -0.2459440128  1.0635414503
H   1.0720398833 -1.2989514772 -0.9527312639
H   2.2978693755 -0.7230479742  0.3373016417
7
Iter 34  Energy = -29.6073025829
C   0.8781080191  0.7837423501 -0.1632621633
H   0.6947926029  1.5570930729 -0.9208634561
O   0.5282401990  0.9734116848  1.1235615828
C   1.3500448993 -0.5559173742 -0.1936237833
H   0.7801708810 -0.2459850372  1.0634908637
H   1.0719410848 -1.2990664467 -0.9525849614
H   2.2979439344 -0.7229115955  0.3372211680
7
Iter 35  Energy = -29.6073033130
C   0.8781168323  0.7837487565 -0.1632808944
H   0.6948927257  1.5571850187 -0.9208227135
O   0.5281883810  0.9733273761  1.1235476207
C   1.3500647794 -0.5559108702 -0.1936457600
H   0.7801173618 -0.2460248818  1.0634411251
H   1.0718433682 -1.2991812452 -0.9524407395
H   2.2980181727 -0.7227774998  0.3371406114
7
Iter 36  Energy = -29.6073041177
C   0.8781241322  0.7837585313 -0.1633016216
H   0.6949926502  1.5572753294 -0.9207810324
O   0.5281358365  0.9732441480  1.1235341906
C   1.3500849359 -0.5559078327 -0.1936680368
H   0.7800650600 -0.2460639640  1.0633930066
H   1.0717471454 -1.2992942032 -0.9522973588
H   2.2980918608 -0.7226453541  0.3370601020
7
Iter 37  Energy = -29.6073048329
C   0.8781316655  0.7837647606 -0.1633203948
H   0.6950917804  1.5573663597 -0.9207403534
O   0.5280828699  0.9731619093  1.1235197318
C   1.3501041429 -0.5559021928 -0.1936891252
H   0.7800139851 -0.2461019781  1.0633457394
H   1.0716519795 -1.2994068370 -0.9521558920
H   2.2981651979 -0.7225153682  0.3369795452
7
Iter 38  Energy = -29.6073056078
C   0.8781378905  0.7837737012 -0.1633407309
H   0.6951906577  1.5574559773 -0.9206989854
O   0.5280292551  0.9730807015  1.1235056915
C   1.3501234957 -0.5558994243 -0.1937104027
H   0.7799640762 -0.2461392656  1.0632999243
H   1.0715582032 -1.2995177762 -0.9520153146
H   2.2982380422 -0.7223872608  0.3368990707
7
Iter 39  Energy = -29.6073062635
C   0.8781442486  0.7837796986 -0.1633594715
H   0.6952888036  1.5575460607 -0.9206584541
O   0.5279752301  0.9730004857  1.1234907983
C   1.3501420578 -0.5558945102 -0.1937306355
H   0.7799153348 -0.2461755958  1.0632549792
H   1.0714654461 -1.2996282970 -0.9518765424
H   2.2983104997 -0.7222611892  0.3368185780
7
Iter 40  Energy = -29.6073069340
C   0.8781494664  0.7837879108 -0.1633794713
H   0.6953866604  1.5576348691 -0.9206173877
O   0.5279206201  0.9729212811  1.1234762299
C   1.3501607065 -0.5558919579 -0.1937509457
H   0.7798677102 -0.2462112525  1.0632113681
H   1.0713739821 -1.2997372736 -0.9517387223
H   2.2983824753 -0.7221369246  0.3367381815
7
Iter 41  Energy = -29.6073076344
C   0.8781547390  0.7837936553 -0.1633980841
H   0.6954838303  1.5577239718 -0.9205770874
O   0.5278656266  0.9728430347  1.1234609586
C   1.3501786229 -0.5558876726 -0.1937703670
H   0.7798212036 -0.2462460260  1.0631685844
H   1.0712835152 -1.2998457168 -0.9516025711
H   2.2984540833 -0.7220145920  0.3366578186
7
Iter 42  Energy = -29.6073082751
C   0.8781589950  0.7838012466 -0.1634177335
H   0.6955806860  1.5578118969 -0.9205363733
O   0.5278101071  0.9727657681  1.1234459534
C   1.3501965888 -0.5558853753 -0.1937897977
H   0.7797757614 -0.2462801659  1.0631270292
H   1.0711942567 -1.2999527140 -0.9514673947
H   2.2985252266 -0.7218940012  0.3365775679
7
Iter 43  Energy = -29.6073089159
C   0.8781632445  0.7838067455 -0.1634361667
H   0.6956768904  1.5578999765 -0.9204963417
O   0.5277542321  0.9726894342  1.1234303391
C   1.3502139346 -0.5558816544 -0.1938084017
H   0.7797313864 -0.2463134881  1.0630862510
H   1.0711059555 -1.3000591202 -0.9513337958
H   2.2985959784 -0.7217752384  0.3364973669
7
Iter 44  Energy = -29.6073096162
C   0.8781666106  0.7838137385 -0.1634554219
H   0.6957727503  1.5579869820 -0.9204560100
O   0.5276978876  0.9726140449  1.1234149213
C   1.3502312530 -0.5558795811 -0.1938269659
H   0.7796880315 -0.2463462130  1.0630466079
H   1.0710187863 -1.3001641682 -0.9512011947
H   2.2986663033 -0.7216581483  0.3364173137
7
Iter 45  Energy = -29.6073101974
C   0.8781699194  0.7838190144 -0.1634736923
H   0.6958679899  1.5580740124 -0.9204162890
O   0.5276412141  0.9725395488  1.1233990257
C   1.3502480191 -0.5558763824 -0.1938448298
H   0.7796456807 -0.2463781746  1.0630077725
H   1.0709325512 -1.3002685629 -0.9510700866
H   2.2987362483 -0.7215428021  0.3363373497
7
Iter 46  Energy = -29.6073107785
C   0.8781724606  0.7838254607 -0.1634925948
H   0.6959628640  1.5581600553 -0.9203763638
O   0.5275841176  0.9724659481  1.1233833009
C   1.3502647785 -0.5558745419 -0.1938625938
H   0.7796042983 -0.2464095141  1.0629699892
H   1.0708473821 -1.3003717043 -0.9509400120
H   2.2988057211 -0.7214290508  0.3362575240
7
Iter 47  Energy = -29.6073113596
C   0.8781748917  0.7838304970 -0.1635106408
H   0.6960571537  1.5582459963 -0.9203369829
O   0.5275267206  0.9723932312  1.1233671674
C   1.3502810222 -0.5558717805 -0.1938797244
H   0.7795638837 -0.2464401830  1.0629329508
H   1.0707631112 -1.3004741406 -0.9508113417
H   2.2988748385 -0.7213169661  0.3361778222
7
Iter 48  Energy = -29.6073120153
C   0.8781766366  0.7838364799 -0.1635291444
H   0.6961510564  1.5583310244 -0.9202974902
O   0.5274689653  0.9723213772  1.1233511180
C   1.3502972074 -0.5558701515 -0.1938967225
H   0.7795243914 -0.2464703009  1.0628968932
H   1.0706798476 -1.3005753566 -0.9506836890
H   2.2989435166 -0.7212064186  0.3360982856
7
Iter 49  Energy = -29.6073126262
C   0.8781782605  0.7838412767 -0.1635469376
H   0.6962443910  1.5584158626 -0.9202584746
O   0.5274109418  0.9722503521  1.1233347236
C   1.3503129743 -0.5558677523 -0.1939131321
H   0.7794858103 -0.2464997621  1.0628615929
H   1.0705974415 -1.3006758717 -0.9505574047
H   2.2990118024 -0.7210974520  0.3360188844
7
Iter 50  Energy = -29.6073131627
C   0.8781792749  0.7838468805 -0.1635651128
H   0.6963373301  1.5584998320 -0.9202194060
O   0.5273525894  0.9721801600  1.1233184303
C   1.3503286300 -0.5558663473 -0.1939294139
H   0.7794481101 -0.2465286854  1.0628272095
H   1.0705159996 -1.3007752229 -0.9504321320
H   2.2990796881 -0.7209899642  0.3359396759
7
Iter 51  Energy = -29.6073137736
C   0.8781801514  0.7838514498 -0.1635826219
H   0.6964297190  1.5585835516 -0.9201808014
O   0.5272940010  0.9721107654  1.1233018376
C   1.3503438875 -0.5558642892 -0.1939451493
H   0.7794112819 -0.2465569954  1.0627935236
H   1.0704353875 -1.3008738394 -0.9503081640
H   2.2991471938 -0.7208839884  0.3358606268
7
Iter 52  Energy = -29.6073142654
C   0.8781804765  0.7838566735 -0.1636004127
H   0.6965216970  1.5586664651 -0.9201422118
O   0.5272351202  0.9720422013  1.1232853409
C   1.3503590614 -0.5558630920 -0.1939607247
H   0.7793752950 -0.2465848247  1.0627606811
H   1.0703556815 -1.3009713355 -0.9501851950
H   2.2992142907 -0.7207794334  0.3357817755
7
Iter 53  Energy = -29.6073148614
C   0.8781806526  0.7838610125 -0.1636176500
H   0.6966131411  1.5587490662 -0.9201040439
O   0.5271760287  0.9719744199  1.1232685988
C   1.3503738976 -0.5558613677 -0.1939758049
H   0.7793401351 -0.2466120971  1.0627285232
H   1.0702767759 -1.3010680587 -0.9500634617
H   2.2992809913 -0.7206763211  0.3357030929
7
Iter 54  Energy = -29.6073153383
C   0.8781803510  0.7838658656 -0.1636351027
H   0.6967041679  1.5588308871 -0.9200659304
O   0.5271166841  0.9719074245  1.1232519350
C   1.3503886051 -0.5558603100 -0.1939907095
H   0.7793057762 -0.2466389009  1.0626971742
H   1.0701987334 -1.3011637322 -0.9499427402
H   2.2993473048 -0.7205745789  0.3356246291
7
Iter 55  Energy = -29.6073158449
C   0.8781798853  0.7838699979 -0.1636520544
H   0.6967946753  1.5589123372 -0.9200281985
O   0.5270571538  0.9718411822  1.1232350627
C   1.3504030302 -0.5558588608 -0.1940051794
H   0.7792722043 -0.2466651617  1.0626664870
H   1.0701214632 -1.3012586315 -0.9498232128
H   2.2994132101 -0.7204742078  0.3355463502
7
Iter 56  Energy = -29.6073164260
C   0.8781789904  0.7838745524 -0.1636691538
H   0.6968847563  1.5589930379 -0.9199905552
O   0.5269974134  0.9717756948  1.1232182365
C   1.3504173039 -0.5558579961 -0.1940194621
H   0.7792393935 -0.2466909885  1.0626365526
H   1.0700450125 -1.3013524955 -0.9497046759
H   2.2994787522 -0.7203751494  0.3354683130
7
Iter 57  Energy = -29.6073167986
C   0.8781779315  0.7838784945 -0.1636858821
H   0.6969743303  1.5590733398 -0.9199532860
O   0.5269375251  0.9717108362  1.1232012881
C   1.3504313530 -0.5558567986 -0.1940333870
H   0.7792072943 -0.2467162098  1.0626073509
H   1.0699693117 -1.3014455908 -0.9495873064
H   2.2995438766 -0.7202774162  0.3353904792
7
Iter 58  Energy = -29.6073173499
C   0.8781765208  0.7838826784 -0.1637026647
H   0.6970634638  1.5591529395 -0.9199161392
O   0.5268774490  0.9716467320  1.1231843744
C   1.3504452458 -0.5558560282 -0.1940471131
H   0.7791759249 -0.2467410077  1.0625788426
H   1.0698943931 -1.3015377161 -0.9494709342
H   2.2996086254 -0.7201809429  0.3353128891
7
Iter 59  Energy = -29.6073178864
C   0.8781749409  0.7838863969 -0.1637190788
H   0.6971520992  1.5592320987 -0.9198793471
O   0.5268172447  0.9715833126  1.1231673245
C   1.3504588635 -0.5558550321 -0.1940604703
H   0.7791452649 -0.2467653569  1.0625509526
H   1.0698202007 -1.3016290332 -0.9493556491
H   2.2996730086 -0.7200857300  0.3352355249
7
Iter 60  Energy = -29.6073183483
C   0.8781730017  0.7838903822 -0.1637355340
H   0.6972403012  1.5593105577 -0.9198426973
O   0.5267568910  0.9715206148  1.1231503121
C   1.3504723609 -0.5558544534 -0.1940736235
H   0.7791152994 -0.2467893123  1.0625237250
H   1.0697467584 -1.3017194006 -0.9492413368
H   2.2997370102 -0.7199917334  0.3351584088
7
Iter 61  Energy = -29.6073188400
C   0.8781709076  0.7838939034 -0.1637516240
H   0.6973280042  1.5593885655 -0.9198063873
O   0.5266964341  0.9714585973  1.1231331748
C   1.3504856003 -0.5558536428 -0.1940864266
H   0.7790860116 -0.2468128386  1.0624970745
H   1.0696740072 -1.3018089756 -0.9491281000
H   2.2998006574 -0.7198989523  0.3350815427
7
Iter 62  Energy = -29.6073193020
C   0.8781684989  0.7838976287 -0.1637677125
H   0.6974152665  1.5594659063 -0.9197702495
O   0.5266358547  0.9713972668  1.1231160739
C   1.3504987417 -0.5558531912 -0.1940990088
H   0.7790573835 -0.2468359827  1.0624710477
H   1.0696019721 -1.3018976347 -0.9490158201
H   2.2998639042 -0.7198073355  0.3350049224
7
Iter 63  Energy = -29.6073197639
C   0.8781659402  0.7839009605 -0.1637835125
H   0.6975020420  1.5595427754 -0.9197344453
O   0.5265751791  0.9713366114  1.1230989286
C   1.3505116289 -0.5558525860 -0.1941112880
H   0.7790294027 -0.2468587213  1.0624455740
H   1.0695306126 -1.3019854968 -0.9489045734
H   2.2999268155 -0.7197168857  0.3349285695
7
Iter 64  Energy = -29.6073201960
C   0.8781630858  0.7839044662 -0.1637992534
H   0.6975883800  1.5596189776 -0.9196988207
O   0.5265144246  0.9712765949  1.1230817707
C   1.3505244056 -0.5558522712 -0.1941233568
H   0.7790020451 -0.2468810940  1.0624207016
H   1.0694599437 -1.3020724584 -0.9487942580
H   2.2999893353 -0.7196275571  0.3348524706
7
Iter 65  Energy = -29.6073206282
C   0.8781601000  0.7839076137 -0.1638147332
H   0.6976742346  1.5596946970 -0.9196635208
O   0.5264536037  0.9712172080  1.1230645800
C   1.3505369585 -0.5558517754 -0.1941351193
H   0.7789752923 -0.2469030675  1.0623963797
H   1.0693899196 -1.3021586666 -0.9486849743
H   2.3000515119 -0.7195393512  0.3347766432
7
Iter 66  Energy = -29.6073211348
C   0.8781568445  0.7839109370 -0.1638301882
H   0.6977596441  1.5597697680 -0.9196284099
O   0.5263927162  0.9711584467  1.1230474296
C   1.3505494196 -0.5558516178 -0.1941466917
H   0.7789491316 -0.2469246849  1.0623726243
H   1.0693205630 -1.3022439713 -0.9485765927
H   2.3001133013 -0.7194522203  0.3347010851
7
Iter 67  Energy = -29.6073214775
C   0.8781534608  0.7839139218 -0.1638453734
H   0.6978445722  1.5598443595 -0.9195936255
O   0.5263317884  0.9711002985  1.1230302326
C   1.3505616632 -0.5558512833 -0.1941579467
H   0.7789235517 -0.2469459387  1.0623493762
H   1.0692518308 -1.3023285235 -0.9484692065
H   2.3001747534 -0.7193661793  0.3346257993
7
Iter 68  Energy = -29.6073219395
C   0.8781498399  0.7839170471 -0.1638605406
H   0.6979290650  1.5599182922 -0.9195590219
O   0.5262708070  0.9710427795  1.1230130906
C   1.3505738151 -0.5558512110 -0.1941690094
H   0.7788985391 -0.2469668712  1.0623266683
H   1.0691837346 -1.3024122152 -0.9483627195
H   2.3002358200 -0.7192811657  0.3345507884
7
Iter 69  Energy = -29.6073223716
C   0.8781460940  0.7839198528 -0.1638754073
H   0.6980130743  1.5599917472 -0.9195247349
O   0.5262098154  0.9709858524  1.1229958780
C   1.3505857614 -0.5558510131 -0.1941798047
H   0.7788740783 -0.2469874512  1.0623044400
H   1.0691162455 -1.3024951357 -0.9482571804
H   2.3002965520 -0.7191971954  0.3344760657
7
Iter 70  Energy = -29.6073227590
C   0.8781421338  0.7839227732 -0.1638902592
H   0.6980966464  1.5600645665 -0.9194906471
O   0.5261487911  0.9709295196  1.1229787369
C   1.3505975951 -0.5558510367 -0.1941904218
H   0.7788501539 -0.2470077141  1.0622827362
H   1.0690493764 -1.3025772222 -0.9481525221
H   2.3003569245 -0.7191142302  0.3344016317
7
Iter 71  Energy = -29.6073231912
C   0.8781380617  0.7839254254 -0.1639048554
H   0.6981797449  1.5601368799 -0.9194568548
O   0.5260877711  0.9708737478  1.1229615545
C   1.3506092560 -0.5558509441 -0.1942007741
H   0.7788267507 -0.2470276229  1.0622615011
H   1.0689830900 -1.3026585679 -0.9480488041
H   2.3004169472 -0.7190322609  0.3343274861
7
Iter 72  Energy = -29.6073235935
C   0.8781337774  0.7839282030 -0.1639193781
H   0.6982624059  1.5602085704 -0.9194232801
O   0.5260267567  0.9708185327  1.1229444154
C   1.3506208141 -0.5558510658 -0.1942109307
H   0.7788038599 -0.2470472275  1.0622407492
H   1.0689174006 -1.3027391001 -0.9479459547
H   2.3004766065 -0.7189512553  0.3342536326
7
Iter 73  Energy = -29.6073240107
C   0.8781293891  0.7839307273 -0.1639336424
H   0.6983445944  1.5602797690 -0.9193900091
O   0.5259657570  0.9707638954  1.1229272482
C   1.3506321957 -0.5558511035 -0.1942208612
H   0.7787814673 -0.2470665295  1.0622204439
H   1.0688522802 -1.3028188876 -0.9478440047
H   2.3005359368 -0.7188712139  0.3341800803
7
Iter 74  Energy = -29.6073243833
C   0.8781248125  0.7839333612 -0.1639478642
H   0.6984263446  1.5603503502 -0.9193569560
O   0.5259047734  0.9707097917  1.1229101574
C   1.3506434811 -0.5558513316 -0.1942305747
H   0.7787595628 -0.2470855334  1.0622005718
H   1.0687877353 -1.3028978741 -0.9477428996
H   2.3005949106 -0.7187921070  0.3341068188
7
Iter 75  Energy = -29.6073247409
C   0.8781201444  0.7839357460 -0.1639618352
H   0.6985076221  1.5604204540 -0.9193242085
O   0.5258438269  0.9706562340  1.1228930469
C   1.3506545974 -0.5558514685 -0.1942400813
H   0.7787381248 -0.2471042309  1.0621811481
H   1.0687237433 -1.3029761439 -0.9476426842
H   2.3006535613 -0.7187139338  0.3340338681
7
Iter 76  Energy = -29.6073250389
C   0.8781153114  0.7839382227 -0.1639757762
H   0.6985884687  1.5604899220 -0.9192916473
O   0.5257829156  0.9706032034  1.1228759864
C   1.3506656220 -0.5558517432 -0.1942494050
H   0.7787171466 -0.2471226595  1.0621621767
H   1.0686603034 -1.3030536324 -0.9475432969
H   2.3007118526 -0.7186366573  0.3339612171
7
Iter 77  Energy = -29.6073254710
C   0.8781103894  0.7839404785 -0.1639894797
H   0.6986688486  1.5605589052 -0.9192593857
O   0.5257220508  0.9705507111  1.1228589358
C   1.3506765176 -0.5558519667 -0.1942585003
H   0.7786966193 -0.2471407935  1.0621435937
H   1.0685973988 -1.3031304062 -0.9474447716
H   2.3007697954 -0.7185602719  0.3338888626
7
Iter 78  Energy = -29.6073258585
C   0.8781053215  0.7839427813 -0.1640031059
H   0.6987487915  1.5606273001 -0.9192273487
O   0.5256612415  0.9704987171  1.1228419406
C   1.3506872820 -0.5558523070 -0.1942674226
H   0.7786765322 -0.2471586521  1.0621254254
H   1.0685350305 -1.3032064239 -0.9473470661
H   2.3008274205 -0.7184847592  0.3338168318
7
Iter 79  Energy = -29.6073262459
C   0.8781001499  0.7839449401 -0.1640164887
H   0.6988282767  1.5606951916 -0.9191955976
O   0.5256005114  0.9704472192  1.1228249219
C   1.3506979352 -0.5558526173 -0.1942761278
H   0.7786568666 -0.2471762296  1.0621076476
H   1.0684731784 -1.3032817430 -0.9472502027
H   2.3008847023 -0.7184101054  0.3337451030
7
Iter 80  Energy = -29.6073265737
C   0.8780948585  0.7839471341 -0.1640298446
H   0.6989073214  1.5607625106 -0.9191640673
O   0.5255398413  0.9703962071  1.1228079987
C   1.3507084684 -0.5558530516 -0.1942846674
H   0.7786376186 -0.2471935406  1.0620902723
H   1.0684118528 -1.3033563096 -0.9471541334
H   2.3009416596 -0.7183362958  0.3336736971
7
Iter 81  Energy = -29.6073269016
C   0.8780894897  0.7839491741 -0.1640429903
H   0.6989859116  1.5608293206 -0.9191328127
O   0.5254792605  0.9703456827  1.1227910671
C   1.3507188615 -0.5558534108 -0.1942930108
H   0.7786187726 -0.2472105995  1.0620732746
H   1.0683510313 -1.3034301899 -0.9470588795
H   2.3009982935 -0.7182633230  0.3336026053
7
Iter 82  Energy = -29.6073272145
C   0.8780840150  0.7839512031 -0.1640560478
H   0.6990640607  1.5608955802 -0.9191017853
O   0.5254187476  0.9702956746  1.1227742170
C   1.3507291580 -0.5558538957 -0.1943012318
H   0.7786003163 -0.2472274108  1.0620566679
H   1.0682907212 -1.3035033354 -0.9469644017
H   2.3010546021 -0.7181911615  0.3335318342
7
Iter 83  Energy = -29.6073275125
C   0.8780784646  0.7839530903 -0.1640689277
H   0.6991417592  1.5609613362 -0.9190710246
O   0.5253583399  0.9702461129  1.1227573847
C   1.3507393515 -0.5558543298 -0.1943092245
H   0.7785822458 -0.2472439474  1.0620404089
H   1.0682308986 -1.3035758055 -0.9468707310
H   2.3011105610 -0.7181198018  0.3334613683
7
Iter 84  Energy = -29.6073278701
C   0.8780727842  0.7839550836 -0.1640817362
H   0.6992190294  1.5610265156 -0.9190404856
O   0.5252980319  0.9701970003  1.1227406247
C   1.3507494342 -0.5558548797 -0.1943170528
H   0.7785645503 -0.2472602493  1.0620245039
H   1.0681715682 -1.3036475784 -0.9467778317
H   2.3011662228 -0.7180492370  0.3333912345
7
Iter 85  Energy = -29.6073281980
C   0.8780670617  0.7839568886 -0.1640943445
H   0.6992958463  1.5610912157 -0.9190102255
O   0.5252378252  0.9701483689  1.1227238927
C   1.3507593927 -0.5558553894 -0.1943247267
H   0.7785472237 -0.2472763161  1.0620089419
H   1.0681127172 -1.3037186720 -0.9466857012
H   2.3012215544 -0.7179794414  0.3333214202
7
Iter 86  Energy = -29.6073285705
C   0.8780612337  0.7839586999 -0.1641068590
H   0.6993722308  1.5611553669 -0.9189801827
O   0.5251777344  0.9701001920  1.1227072092
C   1.3507692889 -0.5558559697 -0.1943322155
H   0.7785302528 -0.2472921549  1.0619937159
H   1.0680543381 -1.3037890746 -0.9465943269
H   2.3012765424 -0.7179104056  0.3332519152
7
Iter 87  Energy = -29.6073288685
C   0.8780553541  0.7839603876 -0.1641192030
H   0.6994481679  1.5612190372 -0.9189504184
O   0.5251177612  0.9700524491  1.1226905827
C   1.3507790475 -0.5558565025 -0.1943395393
H   0.7785136255 -0.2473077456  1.0619788193
H   1.0679964211 -1.3038588452 -0.9465037356
H   2.3013312427 -0.7178421282  0.3331827503
7
Iter 88  Energy = -29.6073291367
C   0.8780493798  0.7839621208 -0.1641314850
H   0.6995236769  1.5612821507 -0.9189208575
O   0.5250579110  0.9700051437  1.1226740128
C   1.3507887268 -0.5558571386 -0.1943467443
H   0.7784973305 -0.2473231218  1.0619642803
H   1.0679389769 -1.3039279130 -0.9464138555
H   2.3013856183 -0.7177745893  0.3331139071
7
Iter 89  Energy = -29.6073294944
C   0.8780433555  0.7839637121 -0.1641435678
H   0.6995987412  1.5613447858 -0.9188915629
O   0.5249981912  0.9699582837  1.1226574725
C   1.3507983072 -0.5558577321 -0.1943537727
H   0.7784813681 -0.2473382737  1.0619500330
H   1.0678819827 -1.3039963433 -0.9463247270
H   2.3014396734 -0.7177077797  0.3330453837
7
Iter 90  Energy = -29.6073297328
C   0.8780372701  0.7839652856 -0.1641555958
H   0.6996733718  1.5614069138 -0.9188625062
O   0.5249385981  0.9699118227  1.1226410503
C   1.3508078370 -0.5558584031 -0.1943606756
H   0.7784657101 -0.2473531654  1.0619361365
H   1.0678254424 -1.3040641195 -0.9462363291
H   2.3014933893 -0.7176416799  0.3329771796
7
Iter 91  Energy = -29.6073300606
C   0.8780311213  0.7839668022 -0.1641674672
H   0.6997475709  1.5614685263 -0.9188336718
O   0.5248791538  0.9698657861  1.1226246321
C   1.3508172458 -0.5558590486 -0.1943674359
H   0.7784503678 -0.2473678589  1.0619225433
H   1.0677693479 -1.3041312605 -0.9461486521
H   2.3015468114 -0.7175762928  0.3329093098
7
Iter 92  Energy = -29.6073303735
C   0.8780249170  0.7839682951 -0.1641792371
H   0.6998213359  1.5615296424 -0.9188050770
O   0.5248198592  0.9698201475  1.1226082765
C   1.3508265600 -0.5558597465 -0.1943740524
H   0.7784353302 -0.2473823403  1.0619092595
H   1.0677136989 -1.3041977510 -0.9460616810
H   2.3015999175 -0.7175115932  0.3328417690
7
Iter 93  Energy = -29.6073306716
C   0.8780186569  0.7839697303 -0.1641908535
H   0.6998946711  1.5615902622 -0.9187767190
O   0.5247607119  0.9697749513  1.1225919653
C   1.3508357934 -0.5558604372 -0.1943805236
H   0.7784205928 -0.2473966493  1.0618962579
H   1.0676584788 -1.3042636255 -0.9459754231
H   2.3016527138 -0.7174475783  0.3327745538
7
Iter 94  Energy = -29.6073309249
C   0.8780123652  0.7839710935 -0.1642023867
H   0.6999675813  1.5616503755 -0.9187485798
O   0.5247017329  0.9697300298  1.1225757166
C   1.3508449268 -0.5558610879 -0.1943868915
H   0.7784061110 -0.2474106164  1.0618836098
H   1.0676036863 -1.3043288961 -0.9458898829
H   2.3017052155 -0.7173842454  0.3327076734
7
Iter 95  Energy = -29.6073312080
C   0.8780060054  0.7839725127 -0.1642138218
H   0.7000400660  1.5617099790 -0.9187206468
O   0.5246428971  0.9696855269  1.1225595495
C   1.3508539655 -0.5558618316 -0.1943931296
H   0.7783919192 -0.2474243993  1.0618711955
H   1.0675493171 -1.3043935527 -0.9458050203
H   2.3017574483 -0.7173215821  0.3326411326
7
Iter 96  Energy = -29.6073315507
C   0.8779996154  0.7839738289 -0.1642250786
H   0.7001121215  1.5617691216 -0.9186929718
O   0.5245842276  0.9696413989  1.1225434269
C   1.3508629418 -0.5558625420 -0.1943992161
H   0.7783779996 -0.2474379685  1.0618590399
H   1.0674953594 -1.3044576164 -0.9457208423
H   2.3018093534 -0.7172595694  0.3325749018
7
Iter 97  Energy = -29.6073317891
C   0.8779931642  0.7839751644 -0.1642362300
H   0.7001837611  1.5618277609 -0.9186655165
O   0.5245257206  0.9695976519  1.1225273716
C   1.3508718328 -0.5558633063 -0.1944051729
H   0.7783643535 -0.2474513534  1.0618471287
H   1.0674418152 -1.3045210620 -0.9456373208
H   2.3018609711 -0.7171982016  0.3325089987
7
Iter 98  Energy = -29.6073320276
C   0.8779866914  0.7839764116 -0.1642472539
H   0.7002549756  1.5618859316 -0.9186382849
O   0.5244673809  0.9695542631  1.1225113873
C   1.3508806792 -0.5558640331 -0.1944109796
H   0.7783509553 -0.2474645065  1.0618354712
H   1.0673886683 -1.3045839446 -0.9455544849
H   2.3019122677 -0.7171374683  0.3324434052
7
Iter 99  Energy = -29.6073323107
C   0.8779801810  0.7839776507 -0.1642581533
H   0.7003257649  1.5619436332 -0.9186112839
O   0.5244092076  0.9695112481  1.1224954691
C   1.3508894480 -0.5558648087 -0.1944166716
H   0.7783378163 -0.2474774747  1.0618240468
H   1.0673359223 -1.3046462346 -0.9454722939
H   2.3019632784 -0.7170773617  0.3323781457
7
Iter 100  Energy = -29.6073325342
C   0.8779736461  0.7839788615 -0.1642689603
H   0.7003961362  1.5620008621 -0.9185845069
O   0.5243512011  0.9694686065  1.1224796343
C   1.3508981325 -0.5558655746 -0.1944222289
H   0.7783249267 -0.2474902798  1.0618128559
H   1.0672835625 -1.3047079496 -0.9453907517
H   2.3020140137 -0.7170178743  0.3323132152
7
Iter 101  Energy = -29.6073327726
C   0.8779670607  0.7839800470 -0.1642796069
H   0.7004660902  1.5620576219 -0.9185579381
O   0.5242933844  0.9694263337  1.1224638144
C   1.3509067559 -0.5558663690 -0.1944276738
H   0.7783122811 -0.2475029112  1.0618018903
H   1.0672315994 -1.3047690720 -0.9453098326
H   2.3020644469 -0.7169589978  0.3322486050
7
Iter 102  Energy = -29.6073330259
C   0.8779604627  0.7839811982 -0.1642901706
H   0.7005356282  1.5621139223 -0.9185315949
O   0.5242357318  0.9693844387  1.1224481001
C   1.3509152820 -0.5558671412 -0.1944329935
H   0.7782998753 -0.2475153876  1.0617911447
H   1.0671800140 -1.3048296502 -0.9452295644
H   2.3021146249 -0.7169007267  0.3321843348
7
Iter 103  Energy = -29.6073333389
C   0.8779538384  0.7839823267 -0.1643006308
H   0.7006047508  1.5621697639 -0.9185054681
O   0.5241782646  0.9693428957  1.1224324510
C   1.3509237660 -0.5558679416 -0.1944381993
H   0.7782876956 -0.2475276942  1.0617806430
H   1.0671288161 -1.3048896564 -0.9451499151
H   2.3021644862 -0.7168430408  0.3321203758
7
Iter 104  Energy = -29.6073335624
C   0.8779471868  0.7839834447 -0.1643109473
H   0.7006734609  1.5622251479 -0.9184795557
O   0.5241209829  0.9693017339  1.1224168462
C   1.3509321669 -0.5558687237 -0.1944432724
H   0.7782757492 -0.2475398817  1.0617703277
H   1.0670779872 -1.3049491267 -0.9450708882
H   2.3022140837 -0.7167859410  0.3320567461
7
Iter 105  Energy = -29.6073338008
C   0.8779405130  0.7839845360 -0.1643211727
H   0.7007417595  1.5622800915 -0.9184538681
O   0.5240638929  0.9692608824  1.1224013276
C   1.3509405260 -0.5558695083 -0.1944482470
H   0.7782640069 -0.2475518738  1.0617602510
H   1.0670275289 -1.3050080525 -0.9449924749
H   2.3022633901 -0.7167294230  0.3319934399
7
Iter 106  Energy = -29.6073340690
C   0.8779338362  0.7839855998 -0.1643313051
H   0.7008096511  1.5623345738 -0.9184283837
O   0.5240069810  0.9692203812  1.1223859041
C   1.3509488043 -0.5558702929 -0.1944531412
H   0.7782524764 -0.2475637037  1.0617503726
H   1.0669774403 -1.3050664347 -0.9449146536
H   2.3023124285 -0.7166734715  0.3319304626
7
Iter 107  Energy = -29.6073342925
C   0.8779271345  0.7839866321 -0.1643413021
H   0.7008771372  1.5623886138 -0.9184031210
O   0.5239502642  0.9691802304  1.1223705441
C   1.3509570338 -0.5558710671 -0.1944579553
H   0.7782411431 -0.2475753873  1.0617407090
H   1.0669277092 -1.3051242862 -0.9448374310
H   2.3023611959 -0.7166180826  0.3318678115
7
Iter 108  Energy = -29.6073345012
C   0.8779204091  0.7839876610 -0.1643511800
H   0.7009442225  1.5624421851 -0.9183780423
O   0.5238937458  0.9691404218  1.1223552302
C   1.3509652252 -0.5558718360 -0.1944626619
H   0.7782300116 -0.2475869180  1.0617312386
H   1.0668783356 -1.3051816162 -0.9447608013
H   2.3024096677 -0.7165632444  0.3318054722
7
Iter 109  Energy = -29.6073347396
C   0.8779136753  0.7839886628 -0.1643609493
H   0.7010109032  1.5624953249 -0.9183531809
O   0.5238374286  0.9691009251  1.1223399875
C   1.3509733518 -0.5558725848 -0.1944672696
H   0.7782190738 -0.2475982909  1.0617219704
H   1.0668293102 -1.3052384327 -0.9446847696
H   2.3024578739 -0.7165089508  0.3317434661
7
Iter 110  Energy = -29.6073349482
C   0.8779069263  0.7839896668 -0.1643706413
H   0.7010771872  1.5625480159 -0.9183285164
O   0.5237813001  0.9690617726  1.1223248534
C   1.3509814255 -0.5558733616 -0.1944717875
H   0.7782083321 -0.2476095187  1.0617128782
H   1.0667806382 -1.3052947281 -0.9446093152
H   2.3025058073 -0.7164551937  0.3316817830
7
Iter 111  Energy = -29.6073352015
C   0.8779001791  0.7839906190 -0.1643802089
H   0.7011430715  1.5626002826 -0.9183040722
O   0.5237253749  0.9690229478  1.1223097907
C   1.3509894209 -0.5558741064 -0.1944762163
H   0.7781977789 -0.2476206191  1.0617039636
H   1.0667323109 -1.3053505074 -0.9445344300
H   2.3025534808 -0.7164019633  0.3316204282
7
Iter 112  Energy = -29.6073354250
C   0.8778934153  0.7839915623 -0.1643896702
H   0.7012085573  1.5626521190 -0.9182798209
O   0.5236696585  0.9689844517  1.1222947814
C   1.3509973883 -0.5558748545 -0.1944805303
H   0.7781874079 -0.2476315897  1.0616952269
H   1.0666843278 -1.3054057821 -0.9444601132
H   2.3026008618 -0.7163492543  0.3315593804
7
Iter 113  Energy = -29.6073356783
C   0.8778866539  0.7839924626 -0.1643990123
H   0.7012736399  1.5627035564 -0.9182557915
O   0.5236141472  0.9689462660  1.1222798583
C   1.3510053360 -0.5558756019 -0.1944847540
H   0.7781772071 -0.2476424025  1.0616866830
H   1.0666366765 -1.3054605708 -0.9443863807
H   2.3026479562 -0.7162970571  0.3314986508
7
Iter 114  Energy = -29.6073358125
C   0.8778798843  0.7839933682 -0.1644082800
H   0.7013383310  1.5627545543 -0.9182319462
O   0.5235588419  0.9689084004  1.1222650167
C   1.3510132315 -0.5558763611 -0.1944888978
H   0.7781671824 -0.2476530880  1.0616783192
H   1.0665893671 -1.3055148547 -0.9443131993
H   2.3026947787 -0.7162453665  0.3314382407
7
Iter 115  Energy = -29.6073360509
C   0.8778731213  0.7839942316 -0.1644174275
H   0.7014026267  1.5628051476 -0.9182083088
O   0.5235037499  0.9688708405  1.1222502419
C   1.3510210517 -0.5558770968 -0.1944929481
H   0.7781573309 -0.2476636452  1.0616701055
H   1.0665423941 -1.3055686466 -0.9442405623
H   2.3027413418 -0.7161941786  0.3313781517
7
Iter 116  Energy = -29.6073362446
C   0.8778663603  0.7839950876 -0.1644265105
H   0.7014665335  1.5628553180 -0.9181848551
O   0.5234488621  0.9688335984  1.1222355731
C   1.3510287831 -0.5558778520 -0.1944969415
H   0.7781476462 -0.2476740691  1.0616620520
H   1.0664957554 -1.3056219447 -0.9441684685
H   2.3027876755 -0.7161434865  0.3313184029
7
Iter 117  Energy = -29.6073364085
C   0.8778596043  0.7839959044 -0.1644354588
H   0.7015300452  1.5629050902 -0.9181615969
O   0.5233942030  0.9687966464  1.1222209316
C   1.3510365126 -0.5558785874 -0.1945008113
H   0.7781381218 -0.2476843632  1.0616541694
H   1.0664494367 -1.3056747711 -0.9440969299
H   2.3028336928 -0.7160932673  0.3312589492
7
Iter 118  Energy = -29.6073366767
C   0.8778528411  0.7839967385 -0.1644443210
H   0.7015931737  1.5629544432 -0.9181385279
O   0.5233397541  0.9687600089  1.1222063850
C   1.3510441678 -0.5558793538 -0.1945046119
H   0.7781287647 -0.2476945448  1.0616464212
H   1.0664034456 -1.3057271129 -0.9440259194
H   2.3028794695 -0.7160435279  0.3311998268
7
Iter 119  Energy = -29.6073368406
C   0.8778461029  0.7839975016 -0.1644531032
H   0.7016559094  1.5630034239 -0.9181156716
O   0.5232855241  0.9687236534  1.1221919316
C   1.3510517665 -0.5558800705 -0.1945083368
H   0.7781195518 -0.2477045896  1.0616388610
H   1.0663577803 -1.3057789964 -0.9439554494
H   2.3029249818 -0.7159942698  0.3311410220
7
Iter 120  Energy = -29.6073370045
C   0.8778393971  0.7839982058 -0.1644618248
H   0.7017182592  1.5630520013 -0.9180929902
O   0.5232315402  0.9686874470  1.1221775385
C   1.3510593038 -0.5558807340 -0.1945120662
H   0.7781104359 -0.2477143539  1.0616315832
H   1.0663124384 -1.3058304339 -0.9438855395
H   2.3029702421 -0.7159454803  0.3310825527
7
Iter 121  Energy = -29.6073372132
C   0.8778326572  0.7839990276 -0.1644704817
H   0.7017802363  1.5631001481 -0.9180704744
O   0.5231777763  0.9686515613  1.1221632230
C   1.3510668066 -0.5558815036 -0.1945156882
H   0.7781014916 -0.2477240600  1.0616244034
H   1.0662674145 -1.3058813781 -0.9438161248
H   2.3030152338 -0.7158971427  0.3310243957
7
Iter 122  Energy = -29.6073374218
C   0.8778259560  0.7839997021 -0.1644789953
H   0.7018418183  1.5631479533 -0.9180481663
O   0.5231242496  0.9686159437  1.1221489355
C   1.3510742860 -0.5558821583 -0.1945192188
H   0.7780926786 -0.2477336259  1.0616174182
H   1.0662226970 -1.3059319004 -0.9437472620
H   2.3030599316 -0.7158492617  0.3309665419
7
Iter 123  Energy = -29.6073376006
C   0.8778192521  0.7840004222 -0.1644874342
H   0.7019030275  1.5631953437 -0.9180260188
O   0.5230709491  0.9685806099  1.1221347175
C   1.3510816923 -0.5558828636 -0.1945227175
H   0.7780840097 -0.2477430800  1.0616105854
H   1.0661782965 -1.3059819587 -0.9436789029
H   2.3031043903 -0.7158018212  0.3309090228
7
Iter 124  Energy = -29.6073377645
C   0.8778125738  0.7840010546 -0.1644957608
H   0.7019638563  1.5632423662 -0.9180040679
O   0.5230178725  0.9685455675  1.1221205734
C   1.3510890542 -0.5558835053 -0.1945260819
H   0.7780754931 -0.2477524273  1.0616038535
H   1.0661341975 -1.3060315817 -0.9436110677
H   2.3031485707 -0.7157548217  0.3308518041
7
Iter 125  Energy = -29.6073379433
C   0.8778058738  0.7840017640 -0.1645040244
H   0.7020243133  1.5632889933 -0.9179822855
O   0.5229650328  0.9685108014  1.1221064945
C   1.3510963735 -0.5558842007 -0.1945293845
H   0.7780671118 -0.2477616863  1.0615972732
H   1.0660904064 -1.3060807564 -0.9435437323
H   2.3031925062 -0.7157082624  0.3307949104
7
Iter 126  Energy = -29.6073381519
C   0.8777992069  0.7840024115 -0.1645121812
H   0.7020843930  1.5633352545 -0.9179606881
O   0.5229124258  0.9684763026  1.1220924672
C   1.3511036293 -0.5558848502 -0.1945326037
H   0.7780588672 -0.2477708384  1.0615908317
H   1.0660469187 -1.3061294988 -0.9434768991
H   2.3032361773 -0.7156621285  0.3307383253
7
Iter 127  Energy = -29.6073383606
C   0.8777925512  0.7840030638 -0.1645202655
H   0.7021441005  1.5633811452 -0.9179392695
O   0.5228600479  0.9684420703  1.1220785212
C   1.3511108475 -0.5558855248 -0.1945357574
H   0.7780507526 -0.2477798857  1.0615845275
H   1.0660037300 -1.3061778010 -0.9434105581
H   2.3032795886 -0.7156164146  0.3306820530
7
Iter 128  Energy = -29.6073385245
C   0.8777859228  0.7840036599 -0.1645282531
H   0.7022034324  1.5634266796 -0.9179180329
O   0.5228079058  0.9684081154  1.1220646301
C   1.3511179957 -0.5558861695 -0.1945388414
H   0.7780427692 -0.2477888442  1.0615783533
H   1.0659608416 -1.3062256688 -0.9433447037
H   2.3033227509 -0.7155711194  0.3306260989
7
Iter 129  Energy = -29.6073387033
C   0.8777792902  0.7840043104 -0.1645362130
H   0.7022623992  1.5634718327 -0.9178969515
O   0.5227559838  0.9683744454  1.1220508507
C   1.3511251360 -0.5558868847 -0.1945418532
H   0.7780349118 -0.2477977049  1.0615723118
H   1.0659182482 -1.3062731080 -0.9432793432
H   2.3033656486 -0.7155262367  0.3305704517
7
Iter 130  Energy = -29.6073388076
C   0.8777726954  0.7840048685 -0.1645440368
H   0.7023209917  1.5635166553 -0.9178760715
O   0.5227042973  0.9683410411  1.1220371252
C   1.3511321926 -0.5558875263 -0.1945447948
H   0.7780271798 -0.2478064705  1.0615663864
H   1.0658759479 -1.3063201464 -0.9432144744
H   2.3034083132 -0.7154817681  0.3305151210
7
Iter 131  Energy = -29.6073390311
C   0.8777661101  0.7840054465 -0.1645518235
H   0.7023792224  1.5635611008 -0.9178553353
O   0.5226528527  0.9683078742  1.1220234662
C   1.3511392140 -0.5558881910 -0.1945476724
H   0.7780195616 -0.2478151243  1.0615605977
H   1.0658339381 -1.3063667539 -0.9431500772
H   2.3034507190 -0.7154376986  0.3304600983
7
Iter 132  Energy = -29.6073392248
C   0.8777595337  0.7840060198 -0.1645595095
H   0.7024370940  1.5636051847 -0.9178347764
O   0.5226016481  0.9682749604  1.1220098766
C   1.3511461920 -0.5558888489 -0.1945504692
H   0.7780120649 -0.2478236801  1.0615549123
H   1.0657922134 -1.3064129614 -0.9430861633
H   2.3034928717 -0.7153940228  0.3304053840
7
Iter 133  Energy = -29.6073393291
C   0.8777529803  0.7840065920 -0.1645671191
H   0.7024946012  1.5636489225 -0.9178143873
O   0.5225506743  0.9682423052  1.1219963601
C   1.3511530832 -0.5558895168 -0.1945532249
H   0.7780046849 -0.2478321466  1.0615493438
H   1.0657507801 -1.3064587597 -0.9430227123
H   2.3035348139 -0.7153507447  0.3303509939
7
Iter 134  Energy = -29.6073394781
C   0.8777464591  0.7840071307 -0.1645746731
H   0.7025517458  1.5636923139 -0.9177941612
O   0.5224999312  0.9682099143  1.1219829323
C   1.3511599256 -0.5558901495 -0.1945558991
H   0.7779974171 -0.2478405253  1.0615438874
H   1.0657096279 -1.3065041737 -0.9429597427
H   2.3035765110 -0.7153078595  0.3302969088
7
Iter 135  Energy = -29.6073396570
C   0.8777399481  0.7840076506 -0.1645821568
H   0.7026085401  1.5637353476 -0.9177740902
O   0.5224494270  0.9681777695  1.1219695840
C   1.3511667458 -0.5558907790 -0.1945585027
H   0.7779902581 -0.2478487967  1.0615385333
H   1.0656687526 -1.3065491871 -0.9428972379
H   2.3036179461 -0.7152653544  0.3302431232
7
Iter 136  Energy = -29.6073398507
C   0.8777334557  0.7840081672 -0.1645895670
H   0.7026649750  1.5637780431 -0.9177541774
O   0.5223991671  0.9681458727  1.1219562940
C   1.3511735179 -0.5558914313 -0.1945610692
H   0.7779832006 -0.2478569804  1.0615333109
H   1.0656281635 -1.3065937953 -0.9428351829
H   2.3036591384 -0.7152232250  0.3301896439
7
Iter 137  Energy = -29.6073400295
C   0.8777269744  0.7840086721 -0.1645968670
H   0.7027210569  1.5638204018 -0.9177344343
O   0.5223491539  0.9681142100  1.1219430525
C   1.3511802660 -0.5558920679 -0.1945635555
H   0.7779762453 -0.2478650655  1.0615281922
H   1.0655878448 -1.3066380303 -0.9427735966
H   2.3037000767 -0.7151814688  0.3301364613
7
Iter 138  Energy = -29.6073401487
C   0.8777205248  0.7840091605 -0.1646041035
H   0.7027767817  1.5638624339 -0.9177148564
O   0.5222993601  0.9680828227  1.1219299182
C   1.3511869360 -0.5558927369 -0.1945660112
H   0.7779694023 -0.2478730773  1.0615231484
H   1.0655478037 -1.3066818667 -0.9427124434
H   2.3037408095 -0.7151400840  0.3300835999
7
Iter 139  Energy = -29.6073402977
C   0.8777140979  0.7840096324 -0.1646112850
H   0.7028321608  1.5639041265 -0.9176954347
O   0.5222498167  0.9680516471  1.1219168484
C   1.3511935821 -0.5558933651 -0.1945683881
H   0.7779626515 -0.2478809944  1.0615182343
H   1.0655080343 -1.3067253319 -0.9426517494
H   2.3037812749 -0.7150990630  0.3300310275
7
Iter 140  Energy = -29.6073404616
C   0.8777076887  0.7840101118 -0.1646183932
H   0.7028871891  1.5639454863 -0.9176761602
O   0.5222005166  0.9680207117  1.1219038313
C   1.3512002033 -0.5558940153 -0.1945707152
H   0.7779559977 -0.2478888313  1.0615134353
H   1.0654685374 -1.3067684116 -0.9425914940
H   2.3038214851 -0.7150584000  0.3299787487
7
Iter 141  Energy = -29.6073405957
C   0.8777013031  0.7840105740 -0.1646254295
H   0.7029418768  1.5639865099 -0.9176570498
O   0.5221514440  0.9679900376  1.1218909235
C   1.3512067839 -0.5558946612 -0.1945729929
H   0.7779494425 -0.2478965893  1.0615087157
H   1.0654293053 -1.3068111286 -0.9425316843
H   2.3038614623 -0.7150180922  0.3299267700
7
Iter 142  Energy = -29.6073407596
C   0.8776949367  0.7840110229 -0.1646323738
H   0.7029962121  1.5640272216 -0.9176380917
O   0.5221026206  0.9679595984  1.1218780476
C   1.3512133000 -0.5558952890 -0.1945751989
H   0.7779429831 -0.2479042767  1.0615040839
H   1.0653903369 -1.3068534794 -0.9424723129
H   2.3039012287 -0.7149781462  0.3298750992
7
Iter 143  Energy = -29.6073409087
C   0.8776885853  0.7840114726 -0.1646392530
H   0.7030502078  1.5640676151 -0.9176192887
O   0.5220540379  0.9679293761  1.1218652513
C   1.3512197833 -0.5558959448 -0.1945773851
H   0.7779366122 -0.2479118632  1.0614995640
H   1.0653516432 -1.3068954561 -0.9424133594
H   2.3039407483 -0.7149385486  0.3298237239
7
Iter 144  Energy = -29.6073410279
C   0.8776822741  0.7840118771 -0.1646460888
H   0.7031038603  1.5641076878 -0.9176006230
O   0.5220056913  0.9678993797  1.1218525417
C   1.3512262402 -0.5558965723 -0.1945794961
H   0.7779303219 -0.2479193451  1.0614951379
H   1.0653132058 -1.3069370850 -0.9423548529
H   2.3039800246 -0.7148992917  0.3297726335
7
Iter 145  Energy = -29.6073410875
C   0.8776760006  0.7840122826 -0.1646529355
H   0.7031571759  1.5641474358 -0.9175820979
O   0.5219575861  0.9678695426  1.1218399535
C   1.3512326817 -0.5558972064 -0.1945816005
H   0.7779240950 -0.2479266694  1.0614908715
H   1.0652750346 -1.3069783568 -0.9422967780
H   2.3040190449 -0.7148603763  0.3297218381
7
Iter 146  Energy = -29.6073412514
C   0.8776697559  0.7840126033 -0.1646596108
H   0.7032101474  1.5641868917 -0.9175637340
O   0.5219097339  0.9678399455  1.1218273751
C   1.3512390385 -0.5558977841 -0.1945836608
H   0.7779179575 -0.2479339134  1.0614866637
H   1.0652371191 -1.3070192900 -0.9422391311
H   2.3040578670 -0.7148218009  0.3296713513
7
Iter 147  Energy = -29.6073414004
C   0.8776635246  0.7840129823 -0.1646662661
H   0.7032627884  1.5642260089 -0.9175454957
O   0.5218621136  0.9678105773  1.1218148954
C   1.3512453600 -0.5558984226 -0.1945857087
H   0.7779119002 -0.2479410741  1.0614825610
H   1.0651994662 -1.3070598621 -0.9421818973
H   2.3040964655 -0.7147835572  0.3296211642
7
Iter 148  Energy = -29.6073415345
C   0.8776573216  0.7840133211 -0.1646728282
H   0.7033150907  1.5642648370 -0.9175274119
O   0.5218147292  0.9677814774  1.1218024737
C   1.3512516559 -0.5558990110 -0.1945876514
H   0.7779059396 -0.2479482138  1.0614785030
H   1.0651620579 -1.3071001119 -0.9421250859
H   2.3041348236 -0.7147456457  0.3295712548
7
Iter 149  Energy = -29.6073416835
C   0.8776511450  0.7840136569 -0.1646793265
H   0.7033670630  1.5643033472 -0.9175094603
O   0.5217675908  0.9677525854  1.1217901102
C   1.3512579014 -0.5558995779 -0.1945895397
H   0.7779000548 -0.2479552768  1.0614745214
H   1.0651249055 -1.3071400183 -0.9420686773
H   2.3041729573 -0.7147080640  0.3295216283
7
Iter 150  Energy = -29.6073417729
C   0.8776449961  0.7840140107 -0.1646857971
H   0.7034187065  1.5643415485 -0.9174916408
O   0.5217206771  0.9677239238  1.1217778579
C   1.3512641019 -0.5559001681 -0.1945914247
H   0.7778942416 -0.2479622564  1.0614706320
H   1.0650880107 -1.3071795936 -0.9420126699
H   2.3042108839 -0.7146708124  0.3294722989
7
Iter 151  Energy = -29.6073419517
C   0.8776388657  0.7840143319 -0.1646921386
H   0.7034700196  1.5643794629 -0.9174739770
O   0.5216740146  0.9676954890  1.1217656403
C   1.3512702746 -0.5559007331 -0.1945932534
H   0.7778885030 -0.2479691738  1.0614668026
H   1.0650513553 -1.3072188474 -0.9419570718
H   2.3042485848 -0.7146338765  0.3294232540
7
Iter 152  Energy = -29.6073420411
C   0.8776327671  0.7840146574 -0.1646984627
H   0.7035210104  1.5644170671 -0.9174564394
O   0.5216275843  0.9676672763  1.1217535147
C   1.3512763924 -0.5559012792 -0.1945950304
H   0.7778828392 -0.2479760343  1.0614630465
H   1.0650149518 -1.3072577711 -0.9419018673
H   2.3042860720 -0.7145972633  0.3293744929
7
Iter 153  Energy = -29.6073422051
C   0.8776266893  0.7840149630 -0.1647046806
H   0.7035716743  1.5644543813 -0.9174390394
O   0.5215814035  0.9676392670  1.1217414262
C   1.3512824855 -0.5559018164 -0.1945967846
H   0.7778772390 -0.2479828097  1.0614593744
H   1.0649787914 -1.3072963686 -0.9418470544
H   2.3043233342 -0.7145609635  0.3293260144
7
Iter 154  Energy = -29.6073423243
C   0.8776206450  0.7840152680 -0.1647108829
H   0.7036220203  1.5644913847 -0.9174217560
O   0.5215354468  0.9676114792  1.1217294505
C   1.3512885577 -0.5559023647 -0.1945985100
H   0.7778717052 -0.2479895002  1.0614557763
H   1.0649428746 -1.3073346461 -0.9417926360
H   2.3043603676 -0.7145249680  0.3292778124
7
Iter 155  Energy = -29.6073423988
C   0.8776146314  0.7840155579 -0.1647170137
H   0.7036720368  1.5645281210 -0.9174046198
O   0.5214897297  0.9675839152  1.1217175401
C   1.3512945860 -0.5559028997 -0.1946001798
H   0.7778662439 -0.2479961467  1.0614522370
H   1.0649072029 -1.3073726096 -0.9417386010
H   2.3043971860 -0.7144892853  0.3292298904
7
Iter 156  Energy = -29.6073426223
C   0.8776086325  0.7840158775 -0.1647230631
H   0.7037217378  1.5645645637 -0.9173876189
O   0.5214442633  0.9675565432  1.1217056715
C   1.3513005486 -0.5559034500 -0.1946018147
H   0.7778608510 -0.2480027283  1.0614487631
H   1.0648717744 -1.3074102490 -0.9416849435
H   2.3044338088 -0.7144539044  0.3291822579
7
Iter 157  Energy = -29.6073426521
C   0.8776026788  0.7840161287 -0.1647290731
H   0.7037711211  1.5646007295 -0.9173707536
O   0.5213990267  0.9675293774  1.1216939081
C   1.3513064989 -0.5559039504 -0.1946034111
H   0.7778555121 -0.2480092219  1.0614453734
H   1.0648365801 -1.3074475870 -0.9416316835
H   2.3044701988 -0.7144188238  0.3291348940
7
Iter 158  Energy = -29.6073427415
C   0.8775967446  0.7840164129 -0.1647350374
H   0.7038201882  1.5646366118 -0.9173540203
O   0.5213540212  0.9675024383  1.1216822274
C   1.3513124312 -0.5559044607 -0.1946049340
H   0.7778502467 -0.2480156750  1.0614420309
H   1.0648016162 -1.3074846332 -0.9415788126
H   2.3045063691 -0.7143840402  0.3290878010
7
Iter 159  Energy = -29.6073429054
C   0.8775908322  0.7840166923 -0.1647409120
H   0.7038689381  1.5646722201 -0.9173374078
O   0.5213092622  0.9674756948  1.1216705795
C   1.3513183232 -0.5559050035 -0.1946064646
H   0.7778450389 -0.2480220503  1.0614387672
H   1.0647668960 -1.3075213537 -0.9415262974
H   2.3045423265 -0.7143495469  0.3290409900
7
Iter 160  Energy = -29.6073430246
C   0.8775849540  0.7840169681 -0.1647467444
H   0.7039173801  1.5647075398 -0.9173209202
O   0.5212647427  0.9674491429  1.1216590084
C   1.3513241571 -0.5559055327 -0.1946079644
H   0.7778398934 -0.2480283600  1.0614355659
H   1.0647324145 -1.3075577637 -0.9414741446
H   2.3045780751 -0.7143153415  0.3289944545
7
Iter 161  Energy = -29.6073431289
C   0.8775791147  0.7840172060 -0.1647525166
H   0.7039655048  1.5647426081 -0.9173045711
O   0.5212204575  0.9674227903  1.1216475100
C   1.3513299785 -0.5559060444 -0.1946094137
H   0.7778348017 -0.2480346025  1.0614324363
H   1.0646981590 -1.3075938809 -0.9414223726
H   2.3046136011 -0.7142814242  0.3289481838
7
Iter 162  Energy = -29.6073432630
C   0.8775733029  0.7840174597 -0.1647582586
H   0.7040133244  1.5647773973 -0.9172883427
O   0.5211764028  0.9673966449  1.1216361025
C   1.3513357783 -0.5559065371 -0.1946108082
H   0.7778297690 -0.2480407924  1.0614293682
H   1.0646641272 -1.3076297308 -0.9413709869
H   2.3046489128 -0.7142477900  0.3289021814
7
Iter 163  Energy = -29.6073433673
C   0.8775675099  0.7840177139 -0.1647639247
H   0.7040608351  1.5648119182 -0.9172722339
O   0.5211325940  0.9673706906  1.1216247316
C   1.3513415322 -0.5559070511 -0.1946121840
H   0.7778247949 -0.2480469176  1.0614263617
H   1.0646303267 -1.3076652660 -0.9413199540
H   2.3046840245 -0.7142144371  0.3288564578
7
Iter 164  Energy = -29.6073434418
C   0.8775617472  0.7840179531 -0.1647695486
H   0.7041080444  1.5648461598 -0.9172562335
O   0.5210890174  0.9673449337  1.1216134350
C   1.3513472552 -0.5559075377 -0.1946135292
H   0.7778198701 -0.2480529758  1.0614234168
H   1.0645967508 -1.3077005180 -0.9412692861
H   2.3047189321 -0.7141813642  0.3288110006
7
Iter 165  Energy = -29.6073435611
C   0.8775560097  0.7840182012 -0.1647751143
H   0.7041549505  1.5648801520 -0.9172403788
O   0.5210456776  0.9673193520  1.1216022121
C   1.3513529531 -0.5559080479 -0.1946148364
H   0.7778150061 -0.2480589735  1.0614205313
H   1.0645634044 -1.3077354706 -0.9412189669
H   2.3047536156 -0.7141485625  0.3287658059
7
Iter 166  Energy = -29.6073437101
C   0.8775503086  0.7840184354 -0.1647806253
H   0.7042015523  1.5649138882 -0.9172246455
O   0.5210025764  0.9672939592  1.1215910471
C   1.3513585833 -0.5559085504 -0.1946161225
H   0.7778101960 -0.2480649152  1.0614177056
H   1.0645302832 -1.3077701325 -0.9411689968
H   2.3047881178 -0.7141160346  0.3287208908
7
Iter 167  Energy = -29.6073437697
C   0.8775446431  0.7840186575 -0.1647860728
H   0.7042478490  1.5649473748 -0.9172090357
O   0.5209597106  0.9672687492  1.1215799419
C   1.3513642041 -0.5559090417 -0.1946173776
H   0.7778054293 -0.2480707887  1.0614149543
H   1.0644973811 -1.3078045274 -0.9411193913
H   2.3048224008 -0.7140837740  0.3286762350
7
Iter 168  Energy = -29.6073438442
C   0.8775390068  0.7840188983 -0.1647915081
H   0.7042938550  1.5649805920 -0.9171935479
O   0.5209170742  0.9672437148  1.1215689390
C   1.3513697732 -0.5559095315 -0.1946185859
H   0.7778007212 -0.2480766060  1.0614122446
H   1.0644647036 -1.3078386378 -0.9410701290
H   2.3048564840 -0.7140517800  0.3286318420
7
Iter 169  Energy = -29.6073439485
C   0.8775334031  0.7840191186 -0.1647968943
H   0.7043395623  1.5650135523 -0.9171781606
O   0.5208746637  0.9672189006  1.1215580024
C   1.3513753242 -0.5559100213 -0.1946197683
H   0.7777960644 -0.2480823791  1.0614095856
H   1.0644322434 -1.3078724751 -0.9410212169
H   2.3048903565 -0.7140200468  0.3285877077
7
Iter 170  Energy = -29.6073441124
C   0.8775278305  0.7840193166 -0.1648022077
H   0.7043849695  1.5650462774 -0.9171629026
O   0.5208324960  0.9671942535  1.1215471037
C   1.3513808449 -0.5559104996 -0.1946208986
H   0.7777914608 -0.2480880946  1.0614069712
H   1.0643999969 -1.3079060281 -0.9409726441
H   2.3049240193 -0.7139885741  0.3285438333
7
Iter 171  Energy = -29.6073441273
C   0.8775222746  0.7840195373 -0.1648074650
H   0.7044300894  1.5650787388 -0.9171477476
O   0.5207905652  0.9671697830  1.1215362550
C   1.3513863278 -0.5559109721 -0.1946220196
H   0.7777868987 -0.2480937473  1.0614044298
H   1.0643679638 -1.3079393291 -0.9409244267
H   2.3049574982 -0.7139573592  0.3285002290
7
Iter 172  Energy = -29.6073442167
C   0.8775167489  0.7840197588 -0.1648126719
H   0.7044749204  1.5651109508 -0.9171327170
O   0.5207488647  0.9671454868  1.1215254854
C   1.3513917565 -0.5559114559 -0.1946231171
H   0.7777823877 -0.2480993450  1.0614019213
H   1.0643361475 -1.3079723440 -0.9408765351
H   2.3049907922 -0.7139264001  0.3284568885
7
Iter 173  Energy = -29.6073443657
C   0.8775112690  0.7840199282 -0.1648178207
H   0.7045194575  1.5651429341 -0.9171178099
O   0.5207073978  0.9671213524  1.1215147788
C   1.3513971599 -0.5559119026 -0.1946241953
H   0.7777779128 -0.2481048652  1.0613994856
H   1.0643045434 -1.3080051025 -0.9408289885
H   2.3050238785 -0.7138956915  0.3284138042
7
Iter 1  Energy = -29.6072649425
C   0.8773951440  0.7832002796 -0.1629218915
H   0.6910767920  1.5541746016 -0.9219837176
O   0.5295260230  0.9762826117  1.1235485328
C   1.3489820563 -0.5563883887 -0.1924235784
H   0.7827779195 -0.2433202201  1.0661099392
H   1.0762346813 -1.2945446724 -0.9580808151
H   2.2952490070 -0.7290375567  0.3396907837
7
Iter 2  Energy = -29.6072670585
C   0.8774590445  0.7831505605 -0.1628675117
H   0.6911961555  1.5542851886 -0.9219940680
O   0.5294868107  0.9762425276  1.1235748795
C   1.3490527821 -0.5562958137 -0.1924796379
H   0.7826713115 -0.2434919546  1.0659823106
H   1.0760416784 -1.2947381511 -0.9579027065
H   2.2953338409 -0.7287857013  0.3396259851
7
Iter 3  Energy = -29.6072687125
C   0.8774836624  0.7832462145 -0.1628931501
H   0.6913270481  1.5543468245 -0.9219606523
O   0.5294456928  0.9761912585  1.1236220493
C   1.3491343128 -0.5563296754 -0.1925648249
H   0.7825662697 -0.2436575139  1.0658715612
H   1.0758642158 -1.2948947681 -0.9577003343
H   2.2954204217 -0.7285356852  0.3395646016
7
Iter 4  Energy = -29.6072703069
C   0.8775374015  0.7832153010 -0.1628498246
H   0.6914462813  1.5544506847 -0.9219580130
O   0.5294128315  0.9761272160  1.1236326443
C   1.3491847642 -0.5562495809 -0.1926163046
H   0.7824631310 -0.2438038971  1.0657515178
H   1.0756854352 -1.2950762728 -0.9575207909
H   2.2955117787 -0.7282967957  0.3395000212
7
Iter 5  Energy = -29.6072717971
C   0.8775595061  0.7833012051 -0.1628753495
H   0.6915746373  1.5545153231 -0.9219200087
O   0.5293768395  0.9760569050  1.1236641909
C   1.3492499196 -0.5562719569 -0.1926870885
H   0.7823617024 -0.2439464206  1.0656452740
H   1.0755184472 -1.2952289860 -0.9573238415
H   2.2956005707 -0.7280594147  0.3394360734
7
Iter 6  Energy = -29.6072733170
C   0.8776056703  0.7832834019 -0.1628449182
H   0.6916930661  1.5546154403 -0.9219078985
O   0.5293461301  0.9759784014  1.1236677697
C   1.3492914999 -0.5562043682 -0.1927317951
H   0.7822624723 -0.2440740564  1.0655314281
H   1.0753504403 -1.2954008290 -0.9571446216
H   2.2956923443 -0.7278313356  0.3393692862
7
Iter 7  Energy = -29.6072747475
C   0.8776269803  0.7833573185 -0.1628699653
H   0.6918184698  1.5546849681 -0.9218680083
O   0.5293121450  0.9758956147  1.1236893485
C   1.3493460066 -0.5562192716 -0.1927927812
H   0.7821646822 -0.2441977040  1.0654298848
H   1.0751922078 -1.2955493585 -0.9569518842
H   2.2957811321 -0.7276049137  0.3393026560
7
Iter 8  Energy = -29.6072761780
C   0.8776676509  0.7833472331 -0.1628501883
H   0.6919356828  1.5547834170 -0.9218492142
O   0.5292816658  0.9758078496  1.1236891850
C   1.3493822155 -0.5561625952 -0.1928329092
H   0.7820691694 -0.2443099158  1.0653224615
H   1.0750334339 -1.2957129053 -0.9567735807
H   2.2958718054 -0.7273864310  0.3392334949
7
Iter 9  Energy = -29.6072775191
C   0.8776884916  0.7834098542 -0.1628749312
H   0.6920582825  1.5548576870 -0.9218083843
O   0.5292480436  0.9757174058  1.1237039272
C   1.3494292302 -0.5561723232 -0.1928864572
H   0.7819751007 -0.2444186301  1.0652255948
H   1.0748828287 -1.2958575542 -0.9565848113
H   2.2959596468 -0.7271697881  0.3391643112
7
Iter 10  Energy = -29.6072788453
C   0.8777247814  0.7834046831 -0.1628637115
H   0.6921741520  1.5549553556 -0.9217846099
O   0.5292167660  0.9756239116  1.1237014932
C   1.3494619314 -0.5561249784 -0.1929233864
H   0.7818832477 -0.2445182525  1.0651244561
H   1.0747320891 -1.2960140351 -0.9564079442
H   2.2960486567 -0.7269600331  0.3390929526
7
Iter 11  Energy = -29.6072801268
C   0.8777451119  0.7834574395 -0.1628881927
H   0.6922941781  1.5550337881 -0.9217432644
O   0.5291825963  0.9755288697  1.1237111646
C   1.3495034896 -0.5561310373 -0.1929712330
H   0.7817928450 -0.2446148845  1.0650323499
H   1.0745882150 -1.2961552144 -0.9562230726
H   2.2961351888 -0.7267523101  0.3390214984
7
Iter 12  Energy = -29.6072814232
C   0.8777776851  0.7834555955 -0.1628838711
H   0.6924086778  1.5551310427 -0.9217156316
O   0.5291499673  0.9754320493  1.1237071114
C   1.3495337007 -0.5560914733 -0.1930057112
H   0.7817045867 -0.2447042215  1.0649372325
H   1.0744445224 -1.2963056698 -0.9560481045
H   2.2962224851 -0.7265506718  0.3389482238
7
Iter 13  Energy = -29.6072826153
C   0.8777973035  0.7835000973 -0.1629081719
H   0.6925263875  1.5552128804 -0.9216739384
O   0.5291147251  0.9753344871  1.1237127802
C   1.3495711329 -0.5560948981 -0.1930490367
H   0.7816177793 -0.2447910105  1.0648498922
H   1.0743066310 -1.2964436898 -0.9558671070
H   2.2963076657 -0.7263512158  0.3388748325
7
Iter 14  Energy = -29.6072838372
C   0.8778266236  0.7835005670 -0.1629092998
H   0.6926395358  1.5553098685 -0.9216432862
O   0.5290804410  0.9752359903  1.1237074282
C   1.3495995156 -0.5560617659 -0.1930816898
H   0.7815330100 -0.2448718059  1.0647605643
H   1.0741691806 -1.2965890207 -0.9556944065
H   2.2963933182 -0.7261571834  0.3387999413
7
Iter 15  Energy = -29.6072850144
C   0.8778453891  0.7835381708 -0.1629334571
H   0.6927551573  1.5553944365 -0.9216013502
O   0.5290438141  0.9751372851  1.1237098862
C   1.3496337749 -0.5560632104 -0.1931213837
H   0.7814497106 -0.2449504018  1.0646778853
H   1.0740366697 -1.2967242029 -0.9555172264
H   2.2964771092 -0.7259654270  0.3387248972
7
Iter 16  Energy = -29.6072861916
C   0.8778717949  0.7835402795 -0.1629388495
H   0.6928669920  1.5554911704 -0.9215682989
O   0.5290077324  0.9750382896  1.1237033643
C   1.3496606935 -0.5560353586 -0.1931525454
H   0.7813683689 -0.2450240797  1.0645939626
H   1.0739048045 -1.2968650969 -0.9553470392
H   2.2965612386 -0.7257785553  0.3386486585
7
Iter 17  Energy = -29.6072872645
C   0.8778895526  0.7835721934 -0.1629627121
H   0.6929807065  1.5555778730 -0.9215261830
O   0.5289695495  0.9749395368  1.1237030693
C   1.3496923106 -0.5560353761 -0.1931892924
H   0.7812885257 -0.2450958822  1.0645156906
H   1.0737771887 -1.2969976716 -0.9551735997
H   2.2966437915 -0.7255940235  0.3385722797
7
Iter 18  Energy = -29.6072883523
C   0.8779132808  0.7835755656 -0.1629714900
H   0.6930912771  1.5556742888 -0.9214912049
O   0.5289315996  0.9748409144  1.1236955216
C   1.3497180253 -0.5560119252 -0.1932191178
H   0.7812105544 -0.2451635861  1.0644367533
H   1.0736503612 -1.2971346873 -0.9550061386
H   2.2967265263 -0.7254139213  0.3384949281
7
Iter 19  Energy = -29.6072894102
C   0.8779299231  0.7836028267 -0.1629950644
H   0.6932032480  1.5557625882 -0.9214489551
O   0.5288917682  0.9747428406  1.1236929144
C   1.3497474541 -0.5560108839 -0.1932533748
H   0.7811340775 -0.2452296535  1.0643626755
H   1.0735272205 -1.2972648722 -0.9548364037
H   2.2968079332 -0.7252361968  0.3384174606
7
Iter 20  Energy = -29.6072905129
C   0.8779512146  0.7836070952 -0.1630064658
H   0.6933125843  1.5558586558 -0.9214124758
O   0.5288519536  0.9746451814  1.1236844158
C   1.3497721400 -0.5559910537 -0.1932819784
H   0.7810593915 -0.2452922830  1.0642883590
H   1.0734049787 -1.2973984490 -0.9546717836
H   2.2968893624 -0.7250624986  0.3383391811
7
Iter 21  Energy = -29.6072915262
C   0.8779666735  0.7836305452 -0.1630297242
H   0.6934229398  1.5559481232 -0.9213701594
O   0.5288104585  0.9745482695  1.1236798256
C   1.3497997152 -0.5559893075 -0.1933141223
H   0.7809861855 -0.2453534510  1.0642182511
H   1.0732859743 -1.2975263544 -0.9545056482
H   2.2969696782 -0.7248911780  0.3382608284
7
Iter 22  Energy = -29.6072924948
C   0.8779857333  0.7836354634 -0.1630431827
H   0.6935310843  1.5560437363 -0.9213324705
O   0.5287688114  0.9744519891  1.1236704475
C   1.3498234261 -0.5559724529 -0.1933416523
H   0.7809146860 -0.2454116971  1.0641482433
H   1.0731679421 -1.2976568340 -0.9543439578
H   2.2970499414 -0.7247235582  0.3381818227
7
Iter 23  Energy = -29.6072934783
C   0.8779999582  0.7836557802 -0.1630660912
H   0.6936399423  1.5561339672 -0.9212901029
O   0.5287256667  0.9743565896  1.1236641206
C   1.3498494270 -0.5559702136 -0.1933719391
H   0.7808446469 -0.2454686242  1.0640818571
H   1.0730527663 -1.2977825558 -0.9541813378
H   2.2971292163 -0.7245582969  0.3381027444
7
Iter 24  Energy = -29.6072944021
C   0.8780169491  0.7836611443 -0.1630810558
H   0.6937469129  1.5562290933 -0.9212515120
O   0.5286822619  0.9742619624  1.1236538894
C   1.3498722604 -0.5559558959 -0.1933984339
H   0.7807762435 -0.2455230578  1.0640157983
H   1.0729386193 -1.2979101569 -0.9540225802
H   2.2972083766 -0.7243964428  0.3380231467
7
Iter 25  Energy = -29.6072953111
C   0.8780299354  0.7836788807 -0.1631036519
H   0.6938543601  1.5563197986 -0.9212091782
O   0.5286375021  0.9741683027  1.1236461168
C   1.3498968767 -0.5559533888 -0.1934270847
H   0.7807092650 -0.2455762868  1.0639529124
H   1.0728270128 -1.2980337482 -0.9538633668
H   2.2972866710 -0.7242369111  0.3379435042
7
Iter 26  Energy = -29.6072962201
C   0.8780450408  0.7836844897 -0.1631197836
H   0.6939601873  1.5564143669 -0.9211699119
O   0.5285924064  0.9740755180  1.1236351355
C   1.3499188943 -0.5559411345 -0.1934525695
H   0.7806438575 -0.2456273739  1.0638905023
H   1.0727164614 -1.2981586913 -0.9537075623
H   2.2973647760 -0.7240805279  0.3378634406
7
Iter 27  Energy = -29.6072971588
C   0.8780567830  0.7837000725 -0.1631419999
H   0.6940663002  1.5565052697 -0.9211276414
O   0.5285461045  0.9739837650  1.1236260520
C   1.3499423032 -0.5559384633 -0.1934797082
H   0.7805798399 -0.2456773717  1.0638308613
H   1.0726081754 -1.2982802100 -0.9535516681
H   2.2974421177 -0.7239264170  0.3377833556
7
Iter 28  Energy = -29.6072980231
C   0.8780701284  0.7837058636 -0.1631590097
H   0.6941710147  1.5565991875 -0.9210878799
O   0.5284993956  0.9738929750  1.1236143974
C   1.3499635700 -0.5559279854 -0.1935042578
H   0.7805173209 -0.2457255236  1.0637718449
H   1.0725009665 -1.2984026342 -0.9533987897
H   2.2975192277 -0.7237752379  0.3377029448
7
Iter 29  Energy = -29.6072988427
C   0.8780806787  0.7837196031 -0.1631808644
H   0.6942758511  1.5566900812 -0.9210457370
O   0.5284516079  0.9738032255  1.1236042097
C   1.3499858803 -0.5559252448 -0.1935300497
H   0.7804561578 -0.2457726466  1.0637152632
H   1.0723958090 -1.2985221059 -0.9532461039
H   2.2975956394 -0.7236262686  0.3376225315
7
Iter 30  Energy = -29.6072996771
C   0.8780924097  0.7837254241 -0.1631984802
H   0.6943794635  1.5567833034 -0.9210056375
O   0.5284033958  0.9737144444  1.1235918931
C   1.3500064380 -0.5559162537 -0.1935536598
H   0.7803964200 -0.2458181267  1.0636593852
H   1.0722917308 -1.2986421136 -0.9530961057
H   2.2976717666 -0.7234800349  0.3375418553
7
Iter 31  Energy = -29.6073004669
C   0.8781017678  0.7837377092 -0.1632199905
H   0.6944830853  1.5568739649 -0.9209636384
O   0.5283542147  0.9736267042  1.1235807336
C   1.3500277586 -0.5559135749 -0.1935782284
H   0.7803379901 -0.2458626539  1.0636056757
H   1.0721895229 -1.2987595523 -0.9529465101
H   2.2977472848 -0.7233359536  0.3374612094
7
Iter 32  Energy = -29.6073013014
C   0.8781119918  0.7837434881 -0.1632379381
H   0.6945856111  1.5569664444 -0.9209233543
O   0.5283046062  0.9735400358  1.1235677513
C   1.3500475553 -0.5559057998 -0.1936008958
H   0.7802809543 -0.2459058429  1.0635526495
H   1.0720883806 -1.2988772480 -0.9527993431
H   2.2978225244 -0.7231944340  0.3373803820
7
Iter 33  Energy = -29.6073020911
C   0.8781201789  0.7837545593 -0.1632590542
H   0.6946880599  1.5570567189 -0.9208815503
O   0.5282541229  0.9734544328  1.1235557093
C   1.3500679335 -0.5559032481 -0.1936243082
H   0.7802251784 -0.2459481684  1.0635015822
H   1.0719889586 -1.2989926595 -0.9526527343
H   2.2978971918 -0.7230549914  0.3372996066
7
Iter 34  Energy = -29.6073029107
C   0.8781290034  0.7837602988 -0.1632772685
H   0.6947895218  1.5571483820 -0.9208411837
O   0.5282032093  0.9733698265  1.1235421882
C   1.3500870325 -0.5558965666 -0.1936461117
H   0.7801707121 -0.2459892183  1.0634512726
H   1.0718905863 -1.2991081200 -0.9525083555
H   2.2979715589 -0.7229179591  0.3372187103
7
Iter 35  Energy = -29.6073035663
C   0.8781360985  0.7837702920 -0.1632980375
H   0.6948908257  1.5572381586 -0.9207996261
O   0.5281515096  0.9732862500  1.1235294137
C   1.3501065960 -0.5558941624 -0.1936684180
H   0.7801174573 -0.2460294399  1.0634027225
H   1.0717937852 -1.2992215348 -0.9523646715
H   2.2980453516 -0.7227829203  0.3371378672
7
Iter 36  Energy = -29.6073043412
C   0.8781436325  0.7837759146 -0.1633163856
H   0.6949912350  1.5573289568 -0.9207592605
O   0.5280994067  0.9732036542  1.1235153621
C   1.3501251084 -0.5558884026 -0.1936893714
H   0.7800654343 -0.2460685118  1.0633550030
H   1.0716980197 -1.2993348220 -0.9522230368
H   2.2981187878 -0.7226501462  0.3370569402
7
Iter 37  Energy = -29.6073051310
C   0.8781496843  0.7837849662 -0.1633367524
H   0.6950914283  1.5574181095 -0.9207179685
O   0.5280465908  0.9731220900  1.1235018926
C   1.3501439376 -0.5558861386 -0.1937106718
H   0.7800145844 -0.2461068204  1.0633088467
H   1.0716037011 -1.2994462696 -0.9520821878
H   2.2981916981 -0.7225192941  0.3369760928
7
Iter 38  Energy = -29.6073056823
C   0.8781560361  0.7837904301 -0.1633551670
H   0.6951908007  1.5575079962 -0.9206777022
O   0.5279933595  0.9730415112  1.1234874374
C   1.3501618371 -0.5558811748 -0.1937307996
H   0.7799649228 -0.2461441039  1.0632634842
H   1.0715103991 -1.2995574277 -0.9519432176
H   2.2982642689 -0.7223905879  0.3368952166
7
Iter 39  Energy = -29.6073064870
C   0.8781610988  0.7837987000 -0.1633751709
H   0.6952899112  1.5575964202 -0.9206367176
O   0.5279395016  0.9729619253  1.1234734117
C   1.3501799316 -0.5558790906 -0.1937511461
H   0.7799163872 -0.2461806765  1.0632195292
H   1.0714184449 -1.2996669033 -0.9518050940
H   2.2983363491 -0.7222637331  0.3368144409
7
Iter 40  Energy = -29.6073071128
C   0.8781663507  0.7838039577 -0.1633934929
H   0.6953882589  1.5576853553 -0.9205966307
O   0.5278852599  0.9728832912  1.1234585383
C   1.3501972043 -0.5558747931 -0.1937704867
H   0.7798689797 -0.2462162960  1.0631763616
H   1.0713274720 -1.2997759711 -0.9516687255
H   2.2984080989 -0.7221389023  0.3367336903
7
Iter 41  Energy = -29.6073078281
C   0.8781704679  0.7838115334 -0.1634131177
H   0.6954863034  1.5577729863 -0.9205559941
O   0.5278304511  0.9728056388  1.1234440148
C   1.3502146336 -0.5558729179 -0.1937899478
H   0.7798226498 -0.2462512593  1.0631344997
H   1.0712377619 -1.2998834804 -0.9515332510
H   2.2984793572 -0.7220158588  0.3366530510
7
Iter 42  Energy = -29.6073084688
C   0.8781746766  0.7838166343 -0.1634313537
H   0.6955836388  1.5578609227 -0.9205161198
O   0.5277752769  0.9727289246  1.1234287849
C   1.3502313988 -0.5558692318 -0.1938084941
H   0.7797773957 -0.2462853671  1.0630934208
H   1.0711489930 -1.2999905121 -0.9513994357
H   2.2985502448 -0.7218947297  0.3365724525
7
Iter 43  Energy = -29.6073091096
C   0.8781779205  0.7838235777 -0.1634505956
H   0.6956806305  1.5579476952 -0.9204758374
O   0.5277196022  0.9726531474  1.1234137977
C   1.3502482086 -0.5558675250 -0.1938270830
H   0.7797331743 -0.2463188479  1.0630535209
H   1.0710614065 -1.3000960897 -0.9512665379
H   2.2986206819 -0.7217753167  0.3364919905
7
Iter 44  Energy = -29.6073097205
C   0.8781811826  0.7838284722 -0.1634686598
H   0.6957769531  1.5580346247 -0.9204362459
O   0.5276635914  0.9725782518  1.1233982383
C   1.3502644445 -0.5558643604 -0.1938448840
H   0.7796899688 -0.2463515084  1.0630144069
H   1.0709747405 -1.3002011145 -0.9511352034
H   2.2986907438 -0.7216577259  0.3364116031
7
Iter 45  Energy = -29.6073103464
C   0.8781836033  0.7838348684 -0.1634875588
H   0.6958729122  1.5581204805 -0.9203963545
O   0.5276071217  0.9725042716  1.1233829070
C   1.3502807059 -0.5558628638 -0.1938626741
H   0.7796477454 -0.2463835627  1.0629763869
H   1.0708891821 -1.3003047763 -0.9510048149
H   2.2987603540 -0.7215417785  0.3363313642
7
Iter 46  Energy = -29.6073110318
C   0.8781859898  0.7838395718 -0.1635054490
H   0.6959682374  1.5582063496 -0.9203570673
O   0.5275503523  0.9724311504  1.1233670566
C   1.3502964365 -0.5558601633 -0.1938797784
H   0.7796064893 -0.2464148841  1.0629391572
H   1.0708045137 -1.3004078236 -0.9508759062
H   2.2988296059 -0.7214275607  0.3362512418
7
Iter 47  Energy = -29.6073116279
C   0.8781876279  0.7838454842 -0.1635239694
H   0.6960631751  1.5582912483 -0.9203175903
O   0.5274931780  0.9723589151  1.1233513808
C   1.3503121522 -0.5558588323 -0.1938968007
H   0.7795661767 -0.2464456354  1.0629029200
H   1.0707208832 -1.3005096066 -0.9507479741
H   2.2988984319 -0.7213149332  0.3361712890
7
Iter 48  Energy = -29.6073122090
C   0.8781891964  0.7838499796 -0.1635416469
H   0.6961575066  1.5583760564 -0.9202786658
O   0.5274357273  0.9722874971  1.1233353073
C   1.3503274141 -0.5558565497 -0.1939131878
H   0.7795267903 -0.2464756902  1.0628674086
H   1.0706381163 -1.3006107057 -0.9506214199
H   2.2989668738 -0.7212039475  0.3360914602
7
Iter 49  Energy = -29.6073127455
C   0.8781900996  0.7838554687 -0.1635597893
H   0.6962514373  1.5584599455 -0.9202396180
O   0.5273779220  0.9722169389  1.1233193434
C   1.3503426507 -0.5558554333 -0.1939294880
H   0.7794883010 -0.2465052052  1.0628328364
H   1.0705563342 -1.3007105911 -0.9504958390
H   2.2990348796 -0.7210944825  0.3360118109
7
Iter 50  Energy = -29.6073133266
C   0.8781909252  0.7838597190 -0.1635772055
H   0.6963447837  1.5585436543 -0.9202010586
O   0.5273198551  0.9721471997  1.1233030540
C   1.3503574548 -0.5558534862 -0.1939452220
H   0.7794506932 -0.2465340733  1.0627989589
H   1.0704753776 -1.3008097873 -0.9503715930
H   2.2991025347 -0.7209865861  0.3359323237
7
Iter 51  Energy = -29.6073139226
C   0.8781911573  0.7838648178 -0.1635950311
H   0.6964377162  1.5586265074 -0.9201624534
O   0.5272614798  0.9720782619  1.1232868829
C   1.3503722200 -0.5558525199 -0.1939607956
H   0.7794139436 -0.2465624355  1.0627659619
H   1.0703953470 -1.3009078410 -0.9502483382
H   2.2991697601 -0.7208801495  0.3358530317
7
Iter 52  Energy = -29.6073144442
C   0.8781912763  0.7838688960 -0.1636121814
H   0.6965300802  1.5587091155 -0.9201243068
O   0.5272028795  0.9720101218  1.1232704032
C   1.3503866005 -0.5558509101 -0.1939758795
H   0.7793780351 -0.2465902148  1.0627336351
H   1.0703161254 -1.3010051525 -0.9501263263
H   2.2992366265 -0.7207752155  0.3357739157
7
Iter 53  Energy = -29.6073149955
C   0.8781908666  0.7838736468 -0.1636296095
H   0.6966220227  1.5587909066 -0.9200861655
O   0.5271440090  0.9719427611  1.1232540024
C   1.3504008951 -0.5558501246 -0.1939908161
H   0.7793429417 -0.2466175023  1.0627021156
H   1.0702377850 -1.3011013565 -0.9500052856
H   2.2993031034 -0.7206716910  0.3356950191
7
Iter 54  Energy = -29.6073155171
C   0.8781903439  0.7838775334 -0.1636465068
H   0.6967134146  1.5588723878 -0.9200484357
O   0.5270849375  0.9718761584  1.1232373652
C   1.3504148685 -0.5558487765 -0.1940052784
H   0.7793086456 -0.2466442444  1.0626712768
H   1.0701602110 -1.3011968269 -0.9498854768
H   2.2993692031 -0.7205695928  0.3356163174
7
Iter 55  Energy = -29.6073160386
C   0.8781893654  0.7838819665 -0.1636636456
H   0.6968043713  1.5589531042 -0.9200107627
O   0.5270256216  0.9718103298  1.1232208318
C   1.3504287597 -0.5558481366 -0.1940195865
H   0.7792751217 -0.2466705348  1.0626412223
H   1.0700834762 -1.3012912473 -0.9497666411
H   2.2994349088 -0.7204688438  0.3355378427
7
Iter 56  Energy = -29.6073165751
C   0.8781882521  0.7838856753 -0.1636803206
H   0.6968947941  1.5590334668 -0.9199734886
O   0.5269661430  0.9717451487  1.1232041282
C   1.3504424175 -0.5558470759 -0.1940335015
H   0.7792423240 -0.2466962019  1.0626118669
H   1.0700074902 -1.3013849146 -0.9496489856
H   2.2995002037 -0.7203694612  0.3354595627
7
Iter 57  Energy = -29.6073170817
C   0.8781867444  0.7838897685 -0.1636971219
H   0.6969847751  1.5591130938 -0.9199362979
O   0.5269064671  0.9716806964  1.1231874616
C   1.3504559491 -0.5558465508 -0.1940472615
H   0.7792102635 -0.2467214192  1.0625832476
H   1.0699323086 -1.3014775754 -0.9495322961
H   2.2995651173 -0.7202713767  0.3353815281
7
Iter 58  Energy = -29.6073175287
C   0.8781850984  0.7838932608 -0.1637135003
H   0.6970742332  1.5591923263 -0.9198994843
O   0.5268466425  0.9716169544  1.1231706413
C   1.3504691895 -0.5558456707 -0.1940606203
H   0.7791789342 -0.2467461658  1.0625552229
H   1.0698578465 -1.3015694642 -0.9494167260
H   2.2996296807 -0.7201746035  0.3353037263
7
Iter 59  Energy = -29.6073180205
C   0.8781830836  0.7838970860 -0.1637299452
H   0.6971632417  1.5592708660 -0.9198628058
O   0.5267866498  0.9715539468  1.1231538594
C   1.3504823210 -0.5558452741 -0.1940737777
H   0.7791483171 -0.2467705347  1.0625278614
H   1.0697841465 -1.3016603721 -0.9493021084
H   2.2996938655 -0.7200790790  0.3352261746
7
Iter 60  Energy = -29.6073185271
C   0.8781809224  0.7839003971 -0.1637459977
H   0.6972517369  1.5593489730 -0.9198264669
O   0.5267265328  0.9714916389  1.1231369412
C   1.3504952321 -0.5558446277 -0.1940866097
H   0.7791183798 -0.2467944453  1.0625010961
H   1.0697111486 -1.3017504915 -0.9491885602
H   2.2997576727 -0.7199848067  0.3351488556
7
Iter 61  Energy = -29.6073189592
C   0.8781784259  0.7839040159 -0.1637621375
H   0.6973397871  1.5594263821 -0.9197902606
O   0.5266662796  0.9714300085  1.1231200723
C   1.3505080537 -0.5558443806 -0.1940992070
H   0.7790891157 -0.2468179682  1.0624749765
H   1.0696388693 -1.3018396865 -0.9490759783
H   2.2998210949 -0.7198917332  0.3350717940
7
Iter 62  Energy = -29.6073194659
C   0.8781757912  0.7839071798 -0.1637778932
H   0.6974273337  1.5595033456 -0.9197544061
O   0.5266059347  0.9713690325  1.1231030825
C   1.3505206098 -0.5558438886 -0.1941114726
H   0.7790605148 -0.2468410717  1.0624493884
H   1.0695672704 -1.3019280975 -0.9489644249
H   2.2998841713 -0.7197998621  0.3349949859
7
Iter 63  Energy = -29.6073199278
C   0.8781728611  0.7839105826 -0.1637936889
H   0.6975144255  1.5595796391 -0.9197187018
O   0.5265454783  0.9713087271  1.1230861340
C   1.3505330725 -0.5558437496 -0.1941235426
H   0.7790325425 -0.2468638051  1.0624244305
H   1.0694963589 -1.3020156093 -0.9488538244
H   2.2999468869 -0.7197091466  0.3349184553
7
Iter 64  Energy = -29.6073203450
C   0.8781697986  0.7839135793 -0.1638091880
H   0.6976010226  1.5596554653 -0.9196833320
O   0.5264849365  0.9712490726  1.1230691354
C   1.3505453290 -0.5558434197 -0.1941353054
H   0.7790051990 -0.2468861332  1.0623999950
H   1.0694261051 -1.3021023370 -0.9487442255
H   2.3000092345 -0.7196195884  0.3348421799
7
Iter 65  Energy = -29.6073207623
C   0.8781664629  0.7839167791 -0.1638246671
H   0.6976871648  1.5597306437 -0.9196481394
O   0.5264243232  0.9711900392  1.1230521489
C   1.3505574990 -0.5558434012 -0.1941468543
H   0.7789784575 -0.2469081075  1.0623761430
H   1.0693565208 -1.3021881789 -0.9486355419
H   2.3000711975 -0.7195311354  0.3347661703
7
Iter 66  Energy = -29.6073212838
C   0.8781630066  0.7839196012 -0.1638398175
H   0.6977728096  1.5598053565 -0.9196132790
O   0.5263636550  0.9711316261  1.1230350971
C   1.3505694677 -0.5558432116 -0.1941581210
H   0.7789523075 -0.2469296804  1.0623527895
H   1.0692875630 -1.3022732596 -0.9485278485
H   2.3001328162 -0.7194437939  0.3346904391
7
Iter 67  Energy = -29.6073216414
C   0.8781593067  0.7839226085 -0.1638549897
H   0.6978580119  1.5598794011 -0.9195785883
O   0.5263029226  0.9710738276  1.1230181128
C   1.3505812804 -0.5558433059 -0.1941692464
H   0.7789267335 -0.2469509125  1.0623299914
H   1.0692192664 -1.3023574504 -0.9484210278
H   2.3001941042 -0.7193575294  0.3346150083
7
Iter 68  Energy = -29.6073220736
C   0.8781554906  0.7839252672 -0.1638698597
H   0.6979427173  1.5599529824 -0.9195442184
O   0.5262421655  0.9710166247  1.1230010502
C   1.3505929502 -0.5558432210 -0.1941800539
H   0.7789017177 -0.2469717807  1.0623076863
H   1.0691515663 -1.3024409012 -0.9483151896
H   2.3002550174 -0.7192723318  0.3345398435
7
Iter 69  Energy = -29.6073224908
C   0.8781514489  0.7839280664 -0.1638846665
H   0.6980269691  1.5600259450 -0.9195100540
O   0.5261813755  0.9709600248  1.1229840138
C   1.3506045212 -0.5558433830 -0.1941906626
H   0.7788772552 -0.2469923447  1.0622858910
H   1.0690844927 -1.3025235055 -0.9482102243
H   2.3003155628 -0.7191881630  0.3344649625
7
Iter 70  Energy = -29.6073229080
C   0.8781472881  0.7839306245 -0.1638992602
H   0.6981107396  1.5600984048 -0.9194761860
O   0.5261205742  0.9709039968  1.1229669511
C   1.3506159136 -0.5558434392 -0.1942009967
H   0.7788533289 -0.2470125739  1.0622645604
H   1.0690179998 -1.3026053525 -0.9481061901
H   2.3003757813 -0.7191050203  0.3343903810
7
Iter 71  Energy = -29.6073232955
C   0.8781429227  0.7839333120 -0.1639138177
H   0.6981940573  1.5601702423 -0.9194425058
O   0.5260597575  0.9708485220  1.1229499466
C   1.3506272092 -0.5558437394 -0.1942111676
H   0.7788299161 -0.2470324449  1.0622437247
H   1.0689521132 -1.3026863777 -0.9480030216
H   2.3004356492 -0.7190228737  0.3343161005
7
Iter 72  Energy = -29.6073236978
C   0.8781384703  0.7839356955 -0.1639281075
H   0.6982768954  1.5602415985 -0.9194091492
O   0.5259989441  0.9707936227  1.1229329185
C   1.3506383281 -0.5558438682 -0.1942210717
H   0.7788070154 -0.2470520079  1.0622233286
H   1.0688867882 -1.3027666845 -0.9479007773
H   2.3004951836 -0.7189417149  0.3342421168
7
Iter 73  Energy = -29.6073241001
C   0.8781338176  0.7839382073 -0.1639423411
H   0.6983592861  1.5603123415 -0.9193759978
O   0.5259381420  0.9707392750  1.1229159352
C   1.3506493629 -0.5558442279 -0.1942308091
H   0.7787846091 -0.2470712745  1.0622033988
H   1.0688220527 -1.3028461653 -0.9477993565
H   2.3005543549 -0.7188615141  0.3341684291
7
Iter 74  Energy = -29.6073245472
C   0.8781290939  0.7839404375 -0.1639563363
H   0.6984411929  1.5603826003 -0.9193431388
O   0.5258773612  0.9706854792  1.1228989291
C   1.3506602205 -0.5558444604 -0.1942403354
H   0.7787626821 -0.2470902297  1.0621839044
H   1.0687578696 -1.3029249179 -0.9476988183
H   2.3006132043 -0.7187822680  0.3340950522
7
Iter 75  Energy = -29.6073249197
C   0.8781241884  0.7839428059 -0.1639702931
H   0.6985226569  1.5604522490 -0.9193104934
O   0.5258165998  0.9706322239  1.1228819984
C   1.3506710152 -0.5558448850 -0.1942496520
H   0.7787412305 -0.2471089145  1.0621648460
H   1.0686942399 -1.3030028952 -0.9475991220
H   2.3006716940 -0.7187039428  0.3340219745
7
Iter 76  Energy = -29.6073252326
C   0.8781191925  0.7839449352 -0.1639840019
H   0.6986036486  1.5605214101 -0.9192781476
O   0.5257558892  0.9705794734  1.1228650479
C   1.3506816400 -0.5558452201 -0.1942587674
H   0.7787202363 -0.2471272763  1.0621461884
H   1.0686311525 -1.3030801412 -0.9475002770
H   2.3007298656 -0.7186265414  0.3339492149
7
Iter 77  Energy = -29.6073256797
C   0.8781140435  0.7839471765 -0.1639976640
H   0.6986841890  1.5605899861 -0.9192460086
O   0.5256952217  0.9705272444  1.1228481415
C   1.3506921674 -0.5558457196 -0.1942676932
H   0.7786996909 -0.2471453902  1.0621279569
H   1.0685686053 -1.3031566238 -0.9474022463
H   2.3007877067 -0.7185500326  0.3338767705
7
Iter 78  Energy = -29.6073259032
C   0.8781088264  0.7839491945 -0.1640111294
H   0.6987642624  1.5606580616 -0.9192141523
O   0.5256346022  0.9704755311  1.1228312703
C   1.3507026083 -0.5558461320 -0.1942764133
H   0.7786795739 -0.2471631975  1.0621101307
H   1.0685065757 -1.3032324150 -0.9473050700
H   2.3008451754 -0.7184744024  0.3338046185
7
Iter 79  Energy = -29.6073263502
C   0.8781034598  0.7839513097 -0.1640244974
H   0.6988438931  1.5607255494 -0.9191825134
O   0.5255740431  0.9704243160  1.1228144419
C   1.3507129280 -0.5558467029 -0.1942849689
H   0.7786598873 -0.2471807493  1.0620926789
H   1.0684450706 -1.3033074472 -0.9472086804
H   2.3009023425 -0.7183996349  0.3337327956
7
Iter 80  Energy = -29.6073266333
C   0.8780980321  0.7839532243 -0.1640376938
H   0.6989230584  1.5607925479 -0.9191511508
O   0.5255135581  0.9703735835  1.1227976333
C   1.3507231451 -0.5558471661 -0.1942932979
H   0.7786406117 -0.2471980209  1.0620756188
H   1.0683840694 -1.3033818065 -0.9471131281
H   2.3009591495 -0.7183257211  0.3336612747
7
Iter 81  Energy = -29.6073270506
C   0.8780924765  0.7839551855 -0.1640507599
H   0.6990017770  1.5608589870 -0.9191200218
O   0.5254531541  0.9703233442  1.1227808481
C   1.3507332386 -0.5558477685 -0.1943014972
H   0.7786217414 -0.2472150574  1.0620589354
H   1.0683235856 -1.3034554072 -0.9470183334
H   2.3010156518 -0.7182526422  0.3335900854
7
Iter 82  Energy = -29.6073273188
C   0.8780868593  0.7839569931 -0.1640636615
H   0.6990800340  1.5609249332 -0.9190891619
O   0.5253928340  0.9702735687  1.1227641084
C   1.3507432137 -0.5558483049 -0.1943095073
H   0.7786032601 -0.2472318034  1.0620426199
H   1.0682635908 -1.3035283541 -0.9469243650
H   2.3010718331 -0.7181803913  0.3335192239
7
Iter 83  Energy = -29.6073276466
C   0.8780811127  0.7839588572 -0.1640764601
H   0.6991578500  1.5609903228 -0.9190585273
O   0.5253326061  0.9702242694  1.1227474132
C   1.3507531362 -0.5558489894 -0.1943173573
H   0.7785851617 -0.2472483157  1.0620266583
H   1.0682040883 -1.3036005647 -0.9468311432
H   2.3011276704 -0.7181089388  0.3334486735
7
Iter 1  Energy = -29.6072649276
C   0.8774142824  0.7830990540 -0.1629197683
H   0.6911157314  1.5542112574 -0.9219981374
O   0.5295044648  0.9761724154  1.1235525250
C   1.3489902694 -0.5563133076 -0.1924495767
H   0.7827179949 -0.2431865806  1.0662175974
H   1.0762279008 -1.2945865803 -0.9580893328
H   2.2952709792 -0.7290296052  0.3396259450
7
Iter 2  Energy = -29.6072675204
C   0.8774378814  0.7832077984 -0.1629437471
H   0.6912490264  1.5542701061 -0.9219666772
O   0.5294556058  0.9761499126  1.1236093471
C   1.3490809834 -0.5563634882 -0.1925369044
H   0.7826169507 -0.2433848020  1.0660921278
H   1.0760431347 -1.2947418933 -0.9578794501
H   2.2953580407 -0.7287709800  0.3395645578
7
Iter 3  Energy = -29.6072690851
C   0.8775004448  0.7831527019 -0.1628803645
H   0.6913662623  1.5543831283 -0.9219752529
O   0.5294201435  0.9761023350  1.1236199231
C   1.3491340427 -0.5562642146 -0.1925860809
H   0.7825152023 -0.2435498839  1.0659602129
H   1.0758560161 -1.2949312011 -0.9577008121
H   2.2954495114 -0.7285262113  0.3395016282
7
Iter 4  Energy = -29.6072706646
C   0.8775200132  0.7832576768 -0.1629090569
H   0.6914963612  1.5544420289 -0.9219360496
O   0.5293805408  0.9760491176  1.1236588043
C   1.3492068711 -0.5563028409 -0.1926610133
H   0.7824158567 -0.2437147344  1.0658443170
H   1.0756834221 -1.2950825507 -0.9574979396
H   2.2955385587 -0.7282820422  0.3394401917
7
Iter 5  Energy = -29.6072721547
C   0.8775720820  0.7832241562 -0.1628628901
H   0.6916137585  1.5545474490 -0.9219314988
O   0.5293487878  0.9759843592  1.1236608335
C   1.3492483953 -0.5562197540 -0.1927023284
H   0.7823180780 -0.2438599867  1.0657190149
H   1.0755087385 -1.2952607527 -0.9573191838
H   2.2956317831 -0.7280488162  0.3393753068
7
Iter 6  Energy = -29.6072735703
C   0.8775907247  0.7833155641 -0.1628910258
H   0.6917410099  1.5546109743 -0.9218896815
O   0.5293129502  0.9759143928  1.1236874745
C   1.3493080061 -0.5562474558 -0.1927659097
H   0.7822216272 -0.2440019888  1.0656091992
H   1.0753460014 -1.2954084800 -0.9571217809
H   2.2957213038 -0.7278163517  0.3393109801
7
Iter 7  Energy = -29.6072750306
C   0.8776357945  0.7832945169 -0.1628588041
H   0.6918576261  1.5547129696 -0.9218764617
O   0.5292823232  0.9758368136  1.1236854419
C   1.3493437388 -0.5561782464 -0.1928026576
H   0.7821271028 -0.2441288433  1.0654916465
H   1.0751815027 -1.2955773457 -0.9569435387
H   2.2958135349 -0.7275932096  0.3392436280
7
Iter 8  Energy = -29.6072763717
C   0.8776544597  0.7833720248 -0.1628862244
H   0.6919818524  1.5547820295 -0.9218337928
O   0.5292478594  0.9757553952  1.1237038691
C   1.3493945765 -0.5561979727 -0.1928581694
H   0.7820336881 -0.2442520394  1.0653877692
H   1.0750269485 -1.2957215851 -0.9567507662
H   2.2959022390 -0.7273711981  0.3391765674
7
Iter 9  Energy = -29.6072777575
C   0.8776942852  0.7833587600 -0.1628651572
H   0.6920973602  1.5548822598 -0.9218142799
O   0.5292169600  0.9756693110  1.1236997009
C   1.3494266867 -0.5561404216 -0.1928921484
H   0.7819423531 -0.2443635935  1.0652778566
H   1.0748712667 -1.2958825059 -0.9565736042
H   2.2959927120 -0.7271571568  0.3391068838
7
Iter 10  Energy = -29.6072790688
C   0.8777129811  0.7834238390 -0.1628919164
H   0.6922187795  1.5549563592 -0.9217713588
O   0.5291825651  0.9755807178  1.1237122397
C   1.3494711860 -0.5561543310 -0.1929415246
H   0.7818521577 -0.2444718531  1.0651796572
H   1.0747239003 -1.2960235032 -0.9563851887
H   2.2960800547 -0.7269445751  0.3390373441
7
Iter 11  Energy = -29.6072803652
C   0.8777485266  0.7834158623 -0.1628797774
H   0.6923330647  1.5550555857 -0.9217470959
O   0.5291506177  0.9754892149  1.1237068218
C   1.3495008648 -0.5561065311 -0.1929736540
H   0.7817640244 -0.2445708572  1.0650769743
H   1.0745759279 -1.2961776971 -0.9562096148
H   2.2961685989 -0.7267389230  0.3389655985
7
Iter 12  Energy = -29.6072816318
C   0.8777670117  0.7834703958 -0.1629058929
H   0.6924519459  1.5551339342 -0.9217041203
O   0.5291155629  0.9753962350  1.1237147687
C   1.3495405608 -0.5561161016 -0.1930181986
H   0.7816771196 -0.2446670614  1.0649841888
H   1.0744349319 -1.2963157327 -0.9560254082
H   2.2962544926 -0.7265350144  0.3388939145
7
Iter 13  Energy = -29.6072828388
C   0.8777988742  0.7834660725 -0.1629007681
H   0.6925649764  1.5552324877 -0.9216761465
O   0.5290821814  0.9753014676  1.1237082733
C   1.3495684401 -0.5560762626 -0.1930489783
H   0.7815921871 -0.2447557369  1.0648883002
H   1.0742937500 -1.2964641482 -0.9558518446
H   2.2963412167 -0.7263372263  0.3388204147
7
Iter 14  Energy = -29.6072839713
C   0.8778169244  0.7835118015 -0.1629264607
H   0.6926815906  1.5553142542 -0.9216331514
O   0.5290460082  0.9752059814  1.1237126072
C   1.3496045065 -0.5560824901 -0.1930896933
H   0.7815085183 -0.2448420220  1.0648008293
H   1.0741584401 -1.2965995049 -0.9556717636
H   2.2964256381 -0.7261413664  0.3387468841
7
Iter 15  Energy = -29.6072852379
C   0.8778455363  0.7835101832 -0.1629269174
H   0.6927933849  1.5554122501 -0.9216022235
O   0.5290109318  0.9751095591  1.1237052421
C   1.3496311046 -0.5560491816 -0.1931193832
H   0.7814267757 -0.2449221709  1.0647112134
H   1.0740232676 -1.2967430333 -0.9555005612
H   2.2965106250 -0.7259509523  0.3386718827
7
Iter 16  Energy = -29.6072863704
C   0.8778628984  0.7835486994 -0.1629520925
H   0.6929079403  1.5554967414 -0.9215592438
O   0.5289733859  0.9750129610  1.1237065239
C   1.3496642469 -0.5560529589 -0.1931570171
H   0.7813463627 -0.2450002653  1.0646287121
H   1.0738931074 -1.2968759071 -0.9553244707
H   2.2965936842 -0.7257626163  0.3385968421
7
Iter 17  Energy = -29.6072873837
C   0.8778885894  0.7835491281 -0.1629569983
H   0.6930185213  1.5555942249 -0.9215259638
O   0.5289364945  0.9749160199  1.1236983872
C   1.3496897529 -0.5560250420 -0.1931857627
H   0.7812678051 -0.2450733109  1.0645448407
H   1.0737633462 -1.2970151923 -0.9551558506
H   2.2966771166 -0.7255791727  0.3385206008
7
Iter 18  Energy = -29.6072885162
C   0.8779050873  0.7835817568 -0.1629816717
H   0.6931312064  1.5556808302 -0.9214830557
O   0.5288974202  0.9748193015  1.1236971329
C   1.3497204758 -0.5560269899 -0.1932208480
H   0.7811906137 -0.2451445874  1.0644670176
H   1.0736378803 -1.2971457580 -0.9549836545
H   2.2967589422 -0.7253978986  0.3384443314
7
Iter 19  Energy = -29.6072896487
C   0.8779281018  0.7835837685 -0.1629900226
H   0.6932405993  1.5557777976 -0.9214479162
O   0.5288586964  0.9747226383  1.1236882142
C   1.3497450254 -0.5560035190 -0.1932486927
H   0.7811152076 -0.2452116588  1.0643883891
H   1.0735130055 -1.2972813179 -0.9548177971
H   2.2968409893 -0.7252210529  0.3383670803
7
Iter 20  Energy = -29.6072906768
C   0.8779436017  0.7836115655 -0.1630142110
H   0.6933515784  1.5558659546 -0.9214050334
O   0.5288180382  0.9746264820  1.1236847527
C   1.3497736918 -0.5560040630 -0.1932815910
H   0.7810411779 -0.2452771392  1.0643149367
H   1.0733918609 -1.2974097119 -0.9546493995
H   2.2969216766 -0.7250464319  0.3382898005
7
Iter 21  Energy = -29.6072917050
C   0.8779642092  0.7836146926 -0.1630252690
H   0.6934598069  1.5559623822 -0.9213684227
O   0.5287774848  0.9745306763  1.1236751090
C   1.3497973987 -0.5559842332 -0.1933086014
H   0.7809688603 -0.2453390914  1.0642411399
H   1.0732714463 -1.2975419491 -0.9544864145
H   2.2970024196 -0.7248758222  0.3382117125
7
Iter 22  Energy = -29.6072926587
C   0.8779786280  0.7836385134 -0.1630489762
H   0.6935692011  1.5560516632 -0.9213256125
O   0.5287352189  0.9744355895  1.1236697541
C   1.3498243332 -0.5559837695 -0.1933396055
H   0.7808979298 -0.2453996499  1.0641717589
H   1.0731543022 -1.2976682192 -0.9543216669
H   2.2970820124 -0.7247074726  0.3381336001
7
Iter 23  Energy = -29.6072936273
C   0.8779970139  0.7836424824 -0.1630620953
H   0.6936762847  1.5561475193 -0.9212878621
O   0.5286928803  0.9743410736  1.1236593946
C   1.3498472316 -0.5559670080 -0.1933658215
H   0.7808286374 -0.2454572113  1.0641023773
H   1.0730379947 -1.2977974108 -0.9541615843
H   2.2971615824 -0.7245427909  0.3380548435
7
Iter 24  Energy = -29.6072945213
C   0.8780102866  0.7836630916 -0.1630853767
H   0.6937842159  1.5562375170 -0.9212451344
O   0.5286490243  0.9742473818  1.1236524512
C   1.3498726928 -0.5559658505 -0.1933951437
H   0.7807607186 -0.2455134946  1.0640367904
H   1.0729245576 -1.2979216371 -0.9540003940
H   2.2972401300 -0.7243803546  0.3379760579
7
Iter 25  Energy = -29.6072954750
C   0.8780266321  0.7836676660 -0.1631000764
H   0.6938901796  1.5563327468 -0.9212065132
O   0.5286049743  0.9741544198  1.1236414068
C   1.3498948304 -0.5559515992 -0.1934205180
H   0.7806943786 -0.2455672515  1.0639714326
H   1.0728120312 -1.2980480285 -0.9538432447
H   2.2973186000 -0.7242212991  0.3378967624
7
Iter 26  Energy = -29.6072963691
C   0.8780387582  0.7836855673 -0.1631228960
H   0.6939967182  1.5564231886 -0.9211639153
O   0.5285595716  0.9740623830  1.1236330407
C   1.3499189731 -0.5559499361 -0.1934483100
H   0.7806293984 -0.2456198524  1.0639093688
H   1.0727020533 -1.2981702351 -0.9536854859
H   2.2973961535 -0.7240644611  0.3378174454
7
Iter 27  Energy = -29.6072973079
C   0.8780532245  0.7836905512 -0.1631387839
H   0.6941015852  1.5565177280 -0.9211246351
O   0.5285138885  0.9739711776  1.1236213386
C   1.3499404210 -0.5559377943 -0.1934728673
H   0.7805659196 -0.2456702652  1.0638477400
H   1.0725930354 -1.2982940019 -0.9535312675
H   2.2974735526 -0.7239107423  0.3377377222
7
Iter 28  Energy = -29.6072980976
C   0.8780641782  0.7837062512 -0.1631611760
H   0.6942068146  1.5566083271 -0.9210821903
O   0.5284669918  0.9738809448  1.1236117805
C   1.3499634192 -0.5559358520 -0.1934992931
H   0.7805037731 -0.2457196029  1.0637889531
H   1.0724862941 -1.2984142107 -0.9533768264
H   2.2975501558 -0.7237592041  0.3376580000
7
Iter 29  Energy = -29.6072990513
C   0.8780769248  0.7837114931 -0.1631779261
H   0.6943105936  1.5567021446 -0.9210424533
O   0.5284197737  0.9737915849  1.1235994535
C   1.3499841332 -0.5559254658 -0.1935230225
H   0.7804430736 -0.2457670515  1.0637307172
H   1.0723805529 -1.2985354849 -0.9532254919
H   2.2976265750 -0.7236105667  0.3375779699
7
Iter 30  Energy = -29.6072998411
C   0.8780867384  0.7837253291 -0.1631998828
H   0.6944145682  1.5567926853 -0.9210001943
O   0.5283714609  0.9737032668  1.1235888156
C   1.3500060484 -0.5559233224 -0.1935481891
H   0.7803836726 -0.2458135355  1.0636749849
H   1.0722768526 -1.2986537079 -0.9530742476
H   2.2977022857 -0.7234640625  0.3374979604
7
Iter 31  Energy = -29.6073006308
C   0.8780978996  0.7837306844 -0.1632172900
H   0.6945172853  1.5568857066 -0.9209601382
O   0.5283227732  0.9736158660  1.1235759543
C   1.3500261035 -0.5559144073 -0.1935711202
H   0.7803256490 -0.2458583382  1.0636199006
H   1.0721741623 -1.2987726000 -0.9529257703
H   2.2977777541 -0.7233202582  0.3374177121
7
Iter 32  Energy = -29.6073014355
C   0.8781065685  0.7837430544 -0.1632388280
H   0.6946200633  1.5569759755 -0.9209180826
O   0.5282731176  0.9735295799  1.1235643773
C   1.3500470598 -0.5559122504 -0.1935951055
H   0.7802689058 -0.2459023553  1.0635669902
H   1.0720733313 -1.2988888305 -0.9527776014
H   2.2978525808 -0.7231785204  0.3373374980
7
Iter 33  Energy = -29.6073022699
C   0.8781162362  0.7837484631 -0.1632565876
H   0.6947217185  1.5570681949 -0.9208778710
O   0.5282230914  0.9734442302  1.1235509207
C   1.3500664313 -0.5559045890 -0.1936171884
H   0.7802134831 -0.2459448984  1.0635147802
H   1.0719735232 -1.2990054273 -0.9526319219
H   2.2979271429 -0.7230393193  0.3372571165
7
Iter 34  Energy = -29.6073029405
C   0.8781238098  0.7837595434 -0.1632777355
H   0.6948233317  1.5571580675 -0.9208360589
O   0.5281721914  0.9733599042  1.1235385446
C   1.3500865378 -0.5559024740 -0.1936400768
H   0.7801592714 -0.2459865806  1.0634645489
H   1.0718754115 -1.2991196919 -0.9524867498
H   2.2980010728 -0.7229021152  0.3371767752
7
Iter 35  Energy = -29.6073037750
C   0.8781321262  0.7837649467 -0.1632957943
H   0.6949239431  1.5572494213 -0.9207958020
O   0.5281209083  0.9732765212  1.1235246428
C   1.3501052963 -0.5558958849 -0.1936613401
H   0.7801063197 -0.2460269722  1.0634150650
H   1.0717783030 -1.2992340912 -0.9523438530
H   2.2980747296 -0.7227672882  0.3370963298
7
Iter 36  Energy = -29.6073044455
C   0.8781386648  0.7837748865 -0.1633165243
H   0.6950244252  1.5573387777 -0.9207542942
O   0.5280688465  0.9731941672  1.1235115590
C   1.3501245676 -0.5558937921 -0.1936831874
H   0.7800545507 -0.2460665879  1.0633673210
H   1.0716827570 -1.2993463976 -0.9522015740
H   2.2981478141 -0.7226344015  0.3370159492
7
Iter 37  Energy = -29.6073052055
C   0.8781457213  0.7837802130 -0.1633347183
H   0.6951240071  1.5574292134 -0.9207140713
O   0.5280164109  0.9731127393  1.1234972062
C   1.3501427330 -0.5558881363 -0.1937036476
H   0.7800039799 -0.2461050262  1.0633203377
H   1.0715882010 -1.2994586137 -0.9520613578
H   2.2982205726 -0.7225037359  0.3369354992
7
Iter 38  Energy = -29.6073059505
C   0.8781512480  0.7837892498 -0.1633550342
H   0.6952233913  1.5575179162 -0.9206728655
O   0.5279632837  0.9730323230  1.1234834686
C   1.3501612755 -0.5558861882 -0.1937245432
H   0.7799545355 -0.2461427429  1.0632749582
H   1.0714950851 -1.2995689572 -0.9519218760
H   2.2982928066 -0.7223749457  0.3368551401
7
Iter 39  Energy = -29.6073066062
C   0.8781571553  0.7837944271 -0.1633732704
H   0.6953219504  1.5576074066 -0.9206327613
O   0.5279097695  0.9729528700  1.1234687335
C   1.3501788433 -0.5558813117 -0.1937442697
H   0.7799062416 -0.2461794197  1.0632303377
H   1.0714029462 -1.2996790563 -0.9517842868
H   2.2983647196 -0.7222482604  0.3367747655
7
Iter 40  Energy = -29.6073072171
C   0.8781617438  0.7838026307 -0.1633932218
H   0.6954202643  1.5576953601 -0.9205918961
O   0.5278556407  0.9728743802  1.1234544921
C   1.3501966765 -0.5558794702 -0.1937642652
H   0.7798590330 -0.2462154034  1.0631871577
H   1.0713121407 -1.2997874568 -0.9516475146
H   2.2984361275 -0.7221233838  0.3366944954
7
Iter 41  Energy = -29.6073080069
C   0.8781665557  0.7838077013 -0.1634113897
H   0.6955178158  1.5577838457 -0.9205519551
O   0.5278011702  0.9727968058  1.1234393353
C   1.3502137032 -0.5558752511 -0.1937831822
H   0.7798129245 -0.2462504496  1.0631447224
H   1.0712222730 -1.2998955083 -0.9515125187
H   2.2985071841 -0.7220004869  0.3366142365
7
Iter 42  Energy = -29.6073086178
C   0.8781702290  0.7838152168 -0.1634309525
H   0.6956150775  1.5578709836 -0.9205114487
O   0.5277461404  0.9727201712  1.1234246164
C   1.3502309160 -0.5558735928 -0.1938023078
H   0.7797678473 -0.2462848189  1.0631036110
H   1.0711336562 -1.3000019731 -0.9513783784
H   2.2985777604 -0.7218793294  0.3365341085
7
Iter 43  Energy = -29.6073092288
C   0.8781740546  0.7838201092 -0.1634490427
H   0.6957116253  1.5579584572 -0.9204717632
O   0.5276907764  0.9726444457  1.1234091687
C   1.3502474007 -0.5558699725 -0.1938204967
H   0.7797238240 -0.2463183583  1.0630632329
H   1.0710459598 -1.3001079685 -0.9512458751
H   2.2986479867 -0.7217600548  0.3364540246
7
Iter 44  Energy = -29.6073099440
C   0.8781768837  0.7838270023 -0.1634682136
H   0.6958078486  1.5580447104 -0.9204316358
O   0.5276349191  0.9725696357  1.1233940230
C   1.3502639955 -0.5558684480 -0.1938387826
H   0.7796807926 -0.2463512681  1.0630240479
H   1.0709594196 -1.3002125185 -0.9511142836
H   2.2987177681 -0.7216424561  0.3363740939
7
Iter 45  Energy = -29.6073104656
C   0.8781797775  0.7838317263 -0.1634861412
H   0.6959033995  1.5581311424 -0.9203922315
O   0.5275787492  0.9724956955  1.1233782824
C   1.3502799892 -0.5558653584 -0.1938562718
H   0.7796387504 -0.2463833712  1.0629856137
H   1.0708737759 -1.3003165325 -0.9509842424
H   2.2987871849 -0.7215266449  0.3362942404
7
Iter 46  Energy = -29.6073111510
C   0.8781818201  0.7838380414 -0.1635049408
H   0.6959986002  1.5582164654 -0.9203525160
O   0.5275221346  0.9724226593  1.1233628068
C   1.3502960160 -0.5558640036 -0.1938737827
H   0.7795976677 -0.2464148918  1.0629482576
H   1.0707892241 -1.3004191757 -0.9508551238
H   2.2988561635 -0.7214124372  0.3362145482
7
Iter 47  Energy = -29.6073117322
C   0.8781838563  0.7838425886 -0.1635226619
H   0.6960931630  1.5583018294 -0.9203134481
O   0.5274652430  0.9723504540  1.1233468113
C   1.3503115525 -0.5558613934 -0.1938905571
H   0.7795575316 -0.2464456777  1.0629116290
H   1.0707055368 -1.3005212237 -0.9507274728
H   2.2989247425 -0.7212999201  0.3361349483
7
Iter 48  Energy = -29.6073122537
C   0.8781851482  0.7838484359 -0.1635411006
H   0.6961873550  1.5583861645 -0.9202741530
O   0.5274079600  0.9722790985  1.1233310241
C   1.3503270755 -0.5558601824 -0.1939072935
H   0.7795183009 -0.2464758989  1.0628760187
H   1.0706228702 -1.3006220025 -0.9506007824
H   2.2989929151 -0.7211889574  0.3360555359
7
Iter 49  Energy = -29.6073128945
C   0.8781863944  0.7838528057 -0.1635586171
H   0.6962809342  1.5584704349 -0.9202354285
O   0.5273504146  0.9722085862  1.1233148098
C   1.3503421355 -0.5558579855 -0.1939234258
H   0.7794799729 -0.2465054559  1.0628411159
H   1.0705410478 -1.3007221210 -0.9504754637
H   2.2990607257 -0.7210796064  0.3359762583
7
Iter 50  Energy = -29.6073134756
C   0.8781869953  0.7838582018 -0.1635766688
H   0.6963741178  1.5585537728 -0.9201965766
O   0.5272925269  0.9721388919  1.1232987528
C   1.3503571922 -0.5558569469 -0.1939394543
H   0.7794425099 -0.2465344731  1.0628071541
H   1.0704601860 -1.3008210486 -0.9503511199
H   2.2991280969 -0.7209717404  0.3358971611
7
Iter 51  Energy = -29.6073140121
C   0.8781875188  0.7838623483 -0.1635939500
H   0.6964667252  1.5586369344 -0.9201582444
O   0.5272344045  0.9720699841  1.1232823614
C   1.3503718216 -0.5558550662 -0.1939549187
H   0.7794059084 -0.2465628555  1.0627738570
H   1.0703801351 -1.3009192746 -0.9502280780
H   2.2991951114 -0.7208654129  0.3358182209
7
Iter 52  Energy = -29.6073145336
C   0.8781874673  0.7838673681 -0.1636116741
H   0.6965589207  1.5587192277 -0.9201198585
O   0.5271759760  0.9720018841  1.1232661181
C   1.3503863935 -0.5558541845 -0.1939702802
H   0.7793701335 -0.2465907516  1.0627414531
H   1.0703010013 -1.3010163613 -0.9501060039
H   2.2992617322 -0.7207605248  0.3357394943
7
Iter 53  Energy = -29.6073150700
C   0.8781873079  0.7838713557 -0.1636287141
H   0.6966505564  1.5588012689 -0.9200819331
O   0.5271173490  0.9719345445  1.1232495597
C   1.3504006218 -0.5558526179 -0.1939851211
H   0.7793351717 -0.2466180634  1.0627097074
H   1.0702226485 -1.3011127302 -0.9499851824
H   2.2993279689 -0.7206571007  0.3356609328
7
Iter 54  Energy = -29.6073156363
C   0.8781866401  0.7838760327 -0.1636460516
H   0.6967417720  1.5588824944 -0.9200440245
O   0.5270584538  0.9718679879  1.1232331253
C   1.3504147671 -0.5558519117 -0.1939998502
H   0.7793010030 -0.2466448993  1.0626787649
H   1.0701451674 -1.3012079951 -0.9498653134
H   2.2993938204 -0.7205550520  0.3355825966
7
Iter 55  Energy = -29.6073161727
C   0.8781858653  0.7838798062 -0.1636627945
H   0.6968324386  1.5589634286 -0.9200065539
O   0.5269993849  0.9718021657  1.1232164301
C   1.3504285975 -0.5558506129 -0.1940140694
H   0.7792676149 -0.2466711971  1.0626484489
H   1.0700684376 -1.3013025347 -0.9497466583
H   2.2994592852 -0.7204543990  0.3355044434
7
Iter 56  Energy = -29.6073166645
C   0.8781846474  0.7838841242 -0.1636797982
H   0.6969226772  1.5590435787 -0.9199691250
O   0.5269401015  0.9717370016  1.1231998343
C   1.3504423583 -0.5558499948 -0.1940281917
H   0.7792349442 -0.2466969401  1.0626189762
H   1.0699925323 -1.3013960394 -0.9496289807
H   2.2995243630 -0.7203550742  0.3354265300
7
Iter 57  Energy = -29.6073171711
C   0.8781832938  0.7838877630 -0.1636963173
H   0.6970123852  1.5591233676 -0.9199320944
O   0.5268806608  0.9716725611  1.1231830476
C   1.3504558304 -0.5558489872 -0.1940419190
H   0.7792030132 -0.2467221872  1.0625901435
H   1.0699173649 -1.3014887737 -0.9495124484
H   2.2995890749 -0.7202570872  0.3353488330
7
Iter 58  Energy = -29.6073177224
C   0.8781815533  0.7838917960 -0.1637129786
H   0.6971016583  1.5592024164 -0.9198951587
O   0.5268210284  0.9716088573  1.1231663282
C   1.3504691943 -0.5558484884 -0.1940554492
H   0.7791718074 -0.2467470308  1.0625620081
H   1.0698429840 -1.3015805181 -0.9493968708
H   2.2996533975 -0.7201603765  0.3352713666
7
Iter 59  Energy = -29.6073181844
C   0.8781796784  0.7838952321 -0.1637292265
H   0.6971904085  1.5592810690 -0.9198585824
O   0.5267612578  0.9715458713  1.1231494565
C   1.3504822849 -0.5558476739 -0.1940686227
H   0.7791413025 -0.2467714083  1.0625344767
H   1.0697693125 -1.3016714854 -0.9492823975
H   2.2997173788 -0.7200649484  0.3351941411
7
Iter 60  Energy = -29.6073186016
C   0.8781774469  0.7838990091 -0.1637455576
H   0.6972787165  1.5593590121 -0.9198221364
O   0.5267013348  0.9714835765  1.1231326324
C   1.3504953166 -0.5558473336 -0.1940815960
H   0.7791114768 -0.2467953880  1.0625076232
H   1.0696963837 -1.3017614823 -0.9491688677
H   2.2997809476 -0.7199707368  0.3351171479
7
Iter 61  Energy = -29.6073190635
C   0.8781750890  0.7839022717 -0.1637615070
H   0.6973665130  1.5594365370 -0.9197860541
O   0.5266412968  0.9714219510  1.1231157065
C   1.3505080823 -0.5558466953 -0.1940942035
H   0.7790823239 -0.2468189152  1.0624813253
H   1.0696241372 -1.3018507347 -0.9490564277
H   2.2998441809 -0.7198777579  0.3350404062
7
Iter 62  Energy = -29.6073196000
C   0.8781724123  0.7839058060 -0.1637774974
H   0.6974538665  1.5595133654 -0.9197501088
O   0.5265811321  0.9713610104  1.1230988177
C   1.3505207762 -0.5558464690 -0.1941066115
H   0.7790538275 -0.2468420696  1.0624556491
H   1.0695526051 -1.3019390424 -0.9489449087
H   2.2999070045 -0.7197859445  0.3349639054
7
Iter 63  Energy = -29.6073200023
C   0.8781696011  0.7839089013 -0.1637931489
H   0.6975407130  1.5595897546 -0.9197145033
O   0.5265208833  0.9713007205  1.1230818214
C   1.3505332382 -0.5558460140 -0.1941186986
H   0.7790259606 -0.2468648030  1.0624305390
H   1.0694817366 -1.3020265825 -0.9488344317
H   2.2999694916 -0.7196953206  0.3348876681
7
Iter 64  Energy = -29.6073204345
C   0.8781665037  0.7839122271 -0.1638088381
H   0.6976271160  1.5596654605 -0.9196790504
O   0.5264605371  0.9712410710  1.1230648683
C   1.3505455584 -0.5558458868 -0.1941305913
H   0.7789987188 -0.2468871778  1.0624060081
H   1.0694115540 -1.3021132054 -0.9487248630
H   2.3000316364 -0.7196058317  0.3348117100
7
Iter 65  Energy = -29.6073209262
C   0.8781632840  0.7839151461 -0.1638241832
H   0.6977130194  1.5597407196 -0.9196439434
O   0.5264001256  0.9711820603  1.1230478401
C   1.3505576869 -0.5558455754 -0.1941421889
H   0.7789720777 -0.2469091513  1.0623820086
H   1.0693420172 -1.3021990696 -0.9486162976
H   2.3000934143 -0.7195174737  0.3347360067
7
Iter 66  Energy = -29.6073212689
C   0.8781597938  0.7839182713 -0.1638395312
H   0.6977984797  1.5598153155 -0.9196090201
O   0.5263396371  0.9711236719  1.1230308775
C   1.3505697147 -0.5558455958 -0.1941536164
H   0.7789460274 -0.2469307718  1.0623585678
H   1.0692731427 -1.3022840278 -0.9485086171
H   2.3001548294 -0.7194302063  0.3346605825
7
Iter 67  Energy = -29.6073217309
C   0.8781561824  0.7839210448 -0.1638545553
H   0.6978834486  1.5598894369 -0.9195744174
O   0.5262791189  0.9710658717  1.1230138185
C   1.3505815488 -0.5558454132 -0.1941647188
H   0.7789205502 -0.2469520051  1.0623356232
H   1.0692048855 -1.3023682502 -0.9484019295
H   2.3002158906 -0.7193440279  0.3345854215
7
Iter 68  Energy = -29.6073221332
C   0.8781523386  0.7839239842 -0.1638696070
H   0.6979679661  1.5599629241 -0.9195400032
O   0.5262185387  0.9710086843  1.1229968465
C   1.3505932917 -0.5558455104 -0.1941756133
H   0.7788956397 -0.2469729150  1.0623132064
H   1.0691372546 -1.3024516120 -0.9482961354
H   2.3002765960 -0.7192588997  0.3345105499
7
Iter 69  Energy = -29.6073225355
C   0.8781483947  0.7839265971 -0.1638843607
H   0.6980519955  1.5600359311 -0.9195059039
O   0.5261579360  0.9709520935  1.1229798146
C   1.3506048142 -0.5558454556 -0.1941862897
H   0.7788712674 -0.2469934626  1.0622912900
H   1.0690702334 -1.3025342244 -0.9481912806
H   2.3003369842 -0.7191748236  0.3344359738
7
Iter 70  Energy = -29.6073230124
C   0.8781442106  0.7839293858 -0.1638990634
H   0.6981355810  1.5601083042 -0.9194720055
O   0.5260973149  0.9708960716  1.1229628217
C   1.3506162945 -0.5558456825 -0.1941967716
H   0.7788474236 -0.2470136824  1.0622698852
H   1.0690038188 -1.3026159922 -0.9480872965
H   2.3003969820 -0.7190917482  0.3343616736
7
Iter 71  Energy = -29.6073234147
C   0.8781399425  0.7839318526 -0.1639135398
H   0.6982186829  1.5601801915 -0.9194384037
O   0.5260366851  0.9708406197  1.1229458101
C   1.3506275515 -0.5558457237 -0.1942069712
H   0.7788241081 -0.2470335660  1.0622489165
H   1.0689379844 -1.3026970268 -0.9479842416
H   2.3004566710 -0.7190096914  0.3342876730
7
Iter 72  Energy = -29.6073238021
C   0.8781354697  0.7839344738 -0.1639279768
H   0.6983013382  1.5602514568 -0.9194049986
O   0.5259760488  0.9707857397  1.1229288421
C   1.3506387515 -0.5558460144 -0.1942169860
H   0.7788012947 -0.2470531610  1.0622284393
H   1.0688727393 -1.3027772396 -0.9478820323
H   2.3005159827 -0.7189286006  0.3342139555
7
Iter 73  Energy = -29.6073242044
C   0.8781309077  0.7839368053 -0.1639421313
H   0.6983835141  1.5603222434 -0.9193719120
O   0.5259154326  0.9707314051  1.1229118372
C   1.3506497519 -0.5558461504 -0.1942267658
H   0.7787789743 -0.2470724269  1.0622083992
H   1.0688080545 -1.3028567339 -0.9477807308
H   2.3005749894 -0.7188484885  0.3341405467
7
Iter 74  Energy = -29.6073245919
C   0.8781261508  0.7839392836 -0.1639562563
H   0.6984652474  1.5603924092 -0.9193390185
O   0.5258548239  0.9706776264  1.1228949043
C   1.3506606966 -0.5558465242 -0.1942363740
H   0.7787571316 -0.2470913960  1.0621888222
H   1.0687439402 -1.3029354312 -0.9476802690
H   2.3006336337 -0.7187693134  0.3340674345
7
Iter 75  Energy = -29.6073249346
C   0.8781213139  0.7839415062 -0.1639701475
H   0.6985465050  1.5604620904 -0.9193064288
O   0.5257942491  0.9706243811  1.1228779531
C   1.3506714913 -0.5558467855 -0.1942457310
H   0.7787357642 -0.2471100744  1.0621696532
H   1.0686803708 -1.3030133911 -0.9475806682
H   2.3006919298 -0.7186910722  0.3339946115
7
Iter 76  Energy = -29.6073253369
C   0.8781163170  0.7839438328 -0.1639839980
H   0.6986273183  1.5605311655 -0.9192740378
O   0.5257337028  0.9705716539  1.1228610645
C   1.3506821640 -0.5558472232 -0.1942549578
H   0.7787148489 -0.2471284529  1.0621509458
H   1.0686173557 -1.3030905800 -0.9474818960
H   2.3007499184 -0.7186137426  0.3339221209
7
Iter 77  Energy = -29.6073256797
C   0.8781112327  0.7839459224 -0.1639975849
H   0.6987076581  1.5605997666 -0.9192419536
O   0.5256732156  0.9705194394  1.1228441473
C   1.3506927354 -0.5558475490 -0.1942639050
H   0.7786943802 -0.2471465420  1.0621326133
H   1.0685548611 -1.3031670707 -0.9473839880
H   2.3008075424 -0.7185373142  0.3338499128
7
Iter 78  Energy = -29.6073260820
C   0.8781060001  0.7839481236 -0.1640111267
H   0.6987875560  1.5606677649 -0.9192100655
O   0.5256127777  0.9704677316  1.1228272843
C   1.3507031831 -0.5558480549 -0.1942727318
H   0.7786743417 -0.2471643606  1.0621147212
H   1.0684929104 -1.3032427865 -0.9472868699
H   2.3008648570 -0.7184617646  0.3337780321
7
Iter 79  Energy = -29.6073263949
C   0.8781007074  0.7839500851 -0.1640244353
H   0.6988669843  1.5607352843 -0.9191784696
O   0.5255524036  0.9704165225  1.1228104185
C   1.3507135154 -0.5558484352 -0.1942813319
H   0.7786547204 -0.2471818902  1.0620972123
H   1.0684314661 -1.3033178274 -0.9471905990
H   2.3009218282 -0.7183870848  0.3337064491
7
Iter 80  Energy = -29.6073267078
C   0.8780952695  0.7839521715 -0.1640377008
H   0.6989459754  1.5608022185 -0.9191470994
O   0.5254920839  0.9703658095  1.1227936571
C   1.3507237553 -0.5558490137 -0.1942897655
H   0.7786355209 -0.2471991720  1.0620800692
H   1.0683705418 -1.3033921130 -0.9470951043
H   2.3009784783 -0.7183132465  0.3336351885
7
Iter 81  Energy = -29.6073270506
C   0.8780897627  0.7839540578 -0.1640507357
H   0.6990245026  1.5608686655 -0.9191160057
O   0.5254318526  0.9703155882  1.1227768691
C   1.3507338608 -0.5558495083 -0.1942980272
H   0.7786167173 -0.2472161905  1.0620633143
H   1.0683101197 -1.3034657058 -0.9470004161
H   2.3010348103 -0.7182402530  0.3335642444
7
Iter 82  Energy = -29.6073273933
C   0.8780841415  0.7839559833 -0.1640637152
H   0.6991025847  1.5609345556 -0.9190851279
O   0.5253716957  0.9702658486  1.1227601621
C   1.3507439067 -0.5558501230 -0.1943060922
H   0.7785983098 -0.2472329589  1.0620469192
H   1.0682501962 -1.3035385774 -0.9469065079
H   2.3010907911 -0.7181680747  0.3334936065
7
Iter 83  Energy = -29.6073277658
C   0.8780784565  0.7839577624 -0.1640765053
H   0.6991802119  1.5609999504 -0.9190545236
O   0.5253116387  0.9702165656  1.1227434607
C   1.3507538010 -0.5558506463 -0.1943139618
H   0.7785802855 -0.2472494801  1.0620308752
H   1.0681907539 -1.3036107837 -0.9468133986
H   2.3011464778 -0.7180967133  0.3334232992
7
Iter 84  Energy = -29.6073281086
C   0.8780726536  0.7839596067 -0.1640892280
H   0.6992574073  1.5610647679 -0.9190241243
O   0.5252516698  0.9701677464  1.1227268410
C   1.3507636124 -0.5558513170 -0.1943217014
H   0.7785626331 -0.2472657443  1.0620151752
H   1.0681318032 -1.3036822651 -0.9467210320
H   2.3012018459 -0.7180261383  0.3333533160
7
Iter 85  Energy = -29.6073283768
C   0.8780668080  0.7839612735 -0.1641017518
H   0.6993341427  1.5611291195 -0.9189940078
O   0.5251918076  0.9701193879  1.1227102321
C   1.3507733268 -0.5558518839 -0.1943292558
H   0.7785453359 -0.2472817713  1.0619998476
H   1.0680733154 -1.3037531199 -0.9466294716
H   2.3012568887 -0.7179563502  0.3332836525
7
Iter 86  Energy = -29.6073287046
C   0.8780608613  0.7839629964 -0.1641141954
H   0.6994104421  1.5611929243 -0.9189641154
O   0.5251320476  0.9700714905  1.1226937015
C   1.3507829552 -0.5558525859 -0.1943366625
H   0.7785284015 -0.2472975866  1.0619848392
H   1.0680153107 -1.3038232609 -0.9465386293
H   2.3013116070 -0.7178873223  0.3332143082
7
Iter 87  Energy = -29.6073290622
C   0.8780548697  0.7839645537 -0.1641264282
H   0.6994862886  1.5612562544 -0.9189344979
O   0.5250724135  0.9700240059  1.1226771847
C   1.3507924516 -0.5558532106 -0.1943438990
H   0.7785118033 -0.2473131280  1.0619701456
H   1.0679577650 -1.3038927588 -0.9464485538
H   2.3013660344 -0.7178190610  0.3331452942
7
Iter 88  Energy = -29.6073293304
C   0.8780487756  0.7839661999 -0.1641386214
H   0.6995617069  1.5613190197 -0.9189050697
O   0.5250128931  0.9699769788  1.1226607437
C   1.3508019121 -0.5558539784 -0.1943510021
H   0.7784955416 -0.2473284675  1.0619557943
H   1.0679006844 -1.3039615642 -0.9463591901
H   2.3014201122 -0.7177515326  0.3330765923
7
Iter 89  Energy = -29.6073296583
C   0.8780426468  0.7839676901 -0.1641506250
H   0.6996366738  1.5613813174 -0.9188759099
O   0.5249535037  0.9699303868  1.1226443194
C   1.3508112442 -0.5558546530 -0.1943579205
H   0.7784796127 -0.2473435968  1.0619417368
H   1.0678440464 -1.3040297427 -0.9462705747
H   2.3014738977 -0.7176847455  0.3330082200
7
Iter 90  Energy = -29.6073299414
C   0.8780364488  0.7839692052 -0.1641625725
H   0.6997112121  1.5614430812 -0.9188469701
O   0.5248942443  0.9698841705  1.1226279942
C   1.3508204937 -0.5558554109 -0.1943647563
H   0.7784639847 -0.2473584549  1.0619280338
H   1.0677878677 -1.3040972561 -0.9461826685
H   2.3015273735 -0.7176186764  0.3329401838
7
Iter 91  Energy = -29.6073302543
C   0.8780302165  0.7839705946 -0.1641743722
H   0.6997853041  1.5615043740 -0.9188182775
O   0.5248351237  0.9698383790  1.1226117029
C   1.3508296347 -0.5558561341 -0.1943714268
H   0.7784486711 -0.2473731099  1.0619146194
H   1.0677321201 -1.3041641304 -0.9460954835
H   2.3015805543 -0.7175533154  0.3328724816
7
Iter 92  Energy = -29.6073305374
C   0.8780239116  0.7839719971 -0.1641860682
H   0.6998589664  1.5615651468 -0.9187897980
O   0.5247761457  0.9697930115  1.1225954657
C   1.3508387391 -0.5558569140 -0.1943779393
H   0.7784336617 -0.2473875655  1.0619015026
H   1.0676768099 -1.3042303714 -0.9460090079
H   2.3016333896 -0.7174886470  0.3328050880
7
Iter 93  Energy = -29.6073308355
C   0.8780175786  0.7839733362 -0.1641976835
H   0.6999321929  1.5616254365 -0.9187615560
O   0.5247173198  0.9697479368  1.1225793235
C   1.3508477606 -0.5558576951 -0.1943843775
H   0.7784189105 -0.2474016778  1.0618887525
H   1.0676219338 -1.3042960069 -0.9459232500
H   2.3016859284 -0.7174246729  0.3327380347
7
Iter 94  Energy = -29.6073310441
C   0.8780111921  0.7839746172 -0.1642091172
H   0.7000049900  1.5616852353 -0.9187335422
O   0.5246586499  0.9697032756  1.1225631923
C   1.3508566784 -0.5558584408 -0.1943906410
H   0.7784044600 -0.2474156154  1.0618762203
H   1.0675674712 -1.3043610332 -0.9458381743
H   2.3017381832 -0.7173613816  0.3326713074
7
Iter 95  Energy = -29.6073314166
C   0.8780047563  0.7839758990 -0.1642204257
H   0.7000773545  1.5617445455 -0.9187057555
O   0.5246001334  0.9696589916  1.1225471128
C   1.3508655574 -0.5558592422 -0.1943967960
H   0.7783902771 -0.2474293326  1.0618639941
H   1.0675134267 -1.3044254509 -0.9457537817
H   2.3017901197 -0.7172987529  0.3326048978
7
Iter 96  Energy = -29.6073315805
C   0.8779982780  0.7839771518 -0.1642316297
H   0.7001492977  1.5618033577 -0.9186781929
O   0.5245417601  0.9696151097  1.1225311301
C   1.3508743301 -0.5558600498 -0.1944027807
H   0.7783763867 -0.2474428615  1.0618519581
H   1.0674597924 -1.3044892620 -0.9456700558
H   2.3018417807 -0.7172367885  0.3325388176
7
Iter 97  Energy = -29.6073318934
C   0.8779917576  0.7839783694 -0.1642426996
H   0.7002208118  1.5618616998 -0.9186508601
O   0.5244835586  0.9695715724  1.1225151937
C   1.3508830315 -0.5558608745 -0.1944086755
H   0.7783627449 -0.2474561566  1.0618402118
H   1.0674065604 -1.3045524804 -0.9455870013
H   2.3018931606 -0.7171754735  0.3324730779
7
Iter 98  Energy = -29.6073321766
C   0.8779852035  0.7839795587 -0.1642536454
H   0.7002919005  1.5619195657 -0.9186237488
O   0.5244255182  0.9695284144  1.1224993128
C   1.3508916897 -0.5558616874 -0.1944143972
H   0.7783493645 -0.2474692725  1.0618286961
H   1.0673537228 -1.3046151256 -0.9455046128
H   2.3019442260 -0.7171147965  0.3324076436
7
Iter 99  Energy = -29.6073323852
C   0.8779786214  0.7839807272 -0.1642644961
H   0.7003625668  1.5619769525 -0.9185968497
O   0.5243676422  0.9694856327  1.1224834956
C   1.3509002348 -0.5558625067 -0.1944200159
H   0.7783362411 -0.2474822175  1.0618174226
H   1.0673012878 -1.3046771744 -0.9454228562
H   2.3019950312 -0.7170547558  0.3323425487
7
Iter 100  Energy = -29.6073327279
C   0.8779720090  0.7839818594 -0.1642752035
H   0.7004328066  1.5620338915 -0.9185701848
O   0.5243099376  0.9694432320  1.1224677273
C   1.3509087218 -0.5558633423 -0.1944254956
H   0.7783233720 -0.2474950081  1.0618063673
H   1.0672492401 -1.3047386437 -0.9453417387
H   2.3020455386 -0.7169953317  0.3322777762
7
Iter 101  Energy = -29.6073329961
C   0.8779653705  0.7839829764 -0.1642857950
H   0.7005026260  1.5620903705 -0.9185437454
O   0.5242524043  0.9694011920  1.1224520334
C   1.3509171416 -0.5558641986 -0.1944308619
H   0.7783107410 -0.2475076175  1.0617955420
H   1.0671975761 -1.3047995493 -0.9452612591
H   2.3020957665 -0.7169365162  0.3322133337
7
Iter 102  Energy = -29.6073331898
C   0.8779587152  0.7839840467 -0.1642963033
H   0.7005720290  1.5621463890 -0.9185175275
O   0.5241950368  0.9693595253  1.1224364410
C   1.3509255036 -0.5558650582 -0.1944361245
H   0.7782983409 -0.2475200610  1.0617849478
H   1.0671462969 -1.3048598783 -0.9451813977
H   2.3021457038 -0.7168783052  0.3321492116
7
Iter 103  Energy = -29.6073334283
C   0.8779520266  0.7839850907 -0.1643066619
H   0.7006410184  1.5622019478 -0.9184915279
O   0.5241378517  0.9693182301  1.1224209004
C   1.3509338274 -0.5558659004 -0.1944412317
H   0.7782861779 -0.2475323524  1.0617745346
H   1.0670953864 -1.3049196697 -0.9451021667
H   2.3021953381 -0.7168206881  0.3320854004
7
Iter 104  Energy = -29.6073336965
C   0.8779453072  0.7839861825 -0.1643169610
H   0.7007095953  1.5622570390 -0.9184657224
O   0.5240808547  0.9692772501  1.1224054264
C   1.3509420790 -0.5558667824 -0.1944462638
H   0.7782742257 -0.2475444649  1.0617643820
H   1.0670448485 -1.3049789037 -0.9450235467
H   2.3022447165 -0.7167636622  0.3320219324
7
Iter 105  Energy = -29.6073339498
C   0.8779385857  0.7839871904 -0.1643270789
H   0.7007777555  1.5623116997 -0.9184401526
O   0.5240240478  0.9692366087  1.1223899876
C   1.3509502487 -0.5558675976 -0.1944511995
H   0.7782624881 -0.2475564119  1.0617544296
H   1.0669946797 -1.3050376103 -0.9449455268
H   2.3022938208 -0.7167072196  0.3319587871
7
Iter 106  Energy = -29.6073341882
C   0.8779318347  0.7839882175 -0.1643371146
H   0.7008455090  1.5623658962 -0.9184147793
O   0.5239674200  0.9691963242  1.1223746400
C   1.3509583989 -0.5558684520 -0.1944560107
H   0.7782509654 -0.2475682118  1.0617446597
H   1.0669448649 -1.3050957740 -0.9448681097
H   2.3023426339 -0.7166513408  0.3318959597
7
Iter 107  Energy = -29.6073343521
C   0.8779250825  0.7839891810 -0.1643470503
H   0.7009128536  1.5624196598 -0.9183896253
O   0.5239109770  0.9691563896  1.1223593801
C   1.3509665061 -0.5558692799 -0.1944607447
H   0.7782396418 -0.2475798681  1.0617351157
H   1.0668954098 -1.3051534004 -0.9447912777
H   2.3023911560 -0.7165960242  0.3318334494
7
Iter 108  Energy = -29.6073345906
C   0.8779183090  0.7839901427 -0.1643568767
H   0.7009797961  1.5624729696 -0.9183646719
O   0.5238547231  0.9691168033  1.1223441959
C   1.3509745448 -0.5558700871 -0.1944653627
H   0.7782285245 -0.2475913811  1.0617257358
H   1.0668463035 -1.3052105218 -0.9447150441
H   2.3024394258 -0.7165412674  0.3317712699
7
Iter 109  Energy = -29.6073348886
C   0.8779115351  0.7839910597 -0.1643665555
H   0.7010463284  1.5625258555 -0.9183399323
O   0.5237986782  0.9690775146  1.1223290454
C   1.3509825289 -0.5558708670 -0.1944699012
H   0.7782175936 -0.2476027184  1.0617165747
H   1.0667975528 -1.3052671309 -0.9446393973
H   2.3024874096 -0.7164870561  0.3317094116
7
Iter 110  Energy = -29.6073350674
C   0.8779047479  0.7839920026 -0.1643761760
H   0.7011124608  1.5625782949 -0.9183153849
O   0.5237428184  0.9690385671  1.1223140003
C   1.3509904587 -0.5558717051 -0.1944743803
H   0.7782068516 -0.2476139194  1.0617076118
H   1.0667491546 -1.3053232003 -0.9445643101
H   2.3025351347 -0.7164333825  0.3316478844
7
Iter 111  Energy = -29.6073353058
C   0.8778979506  0.7839928953 -0.1643856877
H   0.7011781967  1.5626302967 -0.9182910330
O   0.5236871567  0.9689999623  1.1222990334
C   1.3509983554 -0.5558724998 -0.1944787415
H   0.7781962995 -0.2476249844  1.0616988104
H   1.0667010923 -1.3053787747 -0.9444898075
H   2.3025825753 -0.7163802379  0.3315866716
7
Iter 112  Energy = -29.6073355144
C   0.8778911553  0.7839937817 -0.1643950871
H   0.7012435309  1.5626818792 -0.9182668962
O   0.5236317015  0.9689616681  1.1222841235
C   1.3510061462 -0.5558732961 -0.1944830292
H   0.7781859344 -0.2476359293  1.0616901889
H   1.0666533759 -1.3054338273 -0.9444158528
H   2.3026297819 -0.7163276183  0.3315257985
7
Iter 113  Energy = -29.6073357379
C   0.8778843527  0.7839946430 -0.1644043945
H   0.7013084656  1.5627330439 -0.9182429460
O   0.5235764483  0.9689237019  1.1222692924
C   1.3510139236 -0.5558740968 -0.1944872110
H   0.7781757454 -0.2476467303  1.0616817359
H   1.0666059915 -1.3054883920 -0.9443424685
H   2.3026766994 -0.7162755112  0.3314652375
7
Iter 114  Energy = -29.6073359019
C   0.8778775470  0.7839955115 -0.1644136246
H   0.7013730072  1.5627837823 -0.9182191989
O   0.5235213969  0.9688860365  1.1222545671
C   1.3510216865 -0.5558748983 -0.1944912924
H   0.7781657236 -0.2476573885  1.0616734600
H   1.0665589341 -1.3055424748 -0.9442696504
H   2.3027233315 -0.7162239102  0.3314049874
7
Iter 115  Energy = -29.6073361701
C   0.8778707494  0.7839963053 -0.1644226848
H   0.7014371507  1.5628341198 -0.9181956596
O   0.5234665702  0.9688486595  1.1222398584
C   1.3510293955 -0.5558756690 -0.1944952987
H   0.7781558728 -0.2476678965  1.0616653527
H   1.0665122113 -1.3055960552 -0.9441973705
H   2.3027696771 -0.7161728044  0.3313450516
7
Iter 116  Energy = -29.6073364085
C   0.8778639543  0.7839971274 -0.1644317092
H   0.7015008978  1.5628840508 -0.9181723029
O   0.5234119443  0.9688115998  1.1222252526
C   1.3510370449 -0.5558764791 -0.1944992103
H   0.7781461889 -0.2476782898  1.0616574182
H   1.0664658161 -1.3056491550 -0.9441256460
H   2.3028157814 -0.7161221945  0.3312854468
7
Iter 117  Energy = -29.6073366320
C   0.8778571656  0.7839979057 -0.1644406043
H   0.7015642544  1.5629335816 -0.9181491567
O   0.5233575354  0.9687748446  1.1222107087
C   1.3510446215 -0.5558772536 -0.1945030395
H   0.7781366687 -0.2476885684  1.0616496306
H   1.0664197423 -1.3057017778 -0.9440544596
H   2.3028616399 -0.7160720730  0.3312261698
7
Iter 118  Energy = -29.6073367661
C   0.8778503827  0.7839986823 -0.1644494377
H   0.7016272233  1.5629826974 -0.9181261779
O   0.5233033409  0.9687383926  1.1221962349
C   1.3510521515 -0.5558780243 -0.1945067762
H   0.7781273104 -0.2476987343  1.0616420002
H   1.0663739969 -1.3057539234 -0.9439837969
H   2.3029072220 -0.7160224321  0.3311672015
7
Iter 119  Energy = -29.6073369896
C   0.8778436149  0.7839994105 -0.1644581530
H   0.7016898025  1.5630314358 -0.9181034189
O   0.5232493596  0.9687022213  1.1221818626
C   1.3510596288 -0.5558788072 -0.1945104646
H   0.7781180982 -0.2477087378  1.0616345330
H   1.0663285736 -1.3058056015 -0.9439136701
H   2.3029525503 -0.7159732626  0.3311085577
7
Iter 120  Energy = -29.6073371238
C   0.8778368774  0.7840000748 -0.1644667959
H   0.7017519931  1.5630797867 -0.9180808418
O   0.5231956279  0.9686661936  1.1221675420
C   1.3510670710 -0.5558795230 -0.1945141441
H   0.7781089857 -0.2477184692  1.0616273470
H   1.0662834709 -1.3058568414 -0.9438440983
H   2.3029976020 -0.7159245631  0.3310502401
7
Iter 121  Energy = -29.6073373473
C   0.8778301156  0.7840008093 -0.1644753876
H   0.7018138087  1.5631277111 -0.9180584167
O   0.5231421160  0.9686304738  1.1221532932
C   1.3510744828 -0.5558802964 -0.1945177170
H   0.7781000354 -0.2477281123  1.0616202755
H   1.0662386818 -1.3059076033 -0.9437750340
H   2.3030423880 -0.7158763234  0.3309922366
7
Iter 122  Energy = -29.6073375112
C   0.8778233973  0.7840014228 -0.1644838225
H   0.7018752320  1.5631752866 -0.9180362107
O   0.5230888388  0.9685950233  1.1221390744
C   1.3510818351 -0.5558809607 -0.1945212061
H   0.7780912233 -0.2477376374  1.0616133780
H   1.0661941996 -1.3059579393 -0.9437065075
H   2.3030869020 -0.7158285367  0.3309345444
7
Iter 123  Energy = -29.6073377496
C   0.8778166528  0.7840021413 -0.1644922330
H   0.7019362849  1.5632224376 -0.9180141519
O   0.5230357836  0.9685598711  1.1221249396
C   1.3510891625 -0.5558817184 -0.1945246056
H   0.7780825669 -0.2477470841  1.0616066083
H   1.0661500264 -1.3060077961 -0.9436384759
H   2.3031311505 -0.7157811919  0.3308771678
7
Iter 124  Energy = -29.6073379433
C   0.8778099478  0.7840027513 -0.1645004955
H   0.7019969499  1.5632692447 -0.9179922993
O   0.5229829587  0.9685249921  1.1221108449
C   1.3510963948 -0.5558824101 -0.1945279457
H   0.7780740477 -0.2477564066  1.0615999782
H   1.0661061609 -1.3060572189 -0.9435709538
H   2.3031751685 -0.7157342923  0.3308201202
7
Iter 125  Energy = -29.6073381072
C   0.8778032464  0.7840033969 -0.1645087488
H   0.7020572453  1.5633156481 -0.9179706025
O   0.5229303551  0.9684903857  1.1220968479
C   1.3511035977 -0.5558831282 -0.1945312109
H   0.7780656666 -0.2477656343  1.0615935072
H   1.0660625963 -1.3061061810 -0.9435039304
H   2.3032189203 -0.7156878260  0.3307633870
7
Iter 126  Energy = -29.6073383009
C   0.8777965657  0.7840039985 -0.1645168848
H   0.7021171594  1.5633617026 -0.9179491018
O   0.5228779822  0.9684560461  1.1220829227
C   1.3511107315 -0.5558838319 -0.1945344072
H   0.7780574213 -0.2477747371  1.0615871558
H   1.0660193348 -1.3061547230 -0.9434374128
H   2.3032624334 -0.7156417949  0.3307069772
7
Iter 127  Energy = -29.6073384351
C   0.8777898892  0.7840045924 -0.1645249059
H   0.7021767027  1.5634073797 -0.9179277688
O   0.5228258450  0.9684219744  1.1220690384
C   1.3511178450 -0.5558845331 -0.1945375184
H   0.7780493072 -0.2477837344  1.0615809230
H   1.0659763720 -1.3062028343 -0.9433713823
H   2.3033056674 -0.7155961841  0.3306508647
7
Iter 128  Energy = -29.6073386437
C   0.8777832368  0.7840051740 -0.1645328722
H   0.7022358757  1.5634526887 -0.9179066170
O   0.5227739303  0.9683881836  1.1220552459
C   1.3511248980 -0.5558852183 -0.1945405703
H   0.7780413221 -0.2477926488  1.0615748461
H   1.0659337035 -1.3062505262 -0.9433058548
H   2.3033486621 -0.7155509927  0.3305950752
7
Iter 129  Energy = -29.6073387927
C   0.8777765912  0.7840057797 -0.1645407652
H   0.7022946846  1.5634976258 -0.9178856326
O   0.5227222491  0.9683546661  1.1220415217
C   1.3511319145 -0.5558859354 -0.1945435360
H   0.7780334716 -0.2478014874  1.0615688730
H   1.0658913323 -1.3062977807 -0.9432407932
H   2.3033913849 -0.7155062065  0.3305395859
7
Iter 130  Energy = -29.6073389268
C   0.8777699685  0.7840063463 -0.1645485641
H   0.7023531239  1.5635422097 -0.9178648283
O   0.5226707975  0.9683214009  1.1220278764
C   1.3511388836 -0.5558866293 -0.1945464445
H   0.7780257376 -0.2478102044  1.0615630256
H   1.0658492461 -1.3063446280 -0.9431762251
H   2.3034338716 -0.7154618340  0.3304844135
7
Iter 131  Energy = -29.6073391354
C   0.8777633719  0.7840068736 -0.1645563022
H   0.7024111952  1.5635864414 -0.9178441881
O   0.5226195752  0.9682883995  1.1220143119
C   1.3511458195 -0.5558873003 -0.1945492739
H   0.7780181217 -0.2478188230  1.0615572993
H   1.0658074423 -1.3063910645 -0.9431121412
H   2.3034761030 -0.7154178652  0.3304295483
7
Iter 132  Energy = -29.6073393291
C   0.8777567947  0.7840073898 -0.1645639361
H   0.7024689005  1.5636303271 -0.9178237169
O   0.5225685900  0.9682556664  1.1220007947
C   1.3511526683 -0.5558879812 -0.1945520725
H   0.7780106275 -0.2478273612  1.0615516907
H   1.0657659376 -1.3064370814 -0.9430485109
H   2.3035181102 -0.7153742974  0.3303750050
7
Iter 133  Energy = -29.6073394483
C   0.8777502268  0.7840079143 -0.1645715092
H   0.7025262469  1.5636738540 -0.9178034077
O   0.5225178436  0.9682231747  1.1219873530
C   1.3511594784 -0.5558886655 -0.1945547892
H   0.7780032479 -0.2478357972  1.0615461897
H   1.0657247153 -1.3064826913 -0.9429853484
H   2.3035598698 -0.7153311263  0.3303207659
7
Iter 134  Energy = -29.6073395675
C   0.8777436743  0.7840084453 -0.1645790083
H   0.7025832357  1.5637170319 -0.9177832704
O   0.5224673269  0.9681909385  1.1219740076
C   1.3511662614 -0.5558893485 -0.1945574159
H   0.7779959813 -0.2478441427  1.0615407788
H   1.0656837604 -1.3065279246 -0.9429226709
H   2.3036013881 -0.7152883374  0.3302668334
7
Iter 135  Energy = -29.6073397315
C   0.8777371561  0.7840089175 -0.1645864167
H   0.7026398590  1.5637598880 -0.9177633041
O   0.5224170542  0.9681589303  1.1219606970
C   1.3511730230 -0.5558900158 -0.1945599853
H   0.7779888147 -0.2478523787  1.0615355200
H   1.0656430935 -1.3065727469 -0.9428604468
H   2.3036426273 -0.7152459320  0.3302131892
7
Iter 136  Energy = -29.6073399252
C   0.8777306554  0.7840094075 -0.1645937690
H   0.7026961306  1.5638023845 -0.9177434855
O   0.5223670125  0.9681271885  1.1219474694
C   1.3511797033 -0.5558906824 -0.1945625071
H   0.7779817624 -0.2478605467  1.0615303587
H   1.0656027047 -1.3066171803 -0.9427986806
H   2.3036836593 -0.7152039088  0.3301598681
7
Iter 137  Energy = -29.6073400593
C   0.8777241747  0.7840098794 -0.1646010192
H   0.7027520464  1.5638445524 -0.9177238330
O   0.5223172117  0.9680956933  1.1219343021
C   1.3511863742 -0.5558913512 -0.1945649555
H   0.7779748134 -0.2478686233  1.0615252929
H   1.0655625873 -1.3066612357 -0.9427373656
H   2.3037244208 -0.7151622524  0.3301068338
7
Iter 138  Energy = -29.6073402381
C   0.8777177192  0.7840103635 -0.1646082657
H   0.7028076141  1.5638863731 -0.9177043221
O   0.5222676390  0.9680644272  1.1219212472
C   1.3511929851 -0.5558920212 -0.1945673543
H   0.7779679639 -0.2478765977  1.0615203437
H   1.0655227437 -1.3067049111 -0.9426765064
H   2.3037649639 -0.7151209702  0.3300541142
7
Iter 139  Energy = -29.6073403722
C   0.8777112797  0.7840108084 -0.1646153739
H   0.7028628280  1.5639278773 -0.9176849865
O   0.5222183099  0.9680334150  1.1219082372
C   1.3511995757 -0.5558926962 -0.1945697167
H   0.7779612101 -0.2478844846  1.0615154955
H   1.0654831698 -1.3067482071 -0.9426160900
H   2.3038052558 -0.7150800497  0.3300016915
7
Iter 140  Energy = -29.6073405212
C   0.8777048773  0.7840112250 -0.1646224402
H   0.7029176916  1.5639690513 -0.9176657930
O   0.5221692113  0.9680026567  1.1218953055
C   1.3512060972 -0.5558933394 -0.1945720205
H   0.7779545587 -0.2478923029  1.0615107469
H   1.0654438630 -1.3067911333 -0.9425561186
H   2.3038453294 -0.7150394939  0.3299495793
7
Iter 141  Energy = -29.6073406702
C   0.8776984882  0.7840116425 -0.1646294165
H   0.7029722078  1.5640099106 -0.9176467744
O   0.5221203595  0.9679721184  1.1218824346
C   1.3512125962 -0.5558940020 -0.1945742682
H   0.7779480010 -0.2479000328  1.0615061007
H   1.0654048248 -1.3068336804 -0.9424965774
H   2.3038851506 -0.7149992924  0.3298977597
7
Iter 142  Energy = -29.6073408490
C   0.8776921161  0.7840120702 -0.1646363351
H   0.7030263870  1.5640504216 -0.9176278883
O   0.5220717502  0.9679418084  1.1218696268
C   1.3512190314 -0.5558946573 -0.1945764431
H   0.7779415415 -0.2479076846  1.0615015246
H   1.0653660541 -1.3068758502 -0.9424374620
H   2.3039247476 -0.7149594438  0.3298462357
7
Iter 143  Energy = -29.6073409832
C   0.8776857729  0.7840124928 -0.1646431838
H   0.7030802135  1.5640906321 -0.9176091597
O   0.5220233779  0.9679117220  1.1218568877
C   1.3512254307 -0.5558953245 -0.1945785805
H   0.7779351713 -0.2479152428  1.0614970589
H   1.0653275472 -1.3069176653 -0.9423787820
H   2.3039641143 -0.7149199503  0.3297950166
7
Iter 144  Energy = -29.6073411173
C   0.8776794762  0.7840128355 -0.1646499933
H   0.7031337001  1.5641305317 -0.9175905841
O   0.5219752493  0.9678817945  1.1218442546
C   1.3512318141 -0.5558959300 -0.1945806923
H   0.7779288589 -0.2479226196  1.0614927447
H   1.0652892970 -1.3069591452 -0.9423205601
H   2.3040032317 -0.7148808027  0.3297440882
7
Iter 145  Energy = -29.6073411769
C   0.8776731894  0.7840132305 -0.1646567520
H   0.7031868529  1.5641700962 -0.9175721419
O   0.5219273504  0.9678521052  1.1218317155
C   1.3512381574 -0.5558966224 -0.1945827944
H   0.7779226373 -0.2479299111  1.0614885070
H   1.0652513130 -1.3070002452 -0.9422627361
H   2.3040421268 -0.7148419898  0.3296934609
7
Iter 146  Energy = -29.6073413408
C   0.8776669340  0.7840135874 -0.1646634306
H   0.7032396634  1.5642093577 -0.9175538395
O   0.5218796985  0.9678226308  1.1218192163
C   1.3512444679 -0.5558972674 -0.1945848276
H   0.7779164935 -0.2479371101  1.0614843720
H   1.0652135807 -1.3070410174 -0.9422053554
H   2.3040807890 -0.7148035176  0.3296431245
7
Iter 147  Energy = -29.6073414749
C   0.8776606930  0.7840139382 -0.1646700199
H   0.7032921406  1.5642483069 -0.9175356839
O   0.5218322760  0.9677934544  1.1218067833
C   1.3512507231 -0.5558979062 -0.1945867829
H   0.7779104565 -0.2479443139  1.0614802615
H   1.0651760975 -1.3070814337 -0.9421483777
H   2.3041192402 -0.7147653824  0.3295930812
7
Iter 148  Energy = -29.6073416090
C   0.8776544916  0.7840142703 -0.1646765762
H   0.7033442861  1.5642869420 -0.9175176682
O   0.5217850866  0.9677644922  1.1217944447
C   1.3512569385 -0.5558985065 -0.1945886992
H   0.7779044955 -0.2479514334  1.0614762532
H   1.0651388698 -1.3071215225 -0.9420918171
H   2.3041574587 -0.7147275795  0.3295433252
7
Iter 149  Energy = -29.6073417878
C   0.8776483136  0.7840145986 -0.1646830375
H   0.7033960969  1.5643252783 -0.9174997865
O   0.5217381399  0.9677357623  1.1217821483
C   1.3512631148 -0.5558991062 -0.1945905826
H   0.7778986102 -0.2479584899  1.0614723170
H   1.0651018974 -1.3071612760 -0.9420356514
H   2.3041954539 -0.7146901048  0.3294938541
7
Iter 150  Energy = -29.6073419368
C   0.8776421628  0.7840149106 -0.1646894429
H   0.7034475788  1.5643633063 -0.9174820410
O   0.5216914313  0.9677072395  1.1217699320
C   1.3512692331 -0.5558997088 -0.1945924650
H   0.7778927953 -0.2479654459  1.0614684758
H   1.0650651796 -1.3072006779 -0.9419798779
H   2.3042332463 -0.7146529604  0.3294446819
7
Iter 151  Energy = -29.6073419964
C   0.8776360505  0.7840151868 -0.1646957925
H   0.7034987313  1.5644010454 -0.9174644409
O   0.5216449468  0.9676789575  1.1217578134
C   1.3512753588 -0.5559002799 -0.1945942595
H   0.7778870564 -0.2479723426  1.0614646893
H   1.0650286989 -1.3072397736 -0.9419245220
H   2.3042707840 -0.7146161298  0.3293957745
7
Iter 152  Energy = -29.6073421007
C   0.8776299430  0.7840154950 -0.1647020541
H   0.7035495623  1.5644384764 -0.9174469706
O   0.5215987139  0.9676508865  1.1217457290
C   1.3512814343 -0.5559008499 -0.1945960248
H   0.7778813868 -0.2479791778  1.0614609836
H   1.0649924662 -1.3072785449 -0.9418695578
H   2.3043081203 -0.7145796211  0.3293471581
7
Iter 153  Energy = -29.6073423094
C   0.8776238734  0.7840157857 -0.1647082694
H   0.7036000661  1.5644756184 -0.9174296354
O   0.5215527180  0.9676230180  1.1217337257
C   1.3512874719 -0.5559013941 -0.1945977354
H   0.7778757869 -0.2479859322  1.0614573503
H   1.0649564758 -1.3073170049 -0.9418149969
H   2.3043452349 -0.7145434265  0.3292988238
7
Iter 154  Energy = -29.6073424137
C   0.8776178264  0.7840160821 -0.1647144250
H   0.7036502474  1.5645124644 -0.9174124275
O   0.5215069560  0.9675953718  1.1217217946
C   1.3512934496 -0.5559019678 -0.1945994245
H   0.7778702614 -0.2479926198  1.0614537675
H   1.0649207321 -1.3073551225 -0.9417608056
H   2.3043821534 -0.7145075431  0.3292507821
7
Iter 155  Energy = -29.6073425031
C   0.8776118053  0.7840163481 -0.1647205065
H   0.7037001114  1.5645490276 -0.9173953605
O   0.5214614360  0.9675679174  1.1217099337
C   1.3512994113 -0.5559025143 -0.1946010675
H   0.7778647976 -0.2479992161  1.0614502602
H   1.0648852226 -1.3073929336 -0.9417070115
H   2.3044188426 -0.7144719633  0.3292030130
7
Iter 156  Energy = -29.6073426074
C   0.8776058182  0.7840166172 -0.1647265266
H   0.7037496477  1.5645853221 -0.9173784312
O   0.5214161470  0.9675406975  1.1216981427
C   1.3513053608 -0.5559030749 -0.1946026940
H   0.7778593936 -0.2480057684  1.0614468535
H   1.0648499570 -1.3074304401 -0.9416536004
H   2.3044553024 -0.7144366865  0.3291555168
7
Iter 157  Energy = -29.6073426968
C   0.8775998694  0.7840168740 -0.1647325130
H   0.7037988683  1.5646213272 -0.9173616268
O   0.5213710903  0.9675136750  1.1216864442
C   1.3513112576 -0.5559036132 -0.1946042457
H   0.7778540644 -0.2480122498  1.0614434744
H   1.0648149239 -1.3074676377 -0.9416005721
H   2.3044915528 -0.7144017089  0.3291082987
7
Iter 158  Energy = -29.6073428160
C   0.8775939349  0.7840171591 -0.1647384476
H   0.7038477774  1.5646570418 -0.9173449444
O   0.5213262761  0.9674868527  1.1216748060
C   1.3513171443 -0.5559041724 -0.1946057659
H   0.7778487928 -0.2480186683  1.0614401780
H   1.0647801247 -1.3075045243 -0.9415479180
H   2.3045275766 -0.7143670220  0.3290613520
7
Iter 159  Energy = -29.6073429948
C   0.8775880399  0.7840174114 -0.1647442920
H   0.7038963684  1.5646924956 -0.9173284084
O   0.5212817031  0.9674602214  1.1216632168
C   1.3513229454 -0.5559047145 -0.1946072612
H   0.7778435911 -0.2480250256  1.0614369335
H   1.0647455657 -1.3075410918 -0.9414956191
H   2.3045634121 -0.7143326303  0.3290146917
7
Iter 160  Energy = -29.6073430842
C   0.8775821635  0.7840176852 -0.1647501155
H   0.7039446524  1.5647276585 -0.9173119797
O   0.5212373674  0.9674337842  1.1216517043
C   1.3513287774 -0.5559052580 -0.1946087246
H   0.7778384310 -0.2480312996  1.0614338043
H   1.0647112314 -1.3075773763 -0.9414437176
H   2.3045990028 -0.7142985265  0.3289682906
7
Iter 161  Energy = -29.6073432332
C   0.8775763303  0.7840179174 -0.1647558893
H   0.7039926236  1.5647625608 -0.9172956811
O   0.5211932608  0.9674075590  1.1216402706
C   1.3513345494 -0.5559057679 -0.1946101548
H   0.7778333376 -0.2480375255  1.0614307248
H   1.0646771318 -1.3076133628 -0.9413921755
H   2.3046343919 -0.7142647137  0.3289221660
7
Iter 162  Energy = -29.6073433524
C   0.8775705156  0.7840181530 -0.1647615556
H   0.7040402851  1.5647971965 -0.9172795122
O   0.5211494035  0.9673815181  1.1216288572
C   1.3513402522 -0.5559062851 -0.1946115509
H   0.7778283088 -0.2480436882  1.0614276880
H   1.0646432626 -1.3076490426 -0.9413409906
H   2.3046695977 -0.7142311853  0.3288763253
7
Iter 163  Energy = -29.6073434120
C   0.8775647379  0.7840183760 -0.1647671983
H   0.7040876396  1.5648315673 -0.9172634685
O   0.5211057718  0.9673556773  1.1216175445
C   1.3513459441 -0.5559067988 -0.1946129189
H   0.7778233284 -0.2480497824  1.0614247283
H   1.0646096199 -1.3076844355 -0.9412901735
H   2.3047045837 -0.7141979364  0.3288307482
7
Iter 164  Energy = -29.6073434717
C   0.8775589874  0.7840185791 -0.1647727720
H   0.7041346893  1.5648656806 -0.9172475573
O   0.5210623727  0.9673300302  1.1216063077
C   1.3513516410 -0.5559073239 -0.1946142321
H   0.7778184070 -0.2480558055  1.0614218076
H   1.0645761998 -1.3077195362 -0.9412397126
H   2.3047393283 -0.7141649563  0.3287854203
7
Iter 165  Energy = -29.6073436207
C   0.8775532636  0.7840188112 -0.1647783031
H   0.7041814366  1.5648995198 -0.9172317540
O   0.5210192087  0.9673045826  1.1215951228
C   1.3513572685 -0.5559078453 -0.1946155549
H   0.7778135377 -0.2480617901  1.0614189747
H   1.0645430094 -1.3077543506 -0.9411896052
H   2.3047739008 -0.7141322590  0.3287403821
7
Iter 166  Energy = -29.6073437101
C   0.8775475682  0.7840190450 -0.1647838004
H   0.7042278860  1.5649330909 -0.9172160650
O   0.5209762822  0.9672793050  1.1215840077
C   1.3513628571 -0.5559083357 -0.1946168007
H   0.7778087256 -0.2480677106  1.0614161760
H   1.0645100344 -1.3077888914 -0.9411398612
H   2.3048082724 -0.7140998355  0.3286956060
7
Iter 167  Energy = -29.6073438442
C   0.8775419070  0.7840192433 -0.1647892043
H   0.7042740315  1.5649664287 -0.9172005170
O   0.5209335960  0.9672542003  1.1215729456
C   1.3513684463 -0.5559088360 -0.1946180270
H   0.7778039577 -0.2480735429  1.0614134553
H   1.0644772818 -1.3078231547 -0.9410904732
H   2.3048424056 -0.7140676713  0.3286510825
7
Iter 168  Energy = -29.6073439634
C   0.8775362745  0.7840194606 -0.1647945976
H   0.7043198818  1.5649995005 -0.9171850816
O   0.5208911379  0.9672292868  1.1215619700
C   1.3513739894 -0.5559093285 -0.1946192040
H   0.7777992492 -0.2480793429  1.0614107780
H   1.0644447426 -1.3078571359 -0.9410414339
H   2.3048763505 -0.7140357741  0.3286068308
7
Iter 169  Energy = -29.6073440081
C   0.8775306851  0.7840196376 -0.1647999381
H   0.7043654330  1.5650323307 -0.9171697685
O   0.5208489022  0.9672045729  1.1215510760
C   1.3513794759 -0.5559098073 -0.1946203738
H   0.7777945917 -0.2480850795  1.0614081512
H   1.0644124286 -1.3078908401 -0.9409927299
H   2.3049101091 -0.7140041474  0.3285628466
7
Iter 170  Energy = -29.6073441273
C   0.8775251191  0.7840198517 -0.1648052458
H   0.7044106931  1.5650648967 -0.9171545648
O   0.5208069000  0.9671800277  1.1215402494
C   1.3513849392 -0.5559103171 -0.1946215234
H   0.7777899814 -0.2480907615  1.0614055815
H   1.0643803329 -1.3079242563 -0.9409443549
H   2.3049436603 -0.7139727762  0.3285191209
7
Iter 171  Energy = -29.6073442018
C   0.8775195798  0.7840200596 -0.1648104850
H   0.7044556598  1.5650972193 -0.9171394797
O   0.5207651374  0.9671556639  1.1215294553
C   1.3513903438 -0.5559108052 -0.1946226284
H   0.7777854263 -0.2480964049  1.0614030590
H   1.0643484503 -1.3079574030 -0.9408963207
H   2.3049770286 -0.7139416655  0.3284756621
7
Iter 172  Energy = -29.6073442763
C   0.8775140651  0.7840202497 -0.1648156738
H   0.7045003380  1.5651292941 -0.9171245052
O   0.5207236033  0.9671314940  1.1215187372
C   1.3513957585 -0.5559112784 -0.1946236984
H   0.7777809111 -0.2481019845  1.0614005948
H   1.0643167735 -1.3079903035 -0.9408486467
H   2.3050101761 -0.7139108066  0.3284324533
7
Iter 1  Energy = -29.6072649425
C   0.8774097937  0.7831064490 -0.1628976597
H   0.6910766579  1.5542099191 -0.9219971844
O   0.5295419723  0.9762624941  1.1235394455
C   1.3489745846 -0.5563019961 -0.1923989423
H   0.7827768073 -0.2432955917  1.0661172900
H   1.0762356887 -1.2945887819 -0.9581122447
H   2.2952261187 -0.7290258387  0.3396885472
7
Iter 2  Energy = -29.6072671032
C   0.8774358501  0.7832096579 -0.1629195704
H   0.6912083587  1.5542706072 -0.9219679718
O   0.5294960685  0.9762271677  1.1235964946
C   1.3490620004 -0.5563544336 -0.1925031311
H   0.7826706817 -0.2434766552  1.0660035132
H   1.0760545599 -1.2947410831 -0.9579006560
H   2.2953141034 -0.7287686056  0.3396305734
7
Iter 3  Energy = -29.6072687274
C   0.8774945782  0.7831694320 -0.1628656420
H   0.6913273379  1.5543780225 -0.9219725474
O   0.5294603779  0.9761764417  1.1236113906
C   1.3491170105 -0.5562694805 -0.1925597518
H   0.7825666504 -0.2436377294  1.0658775278
H   1.0758697542 -1.2949261207 -0.9577191000
H   2.2954059136 -0.7285239121  0.3395673739
7
Iter 4  Energy = -29.6072703219
C   0.8775167391  0.7832647723 -0.1628918685
H   0.6914571660  1.5544393876 -0.9219356960
O   0.5294219952  0.9761157564  1.1236498910
C   1.3491889861 -0.5563010852 -0.1926386364
H   0.7824636008 -0.2437925131  1.0657685788
H   1.0756981307 -1.2950790260 -0.9575181479
H   2.2954950047 -0.7282806386  0.3395051310
7
Iter 5  Energy = -29.6072719014
C   0.8775665750  0.7832407525 -0.1628531595
H   0.6915757432  1.5545413439 -0.9219285787
O   0.5293901851  0.9760455593  1.1236554054
C   1.3492334911 -0.5562270114 -0.1926857094
H   0.7823630678 -0.2439313461  1.0656496675
H   1.0755247044 -1.2952549427 -0.9573380056
H   2.2955878557 -0.7280477030  0.3394396312
7
Iter 6  Energy = -29.6072733319
C   0.8775877220  0.7833232614 -0.1628789007
H   0.6917026104  1.5546075135 -0.9218890984
O   0.5293550997  0.9759691546  1.1236815748
C   1.3492929558 -0.5562474786 -0.1927514917
H   0.7822636659 -0.2440650917  1.0655450786
H   1.0753621736 -1.2954045051 -0.9571423571
H   2.2956773947 -0.7278162023  0.3393744468
7
Iter 7  Energy = -29.6072747773
C   0.8776313171  0.7833088694 -0.1628525746
H   0.6918201572  1.5547069587 -0.9218739939
O   0.5293244000  0.9758867052  1.1236823579
C   1.3493311512 -0.5561845229 -0.1927927749
H   0.7821666626 -0.2441861183  1.0654331212
H   1.0751986103 -1.2955718473 -0.9569633058
H   2.2957693236 -0.7275933921  0.3393064222
7
Iter 8  Energy = -29.6072762078
C   0.8776520616  0.7833788872 -0.1628778094
H   0.6919440896  1.5547782399 -0.9218333169
O   0.5292904082  0.9758004563  1.1237003152
C   1.3493818570 -0.5561980372 -0.1928496413
H   0.7820709195 -0.2443030219  1.0653332224
H   1.0750441411 -1.2957176531 -0.9567720053
H   2.2958581447 -0.7273722164  0.3392384860
7
Iter 9  Energy = -29.6072775936
C   0.8776907882  0.7833706925 -0.1628613960
H   0.6920603689  1.5548764772 -0.9218123647
O   0.5292593822  0.9757103600  1.1236983968
C   1.3494159488 -0.5561452205 -0.1928871699
H   0.7819774871 -0.2444097314  1.0652279231
H   1.0748891857 -1.2958774113 -0.9565942493
H   2.2959484607 -0.7271585116  0.3391681120
7
Iter 10  Energy = -29.6072789198
C   0.8777111787  0.7834296877 -0.1628863334
H   0.6921815886  1.5549523582 -0.9217710642
O   0.5292252646  0.9756180005  1.1237105213
C   1.3494603074 -0.5561540221 -0.1929374320
H   0.7818854097 -0.2445130555  1.0651328444
H   1.0747418601 -1.2960196622 -0.9564069981
H   2.2960360121 -0.7269466515  0.3390977155
7
Iter 11  Energy = -29.6072802162
C   0.8777458637  0.7834256614 -0.1628778288
H   0.6922965304  1.5550499723 -0.9217456652
O   0.5291931409  0.9755232982  1.1237068079
C   1.3494915426 -0.5561098865 -0.1929723418
H   0.7817955286 -0.2446081645  1.0650339393
H   1.0745944485 -1.2961728896 -0.9562309461
H   2.2961245664 -0.7267413360  0.3390252891
7
Iter 12  Energy = -29.6072814232
C   0.8777657239  0.7834753022 -0.1629024615
H   0.6924152934  1.5551297325 -0.9217040114
O   0.5291581991  0.9754273975  1.1237144287
C   1.3495311334 -0.5561153241 -0.1930175628
H   0.7817070383 -0.2447004657  1.0649437416
H   1.0744534685 -1.2963119246 -0.9560476636
H   2.2962107652 -0.7265380628  0.3389527830
7
Iter 13  Energy = -29.6072827792
C   0.8777969280  0.7834741296 -0.1629002833
H   0.6925288939  1.5552269888 -0.9216751616
O   0.5291245767  0.9753300570  1.1237093918
C   1.3495603156 -0.5560784043 -0.1930504883
H   0.7816206263 -0.2447859586  1.0648509378
H   1.0743127156 -1.2964595872 -0.9558737315
H   2.2962975662 -0.7263405698  0.3388785886
7
Iter 14  Energy = -29.6072838968
C   0.8778160529  0.7835159788 -0.1629247269
H   0.6926454634  1.5553098531 -0.9216332377
O   0.5290884269  0.9752322167  1.1237134357
C   1.3495963437 -0.5560813376 -0.1930916552
H   0.7815356393 -0.2448690778  1.0647655482
H   1.0741773930 -1.2965957264 -0.9556943794
H   2.2963823030 -0.7261452501  0.3388042690
7
Iter 15  Energy = -29.6072850740
C   0.8778441471  0.7835168855 -0.1629275290
H   0.6927577587  1.5554067895 -0.9216016164
O   0.5290530634  0.9751337585  1.1237072412
C   1.3496239434 -0.5560503838 -0.1931230807
H   0.7814526531 -0.2449466572  1.0646784695
H   1.0740425613 -1.2967386141 -0.9555228417
H   2.2964674950 -0.7259551225  0.3387286116
7
Iter 16  Energy = -29.6072862065
C   0.8778623833  0.7835523116 -0.1629516994
H   0.6928723220  1.5554921492 -0.9215595254
O   0.5290154361  0.9750353038  1.1237083296
C   1.3496570451 -0.5560515731 -0.1931610616
H   0.7813711289 -0.2450222107  1.0645976845
H   1.0739123832 -1.2968720699 -0.9553472923
H   2.2965509233 -0.7257672552  0.3386528197
7
Iter 17  Energy = -29.6072873092
C   0.8778876585  0.7835547436 -0.1629584074
H   0.6929833474  1.5555887691 -0.9215257120
O   0.5289782432  0.9749367405  1.1237010867
C   1.3496833928 -0.5560255218 -0.1931911471
H   0.7812915103 -0.2450931814  1.0645159065
H   1.0737828708 -1.2970108241 -0.9551783910
H   2.2966345985 -0.7255840705  0.3385759211
7
Iter 18  Energy = -29.6072883672
C   0.8779048664  0.7835848455 -0.1629822168
H   0.6930960831  1.5556760378 -0.9214834913
O   0.5289390310  0.9748385671  1.1236996078
C   1.3497140629 -0.5560253350 -0.1932264507
H   0.7812133811 -0.2451624208  1.0644394801
H   1.0736573799 -1.2971418297 -0.9550065963
H   2.2967168174 -0.7254032098  0.3384989244
7
Iter 19  Energy = -29.6072895145
C   0.8779275625  0.7835884437 -0.1629919932
H   0.6932058727  1.5557722986 -0.9214479326
O   0.5288999824  0.9747406140  1.1236914041
C   1.3497393184 -0.5560033644 -0.1932553268
H   0.7811370666 -0.2452278008  1.0643625805
H   1.0735326911 -1.2972769391 -0.9548404906
H   2.2967991287 -0.7252265973  0.3384210164
7
Iter 20  Energy = -29.6072904682
C   0.8779436539  0.7836141936 -0.1630154768
H   0.6933169294  1.5558609902 -0.9214056527
O   0.5288591206  0.9746433172  1.1236877928
C   1.3497679654 -0.5560022092 -0.1932883819
H   0.7810622321 -0.2452916581  1.0642903178
H   1.0734115104 -1.2974056425 -0.9546723784
H   2.2968802105 -0.7250523347  0.3383430364
7
Iter 21  Energy = -29.6072915262
C   0.8779639998  0.7836186364 -0.1630276703
H   0.6934255215  1.5559568246 -0.9213687209
O   0.5288182186  0.9745465132  1.1236787308
C   1.3497922394 -0.5559836100 -0.1933161774
H   0.7809891399 -0.2453522703  1.0642179547
H   1.0732912280 -1.2975374902 -0.9545091714
H   2.2969612754 -0.7248819483  0.3382643131
7
Iter 22  Energy = -29.6072925097
C   0.8779788814  0.7836408813 -0.1630508294
H   0.6935350346  1.5560464824 -0.9213263769
O   0.5287757141  0.9744505019  1.1236732790
C   1.3498191668 -0.5559818130 -0.1933472584
H   0.7809175084 -0.2454114872  1.0641495592
H   1.0731740301 -1.2976640072 -0.9543446501
H   2.2970412871 -0.7247139034  0.3381855348
7
Iter 23  Energy = -29.6072934932
C   0.8779970738  0.7836458612 -0.1630648111
H   0.6936424527  1.5561418428 -0.9212883705
O   0.5287330301  0.9743551663  1.1236633502
C   1.3498424874 -0.5559659859 -0.1933740700
H   0.7808475435 -0.2454679349  1.0640813549
H   1.0730578096 -1.2977928670 -0.9541843670
H   2.2971212262 -0.7245494275  0.3381061703
7
Iter 24  Energy = -29.6072944021
C   0.8780107215  0.7836651759 -0.1630876032
H   0.6937505105  1.5562321567 -0.9212460411
O   0.5286889094  0.9742607507  1.1236562908
C   1.3498679810 -0.5559637769 -0.1934034170
H   0.7807790135 -0.2455231358  1.0640166218
H   1.0729443104 -1.2979172542 -0.9540233340
H   2.2972001770 -0.7243872620  0.3380267371
7
Iter 25  Energy = -29.6072953260
C   0.8780269112  0.7836705688 -0.1631029996
H   0.6938567877  1.5563269643 -0.9212072212
O   0.5286445026  0.9741671556  1.1236456032
C   1.3498904967 -0.5559502955 -0.1934292206
H   0.7807120883 -0.2455759983  1.0639522545
H   1.0728318344 -1.2980433509 -0.9538660006
H   2.2972790030 -0.7242283905  0.3379468380
7
Iter 26  Energy = -29.6072962946
C   0.8780393370  0.7836874554 -0.1631254201
H   0.6939634747  1.5564176244 -0.9211649414
O   0.5285988081  0.9740745573  1.1236371553
C   1.3499146679 -0.5559477933 -0.1934569887
H   0.7806465727 -0.2456277237  1.0638909014
H   1.0727217836 -1.2981656726 -0.9537083549
H   2.2973569804 -0.7240717926  0.3378669025
7
Iter 27  Energy = -29.6072972035
C   0.8780536986  0.7836930678 -0.1631418128
H   0.6940686277  1.5565118387 -0.9211255372
O   0.5285527677  0.9739828435  1.1236257313
C   1.3499363942 -0.5559362674 -0.1934818519
H   0.7805825832 -0.2456774049  1.0638300876
H   1.0726127865 -1.2982891838 -0.9535539656
H   2.2974347672 -0.7239182384  0.3377866020
7
Iter 28  Energy = -29.6072979933
C   0.8780649005  0.7837079388 -0.1631638474
H   0.6941740198  1.5566025960 -0.9210833617
O   0.5285055718  0.9738921670  1.1236160875
C   1.3499593800 -0.5559336427 -0.1935082465
H   0.7805199632 -0.2457260317  1.0637719078
H   1.0725059757 -1.2984094553 -0.9533995773
H   2.2975118144 -0.7237669157  0.3377062911
7
Iter 29  Energy = -29.6072988874
C   0.8780775638  0.7837136985 -0.1631810365
H   0.6942780750  1.5566961202 -0.9210435248
O   0.5284579759  0.9738024343  1.1236040304
C   1.3499803560 -0.5559237524 -0.1935321798
H   0.7804588100 -0.2457728941  1.0637143666
H   1.0724002256 -1.2985305140 -0.9532480941
H   2.2975886191 -0.7236184350  0.3376256921
7
Iter 30  Energy = -29.6072997069
C   0.8780875834  0.7837268832 -0.1632027061
H   0.6943822228  1.5567867675 -0.9210014805
O   0.5284093502  0.9737137518  1.1235933234
C   1.3500022933 -0.5559210747 -0.1935572887
H   0.7803989797 -0.2458187783  1.0636591828
H   1.0722964482 -1.2986487750 -0.9530968838
H   2.2976647471 -0.7234721167  0.3375451070
7
Iter 31  Energy = -29.6073004669
C   0.8780986758  0.7837326818 -0.1632204237
H   0.6944851956  1.5568795561 -0.9209613651
O   0.5283603030  0.9736260559  1.1235806377
C   1.3500225541 -0.5559125911 -0.1935803443
H   0.7803405507 -0.2458631234  1.0636047016
H   1.0721937340 -1.2987674676 -0.9529482620
H   2.2977406115 -0.7233284540  0.3374643108
7
Iter 32  Energy = -29.6073012716
C   0.8781075141  0.7837445148 -0.1632417126
H   0.6945881473  1.5569699142 -0.9209195005
O   0.5283103250  0.9735394898  1.1235690107
C   1.3500435469 -0.5559100127 -0.1936042218
H   0.7802834286 -0.2459066526  1.0635522434
H   1.0720928186 -1.2988837119 -0.9528001000
H   2.2978158441 -0.7231868843  0.3373835358
7
Iter 33  Energy = -29.6073020911
C   0.8781171364  0.7837502646 -0.1632596930
H   0.6946900510  1.5570619281 -0.9208792493
O   0.5282599391  0.9734538908  1.1235557004
C   1.3500630986 -0.5559026989 -0.1936263568
H   0.7802276429 -0.2459487838  1.0635005281
H   1.0719929632 -1.2990001379 -0.9526542934
H   2.2978907930 -0.7230478044  0.3373026169
7
Iter 34  Energy = -29.6073028064
C   0.8781248494  0.7837609036 -0.1632806152
H   0.6947918505  1.5571518508 -0.9208376057
O   0.5282087164  0.9733693566  1.1235432646
C   1.3500832180 -0.5559002092 -0.1936491235
H   0.7801730918 -0.2459900995  1.0634506986
H   1.0718947543 -1.2991143948 -0.9525091088
H   2.2979651442 -0.7229107501  0.3372217434
7
Iter 35  Energy = -29.6073035812
C   0.8781331361  0.7837665624 -0.1632988312
H   0.6948927022  1.5572430277 -0.9207973213
O   0.5281570762  0.9732857876  1.1235294722
C   1.3501020942 -0.5558938975 -0.1936704193
H   0.7801198179 -0.2460301599  1.0634016365
H   1.0717975942 -1.2992286256 -0.9523660727
H   2.2980392026 -0.7227760365  0.3371407886
7
Iter 36  Energy = -29.6073043561
C   0.8781397849  0.7837761855 -0.1633193800
H   0.6949933758  1.5573324054 -0.9207559471
O   0.5281046958  0.9732032423  1.1235163367
C   1.3501214046 -0.5558915744 -0.1936921791
H   0.7800677201 -0.2460694337  1.0633542889
H   1.0717019553 -1.2993408960 -0.9522237583
H   2.2981126871 -0.7226432713  0.3370598916
7
Iter 37  Energy = -29.6073050267
C   0.8781468142  0.7837817321 -0.1633376853
H   0.6950931922  1.5574226838 -0.9207157048
O   0.5280519071  0.9731216929  1.1235020600
C   1.3501396837 -0.5558861419 -0.1937126477
H   0.7800168489 -0.2461076216  1.0633077060
H   1.0716073311 -1.2994529789 -0.9520834249
H   2.2981858468 -0.7225127095  0.3369789486
7
Iter 38  Energy = -29.6073057568
C   0.8781524463  0.7837904713 -0.1633578544
H   0.6951927710  1.5575113990 -0.9206746260
O   0.5279984518  0.9730411326  1.1234883162
C   1.3501582125 -0.5558839611 -0.1937334160
H   0.7799671202 -0.2461450558  1.0632626338
H   1.0715141223 -1.2995632903 -0.9519439010
H   2.2982584998 -0.7223840364  0.3368981004
7
Iter 39  Energy = -29.6073065019
C   0.8781583235  0.7837958543 -0.1633761469
H   0.6952915598  1.5576007409 -0.9206345035
O   0.5279446124  0.9729615513  1.1234735864
C   1.3501758834 -0.5558792622 -0.1937530722
H   0.7799185528 -0.2461815247  1.0632183537
H   1.0714219023 -1.2996732638 -0.9518062012
H   2.2983307893 -0.7222574358  0.3368172371
7
Iter 40  Energy = -29.6073072171
C   0.8781629839  0.7838038507 -0.1633959386
H   0.6953900673  1.5576886945 -0.9205937374
O   0.5278901675  0.9728829615  1.1234592830
C   1.3501937578 -0.5558772871 -0.1937729384
H   0.7798710805 -0.2462173078  1.0631754651
H   1.0713309945 -1.2997816031 -0.9516693608
H   2.2984025726 -0.7221326473  0.3367364814
7
Iter 41  Energy = -29.6073078281
C   0.8781677835  0.7838090587 -0.1634141541
H   0.6954878417  1.5577770653 -0.9205538156
O   0.5278353550  0.9728053146  1.1234441846
C   1.3502108658 -0.5558732424 -0.1937918321
H   0.7798247139 -0.2462521845  1.0631333502
H   1.0712410485 -1.2998895178 -0.9515342386
H   2.2984740166 -0.7220098316  0.3366557599
7
Iter 42  Energy = -29.6073084390
C   0.8781715366  0.7838163591 -0.1634335761
H   0.6955852946  1.5578642023 -0.9205134050
O   0.5277799991  0.9727286136  1.1234294348
C   1.3502281012 -0.5558714320 -0.1938107971
H   0.7797794025 -0.2462863881  1.0630924721
H   1.0711523256 -1.2999959298 -0.9514000297
H   2.2985449654 -0.7218887619  0.3365751559
7
Iter 43  Energy = -29.6073090947
C   0.8781753471  0.7838213810 -0.1634516995
H   0.6956820611  1.5579515685 -0.9204737181
O   0.5277242917  0.9726528449  1.1234140385
C   1.3502446643 -0.5558679691 -0.1938289251
H   0.7797351450 -0.2463197758  1.0630523556
H   1.0710645363 -1.3001018263 -0.9512674240
H   2.2986155797 -0.7217695605  0.3364946285
7
Iter 44  Energy = -29.6073097503
C   0.8781782407  0.7838281109 -0.1634707612
H   0.6957784815  1.5580378080 -0.9204336800
O   0.5276681149  0.9725779714  1.1233988844
C   1.3502613155 -0.5558663472 -0.1938470624
H   0.7796918865 -0.2463525273  1.0630134150
H   1.0709778920 -1.3002063253 -0.9511357674
H   2.2986856946 -0.7216520256  0.3364142273
7
Iter 45  Energy = -29.6073103911
C   0.8781811433  0.7838328947 -0.1634887058
H   0.6958742422  1.5581241587 -0.9203942981
O   0.5276116223  0.9725039700  1.1233831750
C   1.3502773852 -0.5558633667 -0.1938644507
H   0.7796496254 -0.2463844968  1.0629752304
H   1.0708921586 -1.3003102271 -0.9510056156
H   2.2987554490 -0.7215362680  0.3363339203
7
Iter 46  Energy = -29.6073109424
C   0.8781832203  0.7838391081 -0.1635073789
H   0.6959696414  1.5582094511 -0.9203546514
O   0.5275547051  0.9724308655  1.1233676517
C   1.3502934477 -0.5558619286 -0.1938818250
H   0.7796083253 -0.2464158693  1.0629381053
H   1.0708074978 -1.3004128313 -0.9508764383
H   2.2988247887 -0.7214221302  0.3362537914
7
Iter 47  Energy = -29.6073115832
C   0.8781852537  0.7838437328 -0.1635251186
H   0.6960644138  1.5582947258 -0.9203155817
O   0.5274975022  0.9723586110  1.1233516523
C   1.3503090319 -0.5558593843 -0.1938985309
H   0.7795679707 -0.2464465462  1.0629017511
H   1.0707237159 -1.3005147962 -0.9507486910
H   2.2988937380 -0.7213096775  0.3361737735
7
Iter 48  Energy = -29.6073122835
C   0.8781865788  0.7838494874 -0.1635434324
H   0.6961587979  1.5583790393 -0.9202763446
O   0.5274399166  0.9722872263  1.1233358166
C   1.3503245884 -0.5558581564 -0.1939151572
H   0.7795285386 -0.2464766572  1.0628663496
H   1.0706409457 -1.3006155073 -0.9506219119
H   2.2989622604 -0.7211987667  0.3360939351
7
Iter 49  Energy = -29.6073128051
C   0.8781878349  0.7838538845 -0.1635609197
H   0.6962525845  1.5584632358 -0.9202376422
O   0.5273820719  0.9722166528  1.1233195869
C   1.3503396984 -0.5558560111 -0.1939311811
H   0.7794900113 -0.2465061044  1.0628316655
H   1.0705590263 -1.3007155364 -0.9504964872
H   2.2990303984 -0.7210894569  0.3360142310
7
Iter 50  Energy = -29.6073133564
C   0.8781884672  0.7838592157 -0.1635788968
H   0.6963459680  1.5585465415 -0.9201988549
O   0.5273238784  0.9721469309  1.1233035345
C   1.3503547689 -0.5558549524 -0.1939470918
H   0.7794523631 -0.2465350367  1.0627978891
H   1.0704780608 -1.3008143985 -0.9503720509
H   2.2990981199 -0.7209816358  0.3359347231
7
Iter 51  Energy = -29.6073138779
C   0.8781890049  0.7838634041 -0.1635961711
H   0.6964387745  1.5586296463 -0.9201605522
O   0.5272654485  0.9720779975  1.1232871646
C   1.3503694130 -0.5558531372 -0.1939624738
H   0.7794155767 -0.2465633423  1.0627648019
H   1.0703979140 -1.3009125509 -0.9502489094
H   2.2991654950 -0.7208753533  0.3358553930
7
Iter 52  Energy = -29.6073144293
C   0.8781889677  0.7838683747 -0.1636137661
H   0.6965311656  1.5587119071 -0.9201222170
O   0.5272067393  0.9720098559  1.1232708567
C   1.3503840062 -0.5558522370 -0.1939776971
H   0.7793796259 -0.2465911506  1.0627325628
H   1.0703186727 -1.3010095857 -0.9501267519
H   2.2992324495 -0.7207705006  0.3357762654
7
Iter 53  Energy = -29.6073149806
C   0.8781888097  0.7838723815 -0.1636307435
H   0.6966229998  1.5587939002 -0.9200843302
O   0.5271478184  0.9719424903  1.1232542902
C   1.3503982768 -0.5558507259 -0.1939924150
H   0.7793444963 -0.2466183861  1.0627009812
H   1.0702402170 -1.3011058885 -0.9500058383
H   2.2992990080 -0.7206671075  0.3356973086
7
Iter 54  Energy = -29.6073155022
C   0.8781881722  0.7838769991 -0.1636480090
H   0.6967144071  1.5588750892 -0.9200464515
O   0.5270886374  0.9718759055  1.1232378198
C   1.3504124511 -0.5558499984 -0.1940070073
H   0.7793101598 -0.2466451465  1.0626702107
H   1.0701626294 -1.3012011016 -0.9498858877
H   2.2993651690 -0.7205650832  0.3356185783
7
Iter 55  Energy = -29.6073160684
C   0.8781873989  0.7838808110 -0.1636647159
H   0.6968052700  1.5589559668 -0.9200089968
O   0.5270292811  0.9718100669  1.1232211031
C   1.3504263163 -0.5558487773 -0.1940211303
H   0.7792766092 -0.2466713890  1.0626400736
H   1.0700858021 -1.3012955597 -0.9497671235
H   2.2994309492 -0.7204644551  0.3355400428
7
Iter 56  Energy = -29.6073165751
C   0.8781862096  0.7838850712 -0.1636816433
H   0.6968956953  1.5590360940 -0.9199716053
O   0.5269697155  0.9717448929  1.1232044772
C   1.3504400813 -0.5558481532 -0.1940351595
H   0.7792437758 -0.2466970728  1.0626107756
H   1.0700097943 -1.3013890116 -0.9496493543
H   2.2994963550 -0.7203651573  0.3354617619
7
Iter 57  Energy = -29.6073170817
C   0.8781848714  0.7838887267 -0.1636981762
H   0.6969856015  1.5591158198 -0.9199345811
O   0.5269099828  0.9716804528  1.1231877115
C   1.3504536060 -0.5558471702 -0.1940487518
H   0.7792116895 -0.2467222868  1.0625820996
H   1.0699345225 -1.3014816927 -0.9495327284
H   2.2995613530 -0.7202671869  0.3353836777
7
Iter 58  Energy = -29.6073175734
C   0.8781831606  0.7838927007 -0.1637147769
H   0.6970750553  1.5591948522 -0.9198976742
O   0.5268500656  0.9716167447  1.1231709802
C   1.3504669771 -0.5558466864 -0.1940621895
H   0.7791803288 -0.2467470697  1.0625541111
H   1.0698600372 -1.3015733812 -0.9494170558
H   2.2996260012 -0.7201704975  0.3353058560
7
Iter 59  Energy = -29.6073180652
C   0.8781812864  0.7838961555 -0.1637309830
H   0.6971639987  1.5592734617 -0.9198611285
O   0.5267900259  0.9715537272  1.1231541009
C   1.3504801255 -0.5558459151 -0.1940752178
H   0.7791496806 -0.2467713988  1.0625267097
H   1.0697862568 -1.3016642921 -0.9493024869
H   2.2996902519 -0.7200750757  0.3352282560
7
Iter 60  Energy = -29.6073185569
C   0.8781790786  0.7838999036 -0.1637472568
H   0.6972524934  1.5593513781 -0.9198247133
O   0.5267298288  0.9714914120  1.1231372684
C   1.3504931618 -0.5558455545 -0.1940880713
H   0.7791197128 -0.2467953244  1.0624999942
H   1.0697132196 -1.3017542736 -0.9491888879
H   2.2997541314 -0.7199808785  0.3351509158
7
Iter 61  Energy = -29.6073189890
C   0.8781767260  0.7839031465 -0.1637631433
H   0.6973404774  1.5594288686 -0.9197886510
O   0.5266695263  0.9714297708  1.1231203027
C   1.3505059503 -0.5558449428 -0.1941005813
H   0.7790904215 -0.2468188122  1.0624738361
H   1.0696408716 -1.3018434567 -0.9490763346
H   2.2998176536 -0.7198879116  0.3350738230
7
Iter 62  Energy = -29.6073194212
C   0.8781740614  0.7839066683 -0.1637790865
H   0.6974280139  1.5595056784 -0.9197527434
O   0.5266090912  0.9713688162  1.1231034180
C   1.3505186306 -0.5558447421 -0.1941129052
H   0.7790617861 -0.2468419218  1.0624482935
H   1.0695692415 -1.3019317193 -0.9489647180
H   2.2998808018 -0.7197961161  0.3349969945
7
Iter 63  Energy = -29.6073199278
C   0.8781712434  0.7839097847 -0.1637946811
H   0.6975150556  1.5595820165 -0.9197171638
O   0.5265485832  0.9713085105  1.1230864062
C   1.3505311072 -0.5558443134 -0.1941248891
H   0.7790337885 -0.2468646321  1.0624232998
H   1.0694982686 -1.3020192065 -0.9488541374
H   2.2999435802 -0.7197054960  0.3349204184
7
Iter 64  Energy = -29.6073203450
C   0.8781681570  0.7839130717 -0.1638102734
H   0.6976016397  1.5596577127 -0.9196817591
O   0.5264879758  0.9712488613  1.1230694403
C   1.3505434700 -0.5558442181 -0.1941366929
H   0.7790064125 -0.2468869660  1.0623988991
H   1.0694279907 -1.3021057906 -0.9487444728
H   2.3000059817 -0.7196160078  0.3348441116
7
Iter 65  Energy = -29.6073208517
C   0.8781649348  0.7839160137 -0.1638255747
H   0.6976877271  1.5597329410 -0.9196466756
O   0.5264273177  0.9711898103  1.1230523871
C   1.3505556018 -0.5558439246 -0.1941481930
H   0.7789796396 -0.2469089013  1.0623750402
H   1.0693583509 -1.3021916201 -0.9486358197
H   2.3000680556 -0.7195276556  0.3347680898
7
Iter 66  Energy = -29.6073212391
C   0.8781614637  0.7839191076 -0.1638408769
H   0.6977733674  1.5598075096 -0.9196117589
O   0.5263665756  0.9711314109  1.1230353950
C   1.3505676567 -0.5558439298 -0.1941595026
H   0.7789534604 -0.2469304858  1.0623517319
H   1.0692893738 -1.3022765647 -0.9485280640
H   2.3001297296 -0.7194403838  0.3346923292
7
Iter 67  Energy = -29.6073216862
C   0.8781578598  0.7839218914 -0.1638558825
H   0.6978585174  1.5598816056 -0.9195771759
O   0.5263058005  0.9710736079  1.1230183374
C   1.3505794895 -0.5558437901 -0.1941705236
H   0.7789278630 -0.2469517076  1.0623289165
H   1.0692210145 -1.3023607392 -0.9484212774
H   2.3001910819 -0.7193542040  0.3346168597
7
Iter 68  Energy = -29.6073221332
C   0.8781540141  0.7839248265 -0.1638708542
H   0.6979432139  1.5599550644 -0.9195427635
O   0.5262449878  0.9710163969  1.1230012938
C   1.3505912651 -0.5558439201 -0.1941813350
H   0.7789028252 -0.2469725809  1.0623066316
H   1.0691532849 -1.3024440586 -0.9483153831
H   2.3002520367 -0.7192690651  0.3345416651
7
Iter 69  Energy = -29.6073225206
C   0.8781500651  0.7839274405 -0.1638855705
H   0.6980274241  1.5600280443 -0.9195086746
O   0.5261841503  0.9709597819  1.1229842230
C   1.3506028308 -0.5558438797 -0.1941918964
H   0.7788783337 -0.2469931140  1.0622848432
H   1.0690861568 -1.3025266315 -0.9482104380
H   2.3003126668 -0.7191849782  0.3344667671
7
Iter 70  Energy = -29.6073229677
C   0.8781459015  0.7839302032 -0.1639002532
H   0.6981111856  1.5601003979 -0.9194747854
O   0.5261232843  0.9709037495  1.1229672138
C   1.3506143170 -0.5558440845 -0.1942022686
H   0.7788543766 -0.2470133180  1.0622635641
H   1.0690196368 -1.3026083897 -0.9481063779
H   2.3003729260 -0.7191018947  0.3343921610
7
Iter 71  Energy = -29.6073233253
C   0.8781416332  0.7839326750 -0.1639146675
H   0.6981944629  1.5601722705 -0.9194412050
O   0.5260624195  0.9708482725  1.1229501666
C   1.3506256107 -0.5558441727 -0.1942123855
H   0.7788309419 -0.2470331694  1.0622427192
H   1.0689537035 -1.3026893880 -0.9480032228
H   2.3004328563 -0.7190198229  0.3343178484
7
Iter 72  Energy = -29.6073236829
C   0.8781371610  0.7839352862 -0.1639290543
H   0.6982772961  1.5602435137 -0.9194078196
O   0.5260015478  0.9707933783  1.1229331815
C   1.3506368189 -0.5558444801 -0.1942223082
H   0.7788080195 -0.2470527421  1.0622223426
H   1.0688883584 -1.3027695698 -0.9479009194
H   2.3004924263 -0.7189387222  0.3342438310
7
Iter 73  Energy = -29.6073240852
C   0.8781326048  0.7839375924 -0.1639431757
H   0.6983596436  1.5603142912 -0.9193747500
O   0.5259406951  0.9707390206  1.1229161711
C   1.3506478751 -0.5558446373 -0.1942319839
H   0.7787855880 -0.2470719655  1.0622024146
H   1.0688235741 -1.3028490402 -0.9477995323
H   2.3005516470 -0.7188585981  0.3341701084
7
Iter 74  Energy = -29.6073244429
C   0.8781278576  0.7839400505 -0.1639572504
H   0.6984415461  1.5603844422 -0.9193418738
O   0.5258798592  0.9706852217  1.1228991996
C   1.3506588056 -0.5558450196 -0.1942414946
H   0.7787636487 -0.2470909300  1.0621829260
H   1.0687593644 -1.3029276883 -0.9476989598
H   2.3006105466 -0.7187794130  0.3340967067
7
Iter 75  Energy = -29.6073248601
C   0.8781230244  0.7839422544 -0.1639710982
H   0.6985229730  1.5604541215 -0.9193093106
O   0.5258190585  0.9706319459  1.1228822366
C   1.3506696023 -0.5558452814 -0.1942507703
H   0.7787421733 -0.2471095752  1.0621638678
H   1.0686956927 -1.3030056375 -0.9475992800
H   2.3006691043 -0.7187011638  0.3340236086
7
Iter 76  Energy = -29.6073252326
C   0.8781180220  0.7839445906 -0.1639849104
H   0.6986039581  1.5605231811 -0.9192769336
O   0.5257582912  0.9705791852  1.1228653284
C   1.3506803112 -0.5558457607 -0.1942599018
H   0.7787211535 -0.2471279262  1.0621452560
H   1.0686325830 -1.3030827933 -0.9475004045
H   2.3007273098 -0.7186238135  0.3339508192
7
Iter 77  Energy = -29.6073255903
C   0.8781129484  0.7839466795 -0.1639984635
H   0.6986844668  1.5605917677 -0.9192448570
O   0.5256975736  0.9705269682  1.1228483988
C   1.3506908656 -0.5558461313 -0.1942688151
H   0.7787005822 -0.2471460058  1.0621270351
H   1.0685699964 -1.3031592513 -0.9474023909
H   2.3007851960 -0.7185473645  0.3338783453
7
Iter 78  Energy = -29.6073259330
C   0.8781077213  0.7839488572 -0.1640119784
H   0.6987645333  1.5606597578 -0.9192129871
O   0.5256369112  0.9704752462  1.1228315357
C   1.3507013721 -0.5558466401 -0.1942775199
H   0.7786804473 -0.2471638119  1.0621092261
H   1.0685079410 -1.3032349587 -0.9473051893
H   2.3008427029 -0.7184717875  0.3338061660
7
Iter 79  Energy = -29.6073263055
C   0.8781024233  0.7839508453 -0.1640252619
H   0.6988441306  1.5607272651 -0.9191814087
O   0.5255763165  0.9704240217  1.1228146661
C   1.3507117173 -0.5558470705 -0.1942860387
H   0.7786607357 -0.2471813387  1.0620918029
H   1.0684464066 -1.3033099739 -0.9472088165
H   2.3008999001 -0.7183970861  0.3337343080
7
Iter 80  Energy = -29.6073265886
C   0.8780969866  0.7839528877 -0.1640384686
H   0.6989232870  1.5607941970 -0.9191500551
O   0.5255157815  0.9703733031  1.1227978765
C   1.3507219622 -0.5558476374 -0.1942943680
H   0.7786414527 -0.2471986155  1.0620747218
H   1.0683853832 -1.3033842419 -0.9471132296
H   2.3009567768 -0.7183232293  0.3336627744
7
Iter 81  Energy = -29.6073270208
C   0.8780914789  0.7839547660 -0.1640514753
H   0.6990019837  1.5608606262 -0.9191189662
O   0.5254553401  0.9703230516  1.1227810768
C   1.3507320712 -0.5558481121 -0.1943025350
H   0.7786225547 -0.2472156073  1.0620580586
H   1.0683248615 -1.3034578462 -0.9470184735
H   2.3010133399 -0.7182502149  0.3335915663
7
Iter 82  Energy = -29.6073273039
C   0.8780858539  0.7839566978 -0.1640644102
H   0.6990802340  1.5609264951 -0.9190880918
O   0.5253949730  0.9702732947  1.1227643396
C   1.3507420775 -0.5558487334 -0.1943105538
H   0.7786040597 -0.2472323726  1.0620417439
H   1.0682648460 -1.3035306995 -0.9469244623
H   2.3010695860 -0.7181780184  0.3335206877
7
Iter 83  Energy = -29.6073276317
C   0.8780801724  0.7839584651 -0.1640771597
H   0.6991580195  1.5609918949 -0.9190574973
O   0.5253347035  0.9702239979  1.1227476213
C   1.3507519996 -0.5558493071 -0.1943183595
H   0.7785859442 -0.2472488681  1.0620257949
H   1.0682053107 -1.3036028925 -0.9468312648
H   2.3011254806 -0.7181066262  0.3334501180
7
Iter 84  Energy = -29.6073280340
C   0.8780743691  0.7839602769 -0.1640897943
H   0.6992353709  1.5610567328 -0.9190271315
O   0.5252745385  0.9701751599  1.1227309462
C   1.3507618387 -0.5558499836 -0.1943260330
H   0.7785682006 -0.2472651319  1.0620102050
H   1.0681462683 -1.3036743661 -0.9467388098
H   2.3011810447 -0.7180360236  0.3333798703
7
Iter 85  Energy = -29.6073283321
C   0.8780685209  0.7839619561 -0.1641022888
H   0.6993122669  1.5611210748 -0.9189970186
O   0.5252144739  0.9701267857  1.1227143195
C   1.3507715564 -0.5558505925 -0.1943335242
H   0.7785508206 -0.2472811621  1.0619949548
H   1.0680876958 -1.3037451926 -0.9466471388
H   2.3012362961 -0.7179662058  0.3333099518
7
Iter 86  Energy = -29.6073286599
C   0.8780625764  0.7839636726 -0.1641147048
H   0.6993887263  1.5611848676 -0.9189671242
O   0.5251545144  0.9700788555  1.1226977651
C   1.3507812071 -0.5558513019 -0.1943408538
H   0.7785337983 -0.2472969501  1.0619800346
H   1.0680295929 -1.3038153347 -0.9465562195
H   2.3012912154 -0.7178971452  0.3332403576
7
Iter 87  Energy = -29.6073289579
C   0.8780565784  0.7839652473 -0.1641269409
H   0.6994647353  1.5612481778 -0.9189374936
O   0.5250946776  0.9700313749  1.1226812381
C   1.3507907260 -0.5558519585 -0.1943480166
H   0.7785171258 -0.2473125125  1.0619654161
H   1.0679719505 -1.3038848165 -0.9464660447
H   2.3013458374 -0.7178288474  0.3331710965
7
Iter 88  Energy = -29.6073293006
C   0.8780504914  0.7839668599 -0.1641390998
H   0.6995403082  1.5613109518 -0.9189080821
O   0.5250349593  0.9699843203  1.1226647826
C   1.3508001904 -0.5558527215 -0.1943550615
H   0.7785007781 -0.2473278330  1.0619511572
H   1.0679147710 -1.3039536222 -0.9463766025
H   2.3014001323 -0.7177612891  0.3331021603
7
Iter 89  Energy = -29.6073295838
C   0.8780443560  0.7839683366 -0.1641510509
H   0.6996154296  1.5613732572 -0.9188789350
O   0.5249753830  0.9699376911  1.1226483269
C   1.3508095464 -0.5558534248 -0.1943619170
H   0.7784847632 -0.2473429389  1.0619371821
H   1.0678580447 -1.3040217873 -0.9462878926
H   2.3014541088 -0.7176944684  0.3330335417
7
Iter 90  Energy = -29.6073298967
C   0.8780381653  0.7839698048 -0.1641629667
H   0.6996901161  1.5614350359 -0.9188499997
O   0.5249159332  0.9698914617  1.1226319664
C   1.3508188084 -0.5558541731 -0.1943686550
H   0.7784690617 -0.2473578027  1.0619235446
H   1.0678017646 -1.3040892933 -0.9461999022
H   2.3015077824 -0.7176283671  0.3329652674
7
Iter 91  Energy = -29.6073301798
C   0.8780319093  0.7839712294 -0.1641747448
H   0.6997643647  1.5614963264 -0.9188213100
O   0.5248566228  0.9698456598  1.1226156614
C   1.3508279939 -0.5558549428 -0.1943752506
H   0.7784536728 -0.2473724623  1.0619102065
H   1.0677459266 -1.3041561692 -0.9461126300
H   2.3015611418 -0.7175629747  0.3328973215
7
Iter 92  Energy = -29.6073305225
C   0.8780256114  0.7839726062 -0.1641863869
H   0.6998381741  1.5615571186 -0.9187928460
O   0.5247974574  0.9698002598  1.1225993982
C   1.3508370780 -0.5558557448 -0.1943817301
H   0.7784385906 -0.2473868970  1.0618971669
H   1.0676905310 -1.3042224013 -0.9460260578
H   2.3016141895 -0.7174982744  0.3328297108
7
Iter 93  Energy = -29.6073307163
C   0.8780192774  0.7839739328 -0.1641979790
H   0.6999115544  1.5616174022 -0.9187646031
O   0.5247384480  0.9697551615  1.1225832383
C   1.3508461295 -0.5558565203 -0.1943881000
H   0.7784237601 -0.2474009997  1.0618845013
H   1.0676355649 -1.3042880472 -0.9459402210
H   2.3016668980 -0.7174342615  0.3327624191
7
Iter 94  Energy = -29.6073310292
C   0.8780128867  0.7839751935 -0.1642093600
H   0.6999844974  1.5616772178 -0.9187366094
O   0.5246795976  0.9697104778  1.1225670759
C   1.3508550817 -0.5558572835 -0.1943942959
H   0.7784092348 -0.2474149286  1.0618720527
H   1.0675810122 -1.3043530770 -0.9458550672
H   2.3017193220 -0.7173709313  0.3326954578
7
Iter 95  Energy = -29.6073313421
C   0.8780064480  0.7839764670 -0.1642206713
H   0.7000570152  1.5617365265 -0.9187088278
O   0.5246208991  0.9696661708  1.1225509953
C   1.3508639576 -0.5558580973 -0.1944003833
H   0.7783949848 -0.2474286510  1.0618598878
H   1.0675268826 -1.3044174785 -0.9457705748
H   2.3017714448 -0.7173082681  0.3326288279
7
Iter 96  Energy = -29.6073315805
C   0.8779999721  0.7839776861 -0.1642318280
H   0.7001291013  1.5617953626 -0.9186812809
O   0.5245623557  0.9696222609  1.1225349757
C   1.3508727238 -0.5558588999 -0.1944063294
H   0.7783810184 -0.2474421780  1.0618479422
H   1.0674731634 -1.3044812937 -0.9456867608
H   2.3018232978 -0.7172462688  0.3325625365
7
Iter 97  Energy = -29.6073318636
C   0.8779934528  0.7839789075 -0.1642428836
H   0.7002007572  1.5618537196 -0.9186539542
O   0.5245039670  0.9695787391  1.1225190334
C   1.3508814372 -0.5558597473 -0.1944121375
H   0.7783673208 -0.2474555128  1.0618362491
H   1.0674198473 -1.3045445209 -0.9456036235
H   2.3018748491 -0.7171849159  0.3324965728
7
Iter 98  Energy = -29.6073320872
C   0.8779868953  0.7839800856 -0.1642538296
H   0.7002719925  1.5619115865 -0.9186268373
O   0.5244457541  0.9695355543  1.1225031390
C   1.3508901040 -0.5558605753 -0.1944178317
H   0.7783538664 -0.2474686201  1.0618248301
H   1.0673669269 -1.3046071594 -0.9455211441
H   2.3019260921 -0.7171242027  0.3324309295
7
Iter 99  Energy = -29.6073323554
C   0.8779803092  0.7839812538 -0.1642646639
H   0.7003428010  1.5619689953 -0.9185999514
O   0.5243877059  0.9694927416  1.1224873156
C   1.3508986610 -0.5558614288 -0.1944233861
H   0.7783406778 -0.2474815613  1.0618136251
H   1.0673144075 -1.3046692098 -0.9454393053
H   2.3019770695 -0.7170641219  0.3323656235
7
Iter 100  Energy = -29.6073326385
C   0.8779736914  0.7839823787 -0.1642753536
H   0.7004131903  1.5620259321 -0.9185732923
O   0.5243298297  0.9694503107  1.1224715457
C   1.3509071764 -0.5558622782 -0.1944288112
H   0.7783277421 -0.2474943393  1.0618026402
H   1.0672622729 -1.3047306827 -0.9453581050
H   2.3020277295 -0.7170046529  0.3323006344
7
Iter 101  Energy = -29.6073329067
C   0.8779670443  0.7839834790 -0.1642859164
H   0.7004831552  1.5620824080 -0.9185468433
O   0.5242721331  0.9694082338  1.1224558219
C   1.3509156069 -0.5558631280 -0.1944341310
H   0.7783150397 -0.2475069229  1.0617918901
H   1.0672105260 -1.3047915966 -0.9452775443
H   2.3020781276 -0.7169458041  0.3322359822
7
Iter 102  Energy = -29.6073331749
C   0.8779603691  0.7839845651 -0.1642963889
H   0.7005527035  1.5621384223 -0.9185206156
O   0.5242146106  0.9693665289  1.1224401834
C   1.3509239685 -0.5558639795 -0.1944393124
H   0.7783025839 -0.2475193671  1.0617813410
H   1.0671591545 -1.3048519445 -0.9451976106
H   2.3021282425 -0.7168875566  0.3321716621
7
Iter 103  Energy = -29.6073334134
C   0.8779536842  0.7839856055 -0.1643067263
H   0.7006218267  1.5621939972 -0.9184946144
O   0.5241572725  0.9693251738  1.1224245941
C   1.3509322760 -0.5558648253 -0.1944443879
H   0.7782903509 -0.2475316403  1.0617710305
H   1.0671081665 -1.3049117392 -0.9451182977
H   2.3021780561 -0.7168299022  0.3321076613
7
Iter 104  Energy = -29.6073336518
C   0.8779469661  0.7839866495 -0.1643169798
H   0.7006905391  1.5622491067 -0.9184688055
O   0.5241001088  0.9692841943  1.1224090916
C   1.3509405404 -0.5558657033 -0.1944493587
H   0.7782783430 -0.2475437613  1.0617609183
H   1.0670575486 -1.3049709831 -0.9450395929
H   2.3022275863 -0.7167728327  0.3320439840
7
Iter 105  Energy = -29.6073338753
C   0.8779402358  0.7839876572 -0.1643271024
H   0.7007588344  1.5623037814 -0.9184432285
O   0.5240431314  0.9692435502  1.1223936580
C   1.3509487212 -0.5558665599 -0.1944542397
H   0.7782665510 -0.2475557172  1.0617510148
H   1.0670072983 -1.3050296903 -0.9449614930
H   2.3022768607 -0.7167163512  0.3319806483
7
Iter 106  Energy = -29.6073341584
C   0.8779334814  0.7839886673 -0.1643371340
H   0.7008267256  1.5623579923 -0.9184178541
O   0.5239863446  0.9692032315  1.1223783050
C   1.3509568909 -0.5558674129 -0.1944590067
H   0.7782549610 -0.2475675006  1.0617413305
H   1.0669574007 -1.3050878748 -0.9448840084
H   2.3023258283 -0.7166604318  0.3319176259
7
Iter 107  Energy = -29.6073342776
C   0.8779267194  0.7839896268 -0.1643470428
H   0.7008942080  1.5624117576 -0.9183926862
O   0.5239297449  0.9691632664  1.1223630158
C   1.3509649614 -0.5558682378 -0.1944637092
H   0.7782435803 -0.2475791390  1.0617318335
H   1.0669078689 -1.3051455169 -0.9448070957
H   2.3023745497 -0.7166050854  0.3318549426
7
Iter 108  Energy = -29.6073345906
C   0.8779199351  0.7839906110 -0.1643568629
H   0.7009612810  1.5624650858 -0.9183677279
O   0.5238733443  0.9691236167  1.1223478050
C   1.3509730534 -0.5558691052 -0.1944682926
H   0.7782323900 -0.2475906150  1.0617225558
H   1.0668586871 -1.3052026412 -0.9447307832
H   2.3024229417 -0.7165502810  0.3317925619
7
Iter 109  Energy = -29.6073347992
C   0.8779131635  0.7839915053 -0.1643665426
H   0.7010279483  1.5625179809 -0.9183429776
O   0.5238171361  0.9690843158  1.1223326527
C   1.3509810701 -0.5558699115 -0.1944727904
H   0.7782213992 -0.2476019488  1.0617134626
H   1.0668098549 -1.3052592531 -0.9446550566
H   2.3024710609 -0.7164960185  0.3317305077
7
Iter 110  Energy = -29.6073350376
C   0.8779063634  0.7839924480 -0.1643761347
H   0.7010942161  1.5625704345 -0.9183184359
O   0.5237611282  0.9690453435  1.1223175861
C   1.3509890101 -0.5558707430 -0.1944771705
H   0.7782106135 -0.2476131728  1.0617045180
H   1.0667613706 -1.3053153414 -0.9445798921
H   2.3025189308 -0.7164422986  0.3316687858
7
Iter 111  Energy = -29.6073352462
C   0.8778995668  0.7839933139 -0.1643856060
H   0.7011600769  1.5626224740 -0.9182941065
O   0.5237053190  0.9690066975  1.1223025930
C   1.3509968873 -0.5558715541 -0.1944815074
H   0.7782000062 -0.2476242299  1.0616957765
H   1.0667132342 -1.3053709135 -0.9445052950
H   2.3025665424 -0.7163891164  0.3316074012
7
Iter 112  Energy = -29.6073354548
C   0.8778927602  0.7839941918 -0.1643949937
H   0.7012255410  1.5626740790 -0.9182699661
O   0.5236497112  0.9689683704  1.1222876863
C   1.3510047259 -0.5558723884 -0.1944857302
H   0.7781895909 -0.2476351550  1.0616871870
H   1.0666654399 -1.3054259781 -0.9444312579
H   2.3026138638 -0.7163364480  0.3315463310
7
Iter 113  Energy = -29.6073357528
C   0.8778859602  0.7839950252 -0.1644042745
H   0.7012906037  1.5627252683 -0.9182460273
O   0.5235943201  0.9689303447  1.1222728251
C   1.3510125293 -0.5558731770 -0.1944898566
H   0.7781793453 -0.2476459406  1.0616788067
H   1.0666179813 -1.3054805559 -0.9443577916
H   2.3026608927 -0.7162842927  0.3314855741
7
Iter 114  Energy = -29.6073359019
C   0.8778791527  0.7839958807 -0.1644134773
H   0.7013552716  1.5627760274 -0.9182222792
O   0.5235391242  0.9688926402  1.1222580691
C   1.3510202572 -0.5558740128 -0.1944939263
H   0.7781692762 -0.2476565848  1.0616705832
H   1.0665708623 -1.3055346293 -0.9442848740
H   2.3027076875 -0.7162326506  0.3314251575
7
Iter 115  Energy = -29.6073361105
C   0.8778723597  0.7839966738 -0.1644225668
H   0.7014195376  1.5628263969 -0.9181987344
O   0.5234841447  0.9688552524  1.1222433634
C   1.3510279547 -0.5558747897 -0.1944978731
H   0.7781593758 -0.2476671187  1.0616625363
H   1.0665240590 -1.3055882384 -0.9442125281
H   2.3027541999 -0.7161815046  0.3313650564
7
Iter 116  Energy = -29.6073362893
C   0.8778655539  0.7839974926 -0.1644315661
H   0.7014834128  1.5628763491 -0.9181753875
O   0.5234293720  0.9688181659  1.1222287570
C   1.3510355929 -0.5558756245 -0.1945017509
H   0.7781496492 -0.2476775120  1.0616546263
H   1.0664775968 -1.3056413448 -0.9441407029
H   2.3028004541 -0.7161308541  0.3313052784
7
Iter 117  Energy = -29.6073365128
C   0.8778587552  0.7839982740 -0.1644404659
H   0.7015468962  1.5629258895 -0.9181522188
O   0.5233748206  0.9687813789  1.1222141948
C   1.3510431933 -0.5558764013 -0.1945055358
H   0.7781400768 -0.2476877812  1.0616468997
H   1.0664314452 -1.3056939965 -0.9440694465
H   2.3028464440 -0.7160806915  0.3312458271
7
Iter 118  Energy = -29.6073367214
C   0.8778519538  0.7839990735 -0.1644492877
H   0.7016099935  1.5629750154 -0.9181292373
O   0.5233204842  0.9687448841  1.1221997250
C   1.3510507273 -0.5558772078 -0.1945092555
H   0.7781306675 -0.2476979230  1.0616393186
H   1.0663856308 -1.3057461595 -0.9439987032
H   2.3028921739 -0.7160310121  0.3311866960
7
Iter 119  Energy = -29.6073368704
C   0.8778451705  0.7839997942 -0.1644579688
H   0.7016726973  1.5630237671 -0.9181064641
O   0.5232663719  0.9687086774  1.1221852965
C   1.3510582202 -0.5558779709 -0.1945128714
H   0.7781214141 -0.2477079352  1.0616318835
H   1.0663401273 -1.3057978600 -0.9439284996
H   2.3029376297 -0.7159818021  0.3311278783
7
Iter 120  Energy = -29.6073371089
C   0.8778384279  0.7840004239 -0.1644665906
H   0.7017350116  1.5630721308 -0.9180838729
O   0.5232125002  0.9686726391  1.1221709498
C   1.3510656983 -0.5558786682 -0.1945164868
H   0.7781122572 -0.2477176744  1.0616247298
H   1.0662949477 -1.3058491222 -0.9438588515
H   2.3029827875 -0.7159330588  0.3310693769
7
Iter 121  Energy = -29.6073372877
C   0.8778316632  0.7840011762 -0.1644751664
H   0.7017969454  1.5631200823 -0.9180614563
O   0.5231588465  0.9686368971  1.1221566946
C   1.3510731117 -0.5558794867 -0.1945200462
H   0.7781032586 -0.2477273272  1.0616177205
H   1.0662500917 -1.3058998971 -0.9437897021
H   2.3030277132 -0.7158847735  0.3310112122
7
Iter 122  Energy = -29.6073374814
C   0.8778249277  0.7840017932 -0.1644835826
H   0.7018584908  1.5631676749 -0.9180392449
O   0.5231054295  0.9686014397  1.1221424523
C   1.3510804582 -0.5558801678 -0.1945235009
H   0.7780944099 -0.2477368751  1.0616108606
H   1.0662055330 -1.3059502463 -0.9437210974
H   2.3030723810 -0.7158369476  0.3309533701
7
Iter 123  Energy = -29.6073376602
C   0.8778181883  0.7840024930 -0.1644920035
H   0.7019196621  1.5632148499 -0.9180171847
O   0.5230522289  0.9685662591  1.1221283293
C   1.3510877863 -0.5558809338 -0.1945268979
H   0.7780857016 -0.2477463089  1.0616041585
H   1.0661612952 -1.3060001229 -0.9436529831
H   2.3031167670 -0.7157895666  0.3308958369
7
Iter 124  Energy = -29.6073378837
C   0.8778114762  0.7840031081 -0.1645002665
H   0.7019804462  1.5632616697 -0.9179953180
O   0.5229992736  0.9685313340  1.1221142206
C   1.3510950332 -0.5558816265 -0.1945301784
H   0.7780771410 -0.2477556207  1.0615975647
H   1.0661173579 -1.3060495711 -0.9435853885
H   2.3031609021 -0.7157426237  0.3308386225
7
Iter 125  Energy = -29.6073380774
C   0.8778047727  0.7840037427 -0.1645084973
H   0.7020408575  1.5633081037 -0.9179736222
O   0.5229465285  0.9684967160  1.1221002294
C   1.3511022339 -0.5558823701 -0.1945334244
H   0.7780687214 -0.2477648444  1.0615911233
H   1.0660737270 -1.3060985641 -0.9435182896
H   2.3032047893 -0.7156961132  0.3307817360
7
Iter 126  Energy = -29.6073381966
C   0.8777980914  0.7840043007 -0.1645165858
H   0.7021008861  1.5633541836 -0.9179521173
O   0.5228940297  0.9684623658  1.1220862499
C   1.3511093932 -0.5558830249 -0.1945365375
H   0.7780604396 -0.2477739789  1.0615847980
H   1.0660303854 -1.3061471411 -0.9434517068
H   2.3032484048 -0.7156500347  0.3307251542
7
Iter 127  Energy = -29.6073383158
C   0.8777914100  0.7840049159 -0.1645246359
H   0.7021605470  1.5633998788 -0.9179307774
O   0.5228417526  0.9684282809  1.1220723811
C   1.3511165048 -0.5558837625 -0.1945396293
H   0.7780522870 -0.2477829966  1.0615786155
H   1.0659873555 -1.3061952663 -0.9433855950
H   2.3032917737 -0.7156043803  0.3306688948
7
Iter 128  Energy = -29.6073385692
C   0.8777847461  0.7840054944 -0.1645325720
H   0.7022198352  1.5634452125 -0.9179096203
O   0.5227897160  0.9683944618  1.1220585591
C   1.3511235690 -0.5558844578 -0.1945426236
H   0.7780442658 -0.2477919186  1.0615725501
H   1.0659446137 -1.3062429789 -0.9433199882
H   2.3033348855 -0.7155591421  0.3306129476
7
Iter 129  Energy = -29.6073387182
C   0.8777781002  0.7840060566 -0.1645404496
H   0.7022787553  1.5634901794 -0.9178886295
O   0.5227379101  0.9683608912  1.1220448208
C   1.3511305970 -0.5558851571 -0.1945455613
H   0.7780363668 -0.2478007254  1.0615666203
H   1.0659021707 -1.3062902560 -0.9432548546
H   2.3033777313 -0.7155143171  0.3305573081
7
Iter 130  Energy = -29.6073388821
C   0.8777714765  0.7840066044 -0.1645482333
H   0.7023373034  1.5635347990 -0.9178678210
O   0.5226863335  0.9683275899  1.1220311554
C   1.3511375394 -0.5558858588 -0.1945484580
H   0.7780285917 -0.2478094306  1.0615608154
H   1.0658600224 -1.3063371236 -0.9431902076
H   2.3034203646 -0.7154699079  0.3305020019
7
Iter 131  Energy = -29.6073391056
C   0.8777648518  0.7840071674 -0.1645559192
H   0.7023954874  1.5635790484 -0.9178471666
O   0.5226350039  0.9682945483  1.1220175197
C   1.3511444722 -0.5558865668 -0.1945512620
H   0.7780209332 -0.2478180488  1.0615551313
H   1.0658181516 -1.3063835807 -0.9431260464
H   2.3034627307 -0.7154258944  0.3304469974
7
Iter 132  Energy = -29.6073392397
C   0.8777582598  0.7840076843 -0.1645635513
H   0.7024533090  1.5636229521 -0.9178266885
O   0.5225838964  0.9682617723  1.1220040006
C   1.3511513645 -0.5558872435 -0.1945539752
H   0.7780134031 -0.2478265733  1.0615495361
H   1.0657765680 -1.3064296407 -0.9430623597
H   2.3035048303 -0.7153822778  0.3303922932
7
Iter 133  Energy = -29.6073394483
C   0.8777516825  0.7840082130 -0.1645711001
H   0.7025107648  1.5636665084 -0.9178063770
O   0.5225330258  0.9682292605  1.1219905409
C   1.3511582127 -0.5558879600 -0.1945566618
H   0.7780059848 -0.2478350186  1.0615440775
H   1.0657352765 -1.3064752760 -0.9429991233
H   2.3035466836 -0.7153390532  0.3303379004
7
Iter 134  Energy = -29.6073395377
C   0.8777451315  0.7840087086 -0.1645785712
H   0.7025678584  1.5637097259 -0.9177862377
O   0.5224823938  0.9681969965  1.1219771519
C   1.3511649858 -0.5558886495 -0.1945592848
H   0.7779986815 -0.2478433713  1.0615387265
H   1.0656942704 -1.3065205130 -0.9429363510
H   2.3035883094 -0.7152962233  0.3302838227
7
Iter 135  Energy = -29.6073397464
C   0.8777386027  0.7840091868 -0.1645859974
H   0.7026245954  1.5637525902 -0.9177662428
O   0.5224319978  0.9681649773  1.1219638374
C   1.3511717434 -0.5558893155 -0.1945618237
H   0.7779914833 -0.2478516260  1.0615334925
H   1.0656535366 -1.3065653637 -0.9428740512
H   2.3036296716 -0.7152537762  0.3302300416
7
Iter 136  Energy = -29.6073398656
C   0.8777321025  0.7840096619 -0.1645933519
H   0.7026809696  1.5637951339 -0.9177464301
O   0.5223818333  0.9681332019  1.1219506201
C   1.3511784441 -0.5558899985 -0.1945643137
H   0.7779843935 -0.2478597866  1.0615283650
H   1.0656130793 -1.3066098327 -0.9428122145
H   2.3036708082 -0.7152117062  0.3301765814
7
Iter 137  Energy = -29.6073400593
C   0.8777256139  0.7840101401 -0.1646006260
H   0.7027369915  1.5638373194 -0.9177267466
O   0.5223319182  0.9681016645  1.1219374306
C   1.3511851130 -0.5558906887 -0.1945667472
H   0.7779774046 -0.2478678522  1.0615233504
H   1.0655729035 -1.3066539009 -0.9427508191
H   2.3037116861 -0.7151700092  0.3301234141
7
Iter 138  Energy = -29.6073401636
C   0.8777191510  0.7840106061 -0.1646078505
H   0.7027926613  1.5638791788 -0.9177072370
O   0.5222822304  0.9680703710  1.1219243602
C   1.3511917345 -0.5558913872 -0.1945691492
H   0.7779705133 -0.2478758165  1.0615184527
H   1.0655329987 -1.3066975935 -0.9426898833
H   2.3037523418 -0.7151286847  0.3300705631
7
Iter 139  Energy = -29.6073403275
C   0.8777127050  0.7840110418 -0.1646149516
H   0.7028479785  1.5639207142 -0.9176878891
O   0.5222327896  0.9680393193  1.1219113153
C   1.3511983152 -0.5558920530 -0.1945714575
H   0.7779637316 -0.2478837113  1.0615136212
H   1.0654933608 -1.3067409092 -0.9426293871
H   2.3037927506 -0.7150877274  0.3300180056
7
Iter 140  Energy = -29.6073404616
C   0.8777062849  0.7840114833 -0.1646220180
H   0.7029029497  1.5639619041 -0.9176686829
O   0.5221835829  0.9680085141  1.1218983666
C   1.3512048276 -0.5558927200 -0.1945737341
H   0.7779570478 -0.2478915248  1.0615088900
H   1.0654539931 -1.3067838494 -0.9425693288
H   2.3038329452 -0.7150471327  0.3299657630
7
Iter 141  Energy = -29.6073405957
C   0.8776998932  0.7840118940 -0.1646289964
H   0.7029575659  1.5640027928 -0.9176496499
O   0.5221346125  0.9679779518  1.1218854926
C   1.3512113215 -0.5558933933 -0.1945759404
H   0.7779504632 -0.2478992560  1.0615042504
H   1.0654148906 -1.3068264220 -0.9425097130
H   2.3038728846 -0.7150068932  0.3299138132
7
Iter 142  Energy = -29.6073408192
C   0.8776935154  0.7840123193 -0.1646359096
H   0.7030118444  1.5640433460 -0.9176307643
O   0.5220858916  0.9679476207  1.1218726706
C   1.3512177652 -0.5558940497 -0.1945780822
H   0.7779439723 -0.2479069276  1.0614997131
H   1.0653760472 -1.3068686347 -0.9424505386
H   2.3039125948 -0.7149669992  0.3298621674
7
Iter 143  Energy = -29.6073409236
C   0.8776871606  0.7840127445 -0.1646427623
H   0.7030657774  1.5640835744 -0.9176120216
O   0.5220374021  0.9679175297  1.1218599308
C   1.3512242040 -0.5558947293 -0.1945801978
H   0.7779375687 -0.2479145096  1.0614952818
H   1.0653374734 -1.3069104760 -0.9423917791
H   2.3039520451 -0.7149274579  0.3298108057
7
Iter 144  Energy = -29.6073410875
C   0.8776808323  0.7840131499 -0.1646495547
H   0.7031193690  1.5641234894 -0.9175934353
O   0.5219891549  0.9678876417  1.1218472795
C   1.3512305839 -0.5558953975 -0.1945822619
H   0.7779312495 -0.2479219732  1.0614909390
H   1.0652991568 -1.3069519685 -0.9423334649
H   2.3039912847 -0.7148882647  0.3297597552
7
Iter 145  Energy = -29.6073411769
C   0.8776745538  0.7840134948 -0.1646563118
H   0.7031726199  1.5641630827 -0.9175749791
O   0.5219411514  0.9678579046  1.1218347183
C   1.3512369457 -0.5558960434 -0.1945843347
H   0.7779249854 -0.2479292447  1.0614867535
H   1.0652611055 -1.3069931087 -0.9422755839
H   2.3040302693 -0.7148494087  0.3297089958
7
Iter 146  Energy = -29.6073413110
C   0.8776683007  0.7840138039 -0.1646629694
H   0.7032255274  1.5642023843 -0.9175566752
O   0.5218933965  0.9678283979  1.1218221936
C   1.3512432482 -0.5558966590 -0.1945863420
H   0.7779188126 -0.2479364481  1.0614826419
H   1.0652233082 -1.3070339076 -0.9422181299
H   2.3040690371 -0.7148108945  0.3296585382
7
Iter 147  Energy = -29.6073414749
C   0.8776620516  0.7840141536 -0.1646695472
H   0.7032781052  1.5642413573 -0.9175385163
O   0.5218458732  0.9677991734  1.1218097421
C   1.3512495152 -0.5558973057 -0.1945882688
H   0.7779127475 -0.2479436439  1.0614785585
H   1.0651857649 -1.3070743473 -0.9421610782
H   2.3041075734 -0.7147727106  0.3296083666
7
Iter 148  Energy = -29.6073415941
C   0.8776558465  0.7840144781 -0.1646761059
H   0.7033303477  1.5642800218 -0.9175204849
O   0.5217985773  0.9677701712  1.1217973956
C   1.3512557712 -0.5558979272 -0.1945901497
H   0.7779067548 -0.2479507488  1.0614745745
H   1.0651484700 -1.3071144624 -0.9421044503
H   2.3041458639 -0.7147348558  0.3295584781
7
Iter 149  Energy = -29.6073417282
C   0.8776496536  0.7840148031 -0.1646825558
H   0.7033822593  1.5643183803 -0.9175025978
O   0.5217515297  0.9677413966  1.1217850835
C   1.3512619313 -0.5558985337 -0.1945920330
H   0.7779008391 -0.2479577927  1.0614706701
H   1.0651114379 -1.3071542332 -0.9420482093
H   2.3041839808 -0.7146973447  0.3295089006
7
Iter 150  Energy = -29.6073418623
C   0.8776435068  0.7840150934 -0.1646889602
H   0.7034338367  1.5643564457 -0.9174848493
O   0.5217047125  0.9677128471  1.1217728631
C   1.3512680639 -0.5558991097 -0.1945938545
H   0.7778950008 -0.2479647613  1.0614668393
H   1.0650746542 -1.3071936861 -0.9419923807
H   2.3042218563 -0.7146601530  0.3294595998
7
Iter 151  Energy = -29.6073419815
C   0.8776373800  0.7840153931 -0.1646952995
H   0.7034850836  1.5643942175 -0.9174672393
O   0.5216581330  0.9676845281  1.1217607132
C   1.3512741795 -0.5558997231 -0.1945956514
H   0.7778892357 -0.2479716671  1.0614630904
H   1.0650381229 -1.3072327936 -0.9419369376
H   2.3042594963 -0.7146232786  0.3294105811
7
Iter 152  Energy = -29.6073421156
C   0.8776312683  0.7840156930 -0.1647015538
H   0.7035360074  1.5644316837 -0.9174497620
O   0.5216118023  0.9676564205  1.1217486129
C   1.3512802708 -0.5559002902 -0.1945973703
H   0.7778835432 -0.2479785069  1.0614593964
H   1.0650018289 -1.3072716003 -0.9418819067
H   2.3042969106 -0.7145867242  0.3293618411
7
Iter 153  Energy = -29.6073422796
C   0.8776251926  0.7840159851 -0.1647077763
H   0.7035866051  1.5644688558 -0.9174324132
O   0.5215657014  0.9676285211  1.1217366104
C   1.3512863237 -0.5559008774 -0.1945990712
H   0.7778779186 -0.2479852525  1.0614557803
H   1.0649657821 -1.3073100742 -0.9418272635
H   2.3043341084 -0.7145504803  0.3293133893
7
Iter 154  Energy = -29.6073422796
C   0.8776191420  0.7840162545 -0.1647139102
H   0.7036368789  1.5645057453 -0.9174152076
O   0.5215198443  0.9676008304  1.1217246532
C   1.3512923349 -0.5559014415 -0.1946007370
H   0.7778723594 -0.2479919349  1.0614522430
H   1.0649299785 -1.3073482234 -0.9417730042
H   2.3043710938 -0.7145145521  0.3292652175
7
Iter 155  Energy = -29.6073424584
C   0.8776131322  0.7840165114 -0.1647199999
H   0.7036868276  1.5645423552 -0.9173981439
O   0.5214742222  0.9675733447  1.1217127899
C   1.3512982953 -0.5559019783 -0.1946023728
H   0.7778668603 -0.2479985407  1.0614487957
H   1.0648944136 -1.3073860809 -0.9417191522
H   2.3044078807 -0.7144789343  0.3292173387
7
Iter 156  Energy = -29.6073426074
C   0.8776071360  0.7840167985 -0.1647260379
H   0.7037364635  1.5645786540 -0.9173811826
O   0.5214288385  0.9675460711  1.1217009857
C   1.3513042199 -0.5559025369 -0.1946039868
H   0.7778614326 -0.2480050756  1.0614454074
H   1.0648590908 -1.3074236166 -0.9416656716
H   2.3044444506 -0.7144436173  0.3291697427
7
Iter 157  Energy = -29.6073426819
C   0.8776011776  0.7840170536 -0.1647320145
H   0.7037857795  1.5646146843 -0.9173643751
O   0.5213836880  0.9675190160  1.1216892661
C   1.3513101541 -0.5559030859 -0.1946055286
H   0.7778560733 -0.2480115648  1.0614420809
H   1.0648239999 -1.3074608371 -0.9416125739
H   2.3044807605 -0.7144085901  0.3291224011
7
Iter 158  Energy = -29.6073428309
C   0.8775952312  0.7840173230 -0.1647379166
H   0.7038347758  1.5646504377 -0.9173476838
O   0.5213387900  0.9674921438  1.1216775762
C   1.3513160263 -0.5559036518 -0.1946070453
H   0.7778507757 -0.2480179699  1.0614388190
H   1.0647891540 -1.3074977408 -0.9415598431
H   2.3045168800 -0.7143738661  0.3290753492
7
Iter 159  Energy = -29.6073429352
C   0.8775893183  0.7840175785 -0.1647437767
H   0.7038834618  1.5646859109 -0.9173311296
O   0.5212941220  0.9674654853  1.1216659841
C   1.3513218538 -0.5559041735 -0.1946085213
H   0.7778455404 -0.2480243242  1.0614356187
H   1.0647545304 -1.3075343625 -0.9415075035
H   2.3045528063 -0.7143394389  0.3290285834
7
Iter 160  Energy = -29.6073430097
C   0.8775834407  0.7840178442 -0.1647496147
H   0.7039318341  1.5647211029 -0.9173146908
O   0.5212496803  0.9674390244  1.1216544924
C   1.3513276672 -0.5559047388 -0.1946099716
H   0.7778403647 -0.2480305946  1.0614324804
H   1.0647201492 -1.3075706660 -0.9414555194
H   2.3045884963 -0.7143052966  0.3289820789
7
Iter 161  Energy = -29.6073431438
C   0.8775776000  0.7840180583 -0.1647553546
H   0.7039798927  1.5647560401 -0.9172983891
O   0.5212054887  0.9674127478  1.1216430282
C   1.3513334317 -0.5559052453 -0.1946113773
H   0.7778352469 -0.2480368035  1.0614294033
H   1.0646859939 -1.3076066798 -0.9414039036
H   2.3046239787 -0.7142714425  0.3289358488
7
Iter 162  Energy = -29.6073433077
C   0.8775717745  0.7840183143 -0.1647610529
H   0.7040276444  1.5647907017 -0.9172822095
O   0.5211615318  0.9673866749  1.1216316404
C   1.3513391995 -0.5559058021 -0.1946127511
H   0.7778301874 -0.2480429562  1.0614264014
H   1.0646520694 -1.3076423929 -0.9413526548
H   2.3046592258 -0.7142378640  0.3288898816
7
Iter 163  Energy = -29.6073434120
C   0.8775659955  0.7840185217 -0.1647666770
H   0.7040750878  1.5648250981 -0.9172661583
O   0.5211178142  0.9673607775  1.1216203030
C   1.3513448836 -0.5559062896 -0.1946141108
H   0.7778251816 -0.2480490351  1.0614234688
H   1.0646183690 -1.3076778221 -0.9413017743
H   2.3046943012 -0.7142045748  0.3288442045
7
Iter 164  Energy = -29.6073434866
C   0.8775602378  0.7840187548 -0.1647722450
H   0.7041222223  1.5648592410 -0.9172502406
O   0.5210743275  0.9673350975  1.1216090388
C   1.3513505632 -0.5559068257 -0.1946154179
H   0.7778202387 -0.2480550808  1.0614205823
H   1.0645848932 -1.3077129564 -0.9412512509
H   2.3047291507 -0.7141715555  0.3287987874
7
Iter 165  Energy = -29.6073435611
C   0.8775545014  0.7840189850 -0.1647777670
H   0.7041690559  1.5648931089 -0.9172344197
O   0.5210310821  0.9673096027  1.1215978207
C   1.3513562114 -0.5559073361 -0.1946166729
H   0.7778153515 -0.2480610596  1.0614177474
H   1.0645516423 -1.3077478108 -0.9412010873
H   2.3047637882 -0.7141388157  0.3287536331
7
Iter 166  Energy = -29.6073436952
C   0.8775488043  0.7840192180 -0.1647832729
H   0.7042155905  1.5649267185 -0.9172187322
O   0.5209880589  0.9672842936  1.1215867204
C   1.3513617964 -0.5559078723 -0.1946179460
H   0.7778105146 -0.2480669712  1.0614149828
H   1.0645186230 -1.3077823618 -0.9411512580
H   2.3047982449 -0.7141063498  0.3287087598
7
Iter 167  Energy = -29.6073437846
C   0.8775431419  0.7840194155 -0.1647887112
H   0.7042618219  1.5649600804 -0.9172031685
O   0.5209452734  0.9672591775  1.1215756714
C   1.3513673575 -0.5559083850 -0.1946191667
H   0.7778057317 -0.2480728319  1.0614122663
H   1.0644858199 -1.3078166332 -0.9411017840
H   2.3048324866 -0.7140741491  0.3286641479
7
Iter 168  Energy = -29.6073438591
C   0.8775374961  0.7840196403 -0.1647940954
H   0.7043077569  1.5649931823 -0.9171877159
O   0.5209027298  0.9672342386  1.1215646664
C   1.3513729057 -0.5559088895 -0.1946203361
H   0.7778010013 -0.2480786369  1.0614096158
H   1.0644532345 -1.3078506465 -0.9410526746
H   2.3048665086 -0.7140422133  0.3286197933
7
Iter 169  Energy = -29.6073439634
C   0.8775318995  0.7840197972 -0.1647994119
H   0.7043533911  1.5650260528 -0.9171724080
O   0.5208604150  0.9672094642  1.1215537558
C   1.3513784063 -0.5559093532 -0.1946214658
H   0.7777963215 -0.2480843515  1.0614069947
H   1.0644208638 -1.3078843882 -0.9410039157
H   2.3049003356 -0.7140105462  0.3285757043
7
Iter 170  Energy = -29.6073441124
C   0.8775263237  0.7840200015 -0.1648046902
H   0.7043987318  1.5650586524 -0.9171571877
O   0.5208183319  0.9671849061  1.1215428837
C   1.3513838835 -0.5559098607 -0.1946225931
H   0.7777916923 -0.2480900518  1.0614044455
H   1.0643887134 -1.3079178418 -0.9409554828
H   2.3049339562 -0.7139791305  0.3285318758
7
Iter 171  Energy = -29.6073442167
C   0.8775207745  0.7840201888 -0.1648099033
H   0.7044437832  1.5650910008 -0.9171420828
O   0.5207764836  0.9671605232  1.1215320671
C   1.3513893277 -0.5559103435 -0.1946236733
H   0.7777871146 -0.2480956894  1.0614019353
H   1.0643567738 -1.3079510318 -0.9409073967
H   2.3049673752 -0.7139479724  0.3284883060
7
Iter 172  Energy = -29.6073442614
C   0.8775152483  0.7840203961 -0.1648150935
H   0.7044885458  1.5651231000 -0.9171270919
O   0.5207348623  0.9671363164  1.1215213471
C   1.3513947598 -0.5559108485 -0.1946247349
H   0.7777825802 -0.2481012608  1.0613994840
H   1.0643250456 -1.3079839590 -0.9408596557
H   2.3050005903 -0.7139170678  0.3284449965
7
Iter 1  Energy = -29.6072649425
C   0.8774438890  0.7830852513 -0.1630086201
H   0.6910797780  1.5541982959 -0.9219783675
O   0.5295610109  0.9759904790  1.1235917899
C   1.3490341005 -0.5563180450 -0.1925828599
H   0.7826709932 -0.2429616216  1.0663634184
H   1.0762486647 -1.2945917101 -0.9581384214
H   2.2952031868 -0.7290359954  0.3396923160
7
Iter 2  Energy = -29.6072679079
C   0.8774821562  0.7831189421 -0.1629660121
H   0.6911964113  1.5542741780 -0.9219766044
O   0.5295500624  0.9760233875  1.1236321423
C   1.3490880716 -0.5563016117 -0.1926242683
H   0.7825763475 -0.2432299208  1.0661736334
H   1.0760695005 -1.2947619180 -0.9579483309
H   2.2952790730 -0.7287564037  0.3396486962
7
Iter 3  Energy = -29.6072692639
C   0.8775128950  0.7831720720 -0.1629387691
H   0.6913220629  1.5543545221 -0.9219610878
O   0.5295038812  0.9760269783  1.1236556138
C   1.3491485963 -0.5562917815 -0.1926644209
H   0.7824931240 -0.2434607401  1.0660078850
H   1.0758854102 -1.2949255714 -0.9577451276
H   2.2953756532 -0.7285088265  0.3395851637
7
Iter 4  Energy = -29.6072706795
C   0.8775566129  0.7831693035 -0.1628922420
H   0.6914426037  1.5544523155 -0.9219549839
O   0.5294644906  0.9760005600  1.1236631420
C   1.3491962523 -0.5562312738 -0.1926961304
H   0.7824049312 -0.2436543953  1.0658557004
H   1.0757045101 -1.2950998938 -0.9575558251
H   2.2954722216 -0.7282699632  0.3395195958
7
Iter 5  Energy = -29.6072720951
C   0.8775722205  0.7832767336 -0.1629222637
H   0.6915723245  1.5545109385 -0.9219126502
O   0.5294253058  0.9759448215  1.1236956722
C   1.3492614846 -0.5562712177 -0.1927630631
H   0.7823091582 -0.2438150476  1.0657389406
H   1.0755377778 -1.2952468819 -0.9573529654
H   2.2955633512 -0.7280326930  0.3394555862
7
Iter 6  Energy = -29.6072734958
C   0.8776209642  0.7832449640 -0.1628777671
H   0.6916891302  1.5546168003 -0.9219056695
O   0.5293931540  0.9758781394  1.1236928597
C   1.3492977590 -0.5561897802 -0.1927969853
H   0.7822148202 -0.2439563121  1.0656129966
H   1.0753680261 -1.2954211477 -0.9571742138
H   2.2956577695 -0.7278060113  0.3393880340
7
Iter 7  Energy = -29.6072748667
C   0.8776369380  0.7833367877 -0.1629074344
H   0.6918156992  1.5546811812 -0.9218619826
O   0.5293565807  0.9758063898  1.1237156321
C   1.3493530287 -0.5562189918 -0.1928547227
H   0.7821213373 -0.2440937569  1.0655036120
H   1.0752099402 -1.2955651954 -0.9569770101
H   2.2957480994 -0.7275797612  0.3393211591
7
Iter 8  Energy = -29.6072762972
C   0.8776796110  0.7833157822 -0.1628765296
H   0.6919316172  1.5547841599 -0.9218472394
O   0.5293248228  0.9757281903  1.1237104073
C   1.3493851072 -0.5561513902 -0.1928861013
H   0.7820298034 -0.2442169743  1.0653864313
H   1.0750497322 -1.2957306131 -0.9567990376
H   2.2958409295 -0.7273625018  0.3392513236
7
Iter 9  Energy = -29.6072776085
C   0.8776961829  0.7833928060 -0.1629050723
H   0.6920551345  1.5548543059 -0.9218033575
O   0.5292890384  0.9756465088  1.1237261353
C   1.3494328833 -0.5561725639 -0.1929369731
H   0.7819391766 -0.2443366260  1.0652833668
H   1.0748992039 -1.2958716702 -0.9566067210
H   2.2959300038 -0.7271461074  0.3391818761
7
Iter 10  Energy = -29.6072789645
C   0.8777340512  0.7833790029 -0.1628850026
H   0.6921699567  1.5549555833 -0.9217828017
O   0.5292566435  0.9755606870  1.1237196380
C   1.3494623642 -0.5561165086 -0.1929668185
H   0.7818505432 -0.2444450523  1.0651744098
H   1.0747472867 -1.2960296150 -0.9564300978
H   2.2960207783 -0.7269374451  0.3391099271
7
Iter 11  Energy = -29.6072802013
C   0.8777509776  0.7834433180 -0.1629125678
H   0.6922906981  1.5550307261 -0.9217390167
O   0.5292206562  0.9754726184  1.1237300953
C   1.3495045872 -0.5561317312 -0.1930125177
H   0.7817629124 -0.2445503688  1.0650774062
H   1.0746034536 -1.2961678831 -0.9562423779
H   2.2961083390 -0.7267300277  0.3390382314
7
Iter 12  Energy = -29.6072814828
C   0.8777848289  0.7834345330 -0.1629011345
H   0.6924043413  1.5551308953 -0.9217139935
O   0.5291870487  0.9753819101  1.1237227716
C   1.3495322913 -0.5560852157 -0.1930413797
H   0.7816772395 -0.2446466694  1.0649761095
H   1.0744588006 -1.2963194404 -0.9560675704
H   2.2961970743 -0.7265293601  0.3389644502
7
Iter 13  Energy = -29.6072826749
C   0.8778017309  0.7834882899 -0.1629279275
H   0.6925226112  1.5552100893 -0.9216703308
O   0.5291502621  0.9752899327  1.1237290596
C   1.3495703394 -0.5560959613 -0.1930829511
H   0.7815926668 -0.2447403566  1.0648848734
H   1.0743209233 -1.2964550904 -0.9558842743
H   2.2962830912 -0.7263302514  0.3388908046
7
Iter 14  Energy = -29.6072838670
C   0.8778320791  0.7834832433 -0.1629233745
H   0.6926350622  1.5553093957 -0.9216417492
O   0.5291151014  0.9751963508  1.1237210643
C   1.3495967428 -0.5560572478 -0.1931110414
H   0.7815100118 -0.2448267221  1.0647905748
H   1.0741826791 -1.2966012700 -0.9557116868
H   2.2963699481 -0.7261370977  0.3388154678
7
Iter 15  Energy = -29.6072850889
C   0.8778486858  0.7835282460 -0.1629495019
H   0.6927511137  1.5553918572 -0.9215982408
O   0.5290771484  0.9751021328  1.1237239937
C   1.3496314879 -0.5560645241 -0.1931493064
H   0.7814285410 -0.2449108163  1.0647047537
H   1.0740501576 -1.2967345214 -0.9555326457
H   2.2964544899 -0.7259457220  0.3387402037
7
Iter 16  Energy = -29.6072862214
C   0.8778759129  0.7835259755 -0.1629504086
H   0.6928623800  1.5554904432 -0.9215668398
O   0.5290402658  0.9750070934  1.1237153884
C   1.3496568992 -0.5560322270 -0.1931767740
H   0.7813489212 -0.2449889246  1.0646168567
H   1.0739176270 -1.2968760563 -0.9553625379
H   2.2965396191 -0.7257596512  0.3386635713
7
Iter 17  Energy = -29.6072872943
C   0.8778919552  0.7835638287 -0.1629758901
H   0.6929764292  1.5555754522 -0.9215234632
O   0.5290009270  0.9749119467  1.1237154844
C   1.3496889210 -0.5560368928 -0.1932123916
H   0.7812705635 -0.2450651026  1.0645361106
H   1.0737899848 -1.2970070523 -0.9551875936
H   2.2966228451 -0.7255755280  0.3385870009
7
Iter 18  Energy = -29.6072884268
C   0.8779163535  0.7835637037 -0.1629810485
H   0.6930865316  1.5556733568 -0.9214898190
O   0.5289622652  0.9748164880  1.1237062236
C   1.3497134575 -0.5560098573 -0.1932392659
H   0.7811939941 -0.2451363374  1.0644540286
H   1.0736626127 -1.2971445472 -0.9550201611
H   2.2967064117 -0.7253961539  0.3385092994
7
Iter 19  Energy = -29.6072894549
C   0.8779316319  0.7835957277 -0.1630058922
H   0.6931987520  1.5557603267 -0.9214465752
O   0.5289214419  0.9747212769  1.1237038855
C   1.3497432773 -0.5560125422 -0.1932725792
H   0.7811187309 -0.2452058728  1.0643779868
H   1.0735394294 -1.2972734336 -0.9548492015
H   2.2967883630 -0.7252188297  0.3384316329
7
Iter 20  Energy = -29.6072904831
C   0.8779534589  0.7835972211 -0.1630143899
H   0.6933077086  1.5558575775 -0.9214111618
O   0.5288809799  0.9746261519  1.1236940036
C   1.3497670321 -0.5559898319 -0.1932988169
H   0.7810451928 -0.2452712946  1.0643011610
H   1.0734167328 -1.2974073679 -0.9546845948
H   2.2968705212 -0.7250458030  0.3383530560
7
Iter 21  Energy = -29.6072914964
C   0.8779678253  0.7836244829 -0.1630386074
H   0.6934182572  1.5559459754 -0.9213680544
O   0.5288386170  0.9745315432  1.1236895768
C   1.3497949345 -0.5559910548 -0.1933302318
H   0.7809729796 -0.2453352110  1.0642295038
H   1.0732976793 -1.2975341866 -0.9545174509
H   2.2969513337 -0.7248748955  0.3382745228
7
Iter 22  Energy = -29.6072924650
C   0.8779873247  0.7836271867 -0.1630497364
H   0.6935260790  1.5560425659 -0.9213312416
O   0.5287963749  0.9744372964  1.1236790801
C   1.3498179351 -0.5559719311 -0.1933558364
H   0.7809024311 -0.2453956766  1.0641574871
H   1.0731792633 -1.2976649007 -0.9543557433
H   2.2970322199 -0.7247078878  0.3381952505
7
Iter 23  Energy = -29.6072934485
C   0.8780006869  0.7836505788 -0.1630734744
H   0.6936350842  1.5561319489 -0.9212882551
O   0.5287524613  0.9743437221  1.1236729122
C   1.3498442236 -0.5559720598 -0.1933855047
H   0.7808332084 -0.2454547759  1.0640898863
H   1.0730640240 -1.2977897306 -0.9541923115
H   2.2971119388 -0.7245430307  0.3381160065
7
Iter 24  Energy = -29.6072943872
C   0.8780180347  0.7836541798 -0.1630865652
H   0.6937417932  1.5562278486 -0.9212503577
O   0.5287085113  0.9742507208  1.1236617559
C   1.3498665542 -0.5559558756 -0.1934104441
H   0.7807655795 -0.2455109535  1.0640222633
H   1.0729495467 -1.2979175243 -0.9540335496
H   2.2971916087 -0.7243817429  0.3380361555
7
Iter 25  Energy = -29.6072953111
C   0.8780303381  0.7836743646 -0.1631097734
H   0.6938493465  1.5563178802 -0.9212075329
O   0.5286630699  0.9741585349  1.1236540619
C   1.3498914692 -0.5559552337 -0.1934385873
H   0.7806992727 -0.2455658978  1.0639584337
H   1.0728378624 -1.2980403924 -0.9538736903
H   2.2972702693 -0.7242226037  0.3379563444
7
Iter 26  Energy = -29.6072962350
C   0.8780457312  0.7836785952 -0.1631244360
H   0.6939549641  1.5564130469 -0.9211688154
O   0.5286174620  0.9740670624  1.1236423459
C   1.3499131114 -0.5559414855 -0.1934628248
H   0.7806345106 -0.2456183762  1.0638947859
H   1.0727270249 -1.2981654434 -0.9537178531
H   2.2973488236 -0.7240667475  0.3378760539
7
Iter 27  Energy = -29.6072971439
C   0.8780569448  0.7836961467 -0.1631471575
H   0.6940611573  1.5565034108 -0.9211261603
O   0.5285705401  0.9739764863  1.1236333326
C   1.3499367422 -0.5559403047 -0.1934895790
H   0.7805710563 -0.2456697245  1.0638344093
H   1.0726186671 -1.2982863405 -0.9535614120
H   2.2974265199 -0.7239130224  0.3377958242
7
Iter 28  Energy = -29.6072979784
C   0.8780705298  0.7837008002 -0.1631629361
H   0.6941656887  1.5565978271 -0.9210868371
O   0.5285233770  0.9738867033  1.1236210069
C   1.3499577045 -0.5559286066 -0.1935131182
H   0.7805090711 -0.2457189201  1.0637744148
H   1.0725112148 -1.2984088170 -0.9534084905
H   2.2975040420 -0.7237623355  0.3377152171
7
Iter 29  Energy = -29.6072988129
C   0.8780806395  0.7837161790 -0.1631852023
H   0.6942705916  1.5566882681 -0.9210443820
O   0.5284750319  0.9737978775  1.1236108675
C   1.3499802206 -0.5559270836 -0.1935385787
H   0.7804483819 -0.2457670909  1.0637172320
H   1.0724059799 -1.2985277547 -0.9532553441
H   2.2975807831 -0.7236137439  0.3376346626
7
Iter 30  Energy = -29.6072996324
C   0.8780925687  0.7837211195 -0.1632018443
H   0.6943740572  1.5567818806 -0.9210046318
O   0.5284263818  0.9737099456  1.1235980156
C   1.3500005422 -0.5559171054 -0.1935613894
H   0.7803890947 -0.2458134286  1.0636605964
H   1.0723016878 -1.2986477933 -0.9531053069
H   2.2976572958 -0.7234679679  0.3375538157
7
Iter 31  Energy = -29.6073005265
C   0.8781015928  0.7837346689 -0.1632236519
H   0.6944777212  1.5568721981 -0.9209623972
O   0.5283766927  0.9736229784  1.1235868611
C   1.3500220903 -0.5559153531 -0.1935856525
H   0.7803310673 -0.2458588075  1.0636064246
H   1.0721993896 -1.2987647944 -0.9529553473
H   2.2977330741 -0.7233242402  0.3374730184
7
Iter 32  Energy = -29.6073013163
C   0.8781119732  0.7837397693 -0.1632408164
H   0.6945801298  1.5569649867 -0.9209224106
O   0.5283266756  0.9735369630  1.1235734479
C   1.3500417560 -0.5559068024 -0.1936076632
H   0.7802744078 -0.2459026473  1.0635528054
H   1.0720980522 -1.2988824775 -0.9528081291
H   2.2978086334 -0.7231831421  0.3373920219
7
Iter 33  Energy = -29.6073020166
C   0.8781199124  0.7837518696 -0.1632621974
H   0.6946826069  1.5570549868 -0.9208804212
O   0.5282757167  0.9734519605  1.1235614221
C   1.3500623583 -0.5559050102 -0.1936308056
H   0.7802189729 -0.2459456135  1.0635013818
H   1.0719985376 -1.2989975085 -0.9526612170
H   2.2978835229 -0.7230440344  0.3373110926
7
Iter 34  Energy = -29.6073028213
C   0.8781288779  0.7837570610 -0.1632797949
H   0.6947839691  1.5571469009 -0.9208402971
O   0.5282244109  0.9733678943  1.1235475636
C   1.3500814066 -0.5558977118 -0.1936520646
H   0.7801648292 -0.2459871763  1.0634506105
H   1.0718999885 -1.2991129345 -0.9525167884
H   2.2979581456 -0.7229073841  0.3372300260
7
Iter 35  Energy = -29.6073035812
C   0.8781357766  0.7837678686 -0.1633007177
H   0.6948853000  1.5572364402 -0.9207985866
O   0.5281722877  0.9732848148  1.1235347277
C   1.3501011359 -0.5558958298 -0.1936741668
H   0.7801118633 -0.2460279270  1.0634018029
H   1.0718030944 -1.2992260436 -0.9523728547
H   2.2980321695 -0.7227726732  0.3371490492
7
Iter 36  Energy = -29.6073043263
C   0.8781434313  0.7837730473 -0.1633185653
H   0.6949856285  1.5573274405 -0.9207584255
O   0.5281198095  0.9732026539  1.1235204041
C   1.3501196132 -0.5558895714 -0.1936946717
H   0.7800601232 -0.2460673866  1.0633537052
H   1.0717071720 -1.2993392760 -0.9522311602
H   2.2981058499 -0.7226402573  0.3370679657
7
Iter 37  Energy = -29.6073050863
C   0.8781493304  0.7837827925 -0.1633390925
H   0.6950858314  1.5574164274 -0.9207170359
O   0.5280665930  0.9731214645  1.1235069272
C   1.3501385756 -0.5558877918 -0.1937158063
H   0.7800095234 -0.2461060825  1.0633073401
H   1.0716127731 -1.2994504324 -0.9520900829
H   2.2981790000 -0.7225097275  0.3369870021
7
Iter 38  Energy = -29.6073057717
C   0.8781557775  0.7837879107 -0.1633570960
H   0.6951851377  1.5575064705 -0.9206769324
O   0.5280130284  0.9730411903  1.1234922018
C   1.3501564237 -0.5558823797 -0.1937355739
H   0.7799600944 -0.2461436412  1.0632617147
H   1.0715193236 -1.2995615300 -0.9519510682
H   2.2982518420 -0.7223813709  0.3369060066
7
Iter 39  Energy = -29.6073064125
C   0.8781607251  0.7837967046 -0.1633771996
H   0.6952842527  1.5575947713 -0.9206358769
O   0.5279587966  0.9729619222  1.1234781342
C   1.3501746671 -0.5558806598 -0.1937557786
H   0.7799117771 -0.2461805226  1.0632176162
H   1.0714272817 -1.2996707483 -0.9518127541
H   2.2983241275 -0.7222548179  0.3368251117
7
Iter 40  Energy = -29.6073071575
C   0.8781660484  0.7838017218 -0.1633951898
H   0.6953825455  1.5576838351 -0.9205959254
O   0.5279042261  0.9728835690  1.1234630329
C   1.3501919625 -0.5558760403 -0.1937748279
H   0.7798645761 -0.2462163888  1.0631742631
H   1.0713361792 -1.2997797376 -0.9516763228
H   2.2983960898 -0.7221303101  0.3367442245
7
Iter 41  Energy = -29.6073077983
C   0.8781700901  0.7838097187 -0.1634149042
H   0.6954805931  1.5577713615 -0.9205552250
O   0.5278490643  0.9728061672  1.1234484688
C   1.3502095498 -0.5558744237 -0.1937941536
H   0.7798184318 -0.2462515783  1.0631323142
H   1.0712463784 -1.2998870445 -0.9515407011
H   2.2984675196 -0.7220075508  0.3366634558
7
Iter 42  Energy = -29.6073084688
C   0.8781743797  0.7838145997 -0.1634328541
H   0.6955778773  1.5578594097 -0.9205154665
O   0.5277935843  0.9727296520  1.1234330347
C   1.3502263289 -0.5558704687 -0.1938124776
H   0.7797733572 -0.2462858377  1.0630911033
H   1.0711574974 -1.2999939845 -0.9514068186
H   2.2985386030 -0.7218867216  0.3365827332
7
Iter 43  Energy = -29.6073090798
C   0.8781775568  0.7838219026 -0.1634522015
H   0.6956748788  1.5579460824 -0.9204751377
O   0.5277375781  0.9726540575  1.1234180373
C   1.3502433023 -0.5558689850 -0.1938309593
H   0.7797292939 -0.2463194635  1.0630511591
H   1.0710698222 -1.3000993657 -0.9512737940
H   2.2986091957 -0.7217675798  0.3365021517
7
Iter 44  Energy = -29.6073097205
C   0.8781808767  0.7838266474 -0.1634700399
H   0.6957711671  1.5580330815 -0.9204356352
O   0.5276812708  0.9725793441  1.1234023083
C   1.3502595548 -0.5558655947 -0.1938485783
H   0.7796862488 -0.2463522562  1.0630119414
H   1.0709830409 -1.3002042988 -0.9511424005
H   2.2986794679 -0.7216502737  0.3364216616
7
Iter 45  Energy = -29.6073103464
C   0.8781832331  0.7838333572 -0.1634889821
H   0.6958671352  1.5581188520 -0.9203957119
O   0.5276244980  0.9725055061  1.1233869228
C   1.3502759204 -0.5558642494 -0.1938662847
H   0.7796441692 -0.2463844239  1.0629738911
H   1.0708973916 -1.3003077958 -0.9510119086
H   2.2987492795 -0.7215345963  0.3363413307
7
Iter 46  Energy = -29.6073109871
C   0.8781856684  0.7838379169 -0.1635066827
H   0.6959624331  1.5582047896 -0.9203565076
O   0.5275674485  0.9724324997  1.1233709418
C   1.3502917017 -0.5558613456 -0.1938832072
H   0.7796030560 -0.2464158023  1.0629365644
H   1.0708126140 -1.3004107591 -0.9508829438
H   2.2988187055 -0.7214206499  0.3362610927
7
Iter 47  Energy = -29.6073115832
C   0.8781872583  0.7838440927 -0.1635252641
H   0.6960573828  1.5582896073 -0.9203170028
O   0.5275099818  0.9723603663  1.1233552372
C   1.3503075366 -0.5558601472 -0.1939001262
H   0.7795628808 -0.2464466228  1.0629002834
H   1.0707288962 -1.3005123736 -0.9507549019
H   2.2988876910 -0.7213082722  0.3361810318
7
Iter 48  Energy = -29.6073121941
C   0.8781888755  0.7838484848 -0.1635427696
H   0.6961516932  1.5583744565 -0.9202781352
O   0.5274522542  0.9722890770  1.1233390243
C   1.3503228503 -0.5558577031 -0.1939163849
H   0.7795236276 -0.2464767465  1.0628647114
H   1.0706460265 -1.3006133826 -0.9506282888
H   2.2989563007 -0.7211975351  0.3361010987
7
Iter 49  Energy = -29.6073127455
C   0.8781897632  0.7838541641 -0.1635609642
H   0.6962456292  1.5584582903 -0.9202390713
O   0.5273941601  0.9722186376  1.1233230343
C   1.3503382214 -0.5558566607 -0.1939325872
H   0.7794852580 -0.2465063379  1.0628301365
H   1.0705641465 -1.3007131425 -0.9505026351
H   2.2990244495 -0.7210882998  0.3360213437
7
Iter 50  Energy = -29.6073132968
C   0.8781906203  0.7838583764 -0.1635782661
H   0.6963389605  1.5585420326 -0.9202005674
O   0.5273358344  0.9721489835  1.1233066298
C   1.3503530688 -0.5558545909 -0.1939481807
H   0.7794477759 -0.2465352643  1.0627962125
H   1.0704830905 -1.3008122416 -0.9503783311
H   2.2990922770 -0.7209806436  0.3359417607
7
Iter 51  Energy = -29.6073138779
C   0.8781908372  0.7838636376 -0.1635960981
H   0.6964318962  1.5586248428 -0.9201619542
O   0.5272771867  0.9720801351  1.1232904084
C   1.3503679375 -0.5558537063 -0.1939637209
H   0.7794111296 -0.2465636591  1.0627632332
H   1.0704029810 -1.3009101614 -0.9502549865
H   2.2991596594 -0.7208744367  0.3358623749
7
Iter 52  Energy = -29.6073144591
C   0.8781909961  0.7838676569 -0.1636131804
H   0.6965242520  1.5587074783 -0.9201238594
O   0.5272183291  0.9720120666  1.1232738615
C   1.3503824068 -0.5558519712 -0.1939786936
H   0.7793753220 -0.2465914592  1.0627309097
H   1.0703236576 -1.3010073946 -0.9501329371
H   2.2992266637 -0.7207697246  0.3357831571
7
Iter 53  Energy = -29.6073149657
C   0.8781905889  0.7838725476 -0.1636306323
H   0.6966162003  1.5587892370 -0.9200857162
O   0.5271591973  0.9719447780  1.1232574307
C   1.3503968215 -0.5558512417 -0.1939935809
H   0.7793403265 -0.2466187804  1.0626994208
H   1.0702452337 -1.3011034865 -0.9500118236
H   2.2992932586 -0.7206664005  0.3357041587
7
Iter 54  Energy = -29.6073155022
C   0.8781900996  0.7838764024 -0.1636474394
H   0.6967075854  1.5588707515 -0.9200480496
O   0.5270998825  0.9718782298  1.1232407299
C   1.3504108531 -0.5558498234 -0.1940079520
H   0.7793061317 -0.2466455343  1.0626685585
H   1.0701675737 -1.3011988633 -0.9498919494
H   2.2993595009 -0.7205645087  0.3356253594
7
Iter 55  Energy = -29.6073160237
C   0.8781891079  0.7838809562 -0.1636645567
H   0.6967985546  1.5589514340 -0.9200103931
O   0.5270403282  0.9718124457  1.1232241521
C   1.3504248554 -0.5558492165 -0.1940221872
H   0.7792727027 -0.2466718387  1.0626385017
H   1.0700907552 -1.3012931715 -0.9497730410
H   2.2994253230 -0.7204639553  0.3355467826
7
Iter 56  Energy = -29.6073165005
C   0.8781880193  0.7838846587 -0.1636811624
H   0.6968889772  1.5590317997 -0.9199731405
O   0.5269806216  0.9717473084  1.1232073548
C   1.3504385484 -0.5558480786 -0.1940360255
H   0.7792400022 -0.2466975122  1.0626091427
H   1.0700146833 -1.3013867507 -0.9496553337
H   2.2994907752 -0.7203647708  0.3354684246
7
Iter 57  Energy = -29.6073170221
C   0.8781865145  0.7838888344 -0.1636979498
H   0.6969789664  1.5591114070 -0.9199359627
O   0.5269207114  0.9716829033  1.1231906520
C   1.3504521242 -0.5558475571 -0.1940497238
H   0.7792080362 -0.2467227395  1.0625805062
H   1.0699394205 -1.3014793103 -0.9495385784
H   2.2995558536 -0.7202668820  0.3353903155
7
Iter 58  Energy = -29.6073175138
C   0.8781848787  0.7838923300 -0.1637142494
H   0.6970684241  1.5591906544 -0.9198991843
O   0.5268606747  0.9716191904  1.1231737448
C   1.3504654692 -0.5558466362 -0.1940630157
H   0.7791767829 -0.2467474763  1.0625525103
H   1.0698648728 -1.3015711179 -0.9494229647
H   2.2996205238 -0.7201702891  0.3353124179
7
Iter 59  Energy = -29.6073180503
C   0.8781828568  0.7838962387 -0.1637306886
H   0.6971574499  1.5592691492 -0.9198624893
O   0.5268004639  0.9715562271  1.1231569025
C   1.3504787211 -0.5558462384 -0.1940761041
H   0.7791462452 -0.2467718512  1.0625251674
H   1.0697910847 -1.3016619366 -0.9493082973
H   2.2996848046 -0.7200749337  0.3352347675
7
Iter 60  Energy = -29.6073184824
C   0.8781807129  0.7838995736 -0.1637467106
H   0.6972459550  1.5593472446 -0.9198261720
O   0.5267401348  0.9714939408  1.1231399261
C   1.3504916858 -0.5558455290 -0.1940888553
H   0.7791163872 -0.2467957542  1.0624984162
H   1.0697179990 -1.3017519856 -0.9491947145
H   2.2997487513 -0.7199808353  0.3351573682
7
Iter 61  Energy = -29.6073189592
C   0.8781782121  0.7839032598 -0.1637628103
H   0.6973340180  1.5594246381 -0.9197899867
O   0.5266796802  0.9714323193  1.1231229942
C   1.3505045681 -0.5558452719 -0.1941014127
H   0.7790871954 -0.2468192632  1.0624723187
H   1.0696456428 -1.3018410933 -0.9490820761
H   2.2998123089 -0.7198879329  0.3350802290
7
Iter 62  Energy = -29.6073194361
C   0.8781755976  0.7839064188 -0.1637785266
H   0.6974215652  1.5595016174 -0.9197541662
O   0.5266191308  0.9713713695  1.1231059508
C   1.3505172144 -0.5558447480 -0.1941136244
H   0.7790586611 -0.2468423526  1.0624467673
H   1.0695739627 -1.3019294227 -0.9489704789
H   2.2998754937 -0.7197962263  0.3350033361
7
Iter 63  Energy = -29.6073198384
C   0.8781726805  0.7839098563 -0.1637943295
H   0.6975086746  1.5595778929 -0.9197184876
O   0.5265584658  0.9713110737  1.1230889899
C   1.3505297395 -0.5558446156 -0.1941256852
H   0.7790307583 -0.2468650621  1.0624218500
H   1.0695029883 -1.3020168193 -0.9488598005
H   2.2999383178 -0.7197056695  0.3349267217
7
Iter 64  Energy = -29.6073203749
C   0.8781696450  0.7839128499 -0.1638097876
H   0.6975952765  1.5596537229 -0.9196831382
O   0.5264977324  0.9712514244  1.1230719276
C   1.3505420399 -0.5558442436 -0.1941374201
H   0.7790034760 -0.2468873621  1.0623974593
H   1.0694326629 -1.3021034692 -0.9487501567
H   2.3000007924 -0.7196162661  0.3348503758
7
Iter 65  Energy = -29.6073207921
C   0.8781663212  0.7839160785 -0.1638252467
H   0.6976814320  1.5597288890 -0.9196479637
O   0.5264369301  0.9711923984  1.1230548944
C   1.3505542739 -0.5558441988 -0.1941489114
H   0.7789767987 -0.2469093197  1.0623736320
H   1.0693630068 -1.3021892287 -0.9486414274
H   2.3000628624 -0.7195279633  0.3347742823
7
Iter 66  Energy = -29.6073212391
C   0.8781628858  0.7839188946 -0.1638403698
H   0.6977670860  1.5598036053 -0.9196131241
O   0.5263760812  0.9711339793  1.1230377807
C   1.3505662987 -0.5558439538 -0.1941601460
H   0.7789507010 -0.2469308640  1.0623503343
H   1.0692939784 -1.3022742355 -0.9485336906
H   2.3001245938 -0.7194407705  0.3346984749
7
Iter 67  Energy = -29.6073216564
C   0.8781591918  0.7839219240 -0.1638554971
H   0.6978522949  1.5598776591 -0.9195784545
O   0.5263151719  0.9710761854  1.1230207229
C   1.3505782240 -0.5558440349 -0.1941711883
H   0.7789251855 -0.2469520764  1.0623275640
H   1.0692256016 -1.3023583603 -0.9484268376
H   2.3001859559 -0.7193546409  0.3346229508
7
Iter 68  Energy = -29.6073221481
C   0.8781553889  0.7839246244 -0.1638703542
H   0.6979370124  1.5599512453 -0.9195441175
O   0.5262542322  0.9710189872  1.1230036349
C   1.3505899388 -0.5558439565 -0.1941819450
H   0.7789002358 -0.2469729361  1.0623052716
H   1.0691578336 -1.3024417309 -0.9483209444
H   2.3002469834 -0.7192695768  0.3345477145
7
Iter 69  Energy = -29.6073224461
C   0.8781513614  0.7839274631 -0.1638852002
H   0.6980212818  1.5600241948 -0.9195099674
O   0.5261932563  0.9709623820  1.1229866015
C   1.3506015500 -0.5558441161 -0.1941925408
H   0.7788758286 -0.2469934672  1.0622835212
H   1.0690906868 -1.3025242582 -0.9482159373
H   2.3003076605 -0.7191855428  0.3344727820
7
Iter 70  Energy = -29.6073228931
C   0.8781472134  0.7839300302 -0.1638997541
H   0.6981050673  1.5600966562 -0.9194761279
O   0.5261322841  0.9709063418  1.1229695016
C   1.3506130150 -0.5558441437 -0.1942028352
H   0.7788519544 -0.2470136496  1.0622622239
H   1.0690241286 -1.3026060515 -0.9481118691
H   2.3003679629 -0.7191025287  0.3343981194
7
Iter 71  Energy = -29.6073232955
C   0.8781428655  0.7839327218 -0.1639142771
H   0.6981884029  1.5601684911 -0.9194424790
O   0.5260712928  0.9708508815  1.1229524620
C   1.3506243906 -0.5558444240 -0.1942129963
H   0.7788285931 -0.2470335085  1.0622414480
H   1.0689581764 -1.3026870060 -0.9480086550
H   2.3004279046 -0.7190205008  0.3343237582
7
Iter 72  Energy = -29.6073236978
C   0.8781384190  0.7839351169 -0.1639285374
H   0.6982712627  1.5602398351 -0.9194091405
O   0.5260103222  0.9707959633  1.1229353824
C   1.3506355555 -0.5558445239 -0.1942228801
H   0.7788057407 -0.2470530400  1.0622210929
H   1.0688927913 -1.3027672315 -0.9479063577
H   2.3004875349 -0.7189394640  0.3342497020
7
Iter 73  Energy = -29.6073241150
C   0.8781337884  0.7839376661 -0.1639427828
H   0.6983536684  1.5603105750 -0.9193760078
O   0.5259493517  0.9707416072  1.1229183836
C   1.3506466491 -0.5558448752 -0.1942325871
H   0.7787833806 -0.2470722884  1.0622012102
H   1.0688279835 -1.3028466540 -0.9478049042
H   2.3005468048 -0.7188593747  0.3341759485
7
Iter 74  Energy = -29.6073244727
C   0.8781290722  0.7839399174 -0.1639567788
H   0.6984355991  1.5603808218 -0.9193431682
O   0.5258884119  0.9706877831  1.1229013629
C   1.3506576004 -0.5558450708 -0.1942420463
H   0.7787614991 -0.2470911957  1.0621817532
H   1.0687637310 -1.3029253603 -0.9477043457
H   2.3006057131 -0.7187802396  0.3341024833
7
Iter 75  Energy = -29.6073248452
C   0.8781241723  0.7839423008 -0.1639707103
H   0.6985170827  1.5604504648 -0.9193105354
O   0.5258274964  0.9706345108  1.1228843912
C   1.3506684646 -0.5558455057 -0.1942513690
H   0.7787400857 -0.2471098292  1.0621627507
H   1.0687000460 -1.3030032632 -0.9476045988
H   2.3006642789 -0.7187020226  0.3340293324
7
Iter 76  Energy = -29.6073252177
C   0.8781191844  0.7839444676 -0.1639843957
H   0.6985980916  1.5605196226 -0.9192782037
O   0.5257666315  0.9705817643  1.1228674019
C   1.3506791384 -0.5558458216 -0.1942604452
H   0.7787191378 -0.2471281818  1.0621441222
H   1.0686368939 -1.3030804668 -0.9475057226
H   2.3007225496 -0.7186247295  0.3339565054
7
Iter 77  Energy = -29.6073255903
C   0.8781140498  0.7839467087 -0.1639980427
H   0.6986786513  1.5605881925 -0.9192460795
O   0.5257058045  0.9705295400  1.1228504789
C   1.3506897311 -0.5558462955 -0.1942693391
H   0.7786986364 -0.2471462661  1.0621259172
H   1.0685742826 -1.3031568986 -0.9474076579
H   2.3007804714 -0.7185483256  0.3338839856
7
Iter 78  Energy = -29.6073259479
C   0.8781088435  0.7839487502 -0.1640114779
H   0.6987587454  1.5606562607 -0.9192142366
O   0.5256450459  0.9704777986  1.1228335506
C   1.3507001998 -0.5558466720 -0.1942780159
H   0.7786785664 -0.2471640478  1.0621081178
H   1.0685121900 -1.3032326401 -0.9473104485
H   2.3008380365 -0.7184727942  0.3338117725
7
Iter 79  Energy = -29.6073263353
C   0.8781034871  0.7839508578 -0.1640248225
H   0.6988383957  1.5607237473 -0.9191826112
O   0.5255843498  0.9704265753  1.1228166638
C   1.3507105545 -0.5558472014 -0.1942865517
H   0.7786589203 -0.2471815844  1.0620907111
H   1.0684506275 -1.3033076079 -0.9472140138
H   2.3008952926 -0.7183981303  0.3337398865
7
Iter 80  Energy = -29.6073266333
C   0.8780980685  0.7839527684 -0.1640379733
H   0.6989175764  1.5607907571 -0.9191512738
O   0.5255237272  0.9703758372  1.1227998083
C   1.3507207925 -0.5558476496 -0.1942948739
H   0.7786396835 -0.2471988326  1.0620736773
H   1.0683895677 -1.3033819044 -0.9471184175
H   2.3009522121 -0.7183243175  0.3336683159
7
Iter 81  Energy = -29.6073269910
C   0.8780925114  0.7839547755 -0.1640510660
H   0.6989963222  1.5608571724 -0.9191201461
O   0.5254631789  0.9703255767  1.1227830224
C   1.3507309536 -0.5558482609 -0.1943030600
H   0.7786208432 -0.2472158171  1.0620570424
H   1.0683290225 -1.3034554541 -0.9470235948
H   2.3010087964 -0.7182513339  0.3335970632
7
Iter 82  Energy = -29.6073272890
C   0.8780868945  0.7839566033 -0.1640639559
H   0.6990745999  1.5609231178 -0.9190892993
O   0.5254027278  0.9702757871  1.1227662350
C   1.3507409911 -0.5558487763 -0.1943110122
H   0.7786024001 -0.2472325517  1.0620407548
H   1.0682689611 -1.3035283482 -0.9469295922
H   2.3010650547 -0.7181791730  0.3335261316
7
Iter 83  Energy = -29.6073275870
C   0.8780811660  0.7839584961 -0.1640767859
H   0.6991524400  1.5609884877 -0.9190586663
O   0.5253423535  0.9702264879  1.1227495427
C   1.3507509337 -0.5558494181 -0.1943188283
H   0.7785843412 -0.2472490517  1.0620248219
H   1.0682093974 -1.3036005275 -0.9468363492
H   2.3011209974 -0.7181078153  0.3334555270
7
Iter 84  Energy = -29.6073280042
C   0.8780753884  0.7839601940 -0.1640893880
H   0.6992298172  1.5610533893 -0.9190283151
O   0.5252820902  0.9701776384  1.1227328441
C   1.3507607498 -0.5558499979 -0.1943264914
H   0.7785666470 -0.2472652836  1.0620092438
H   1.0681503176 -1.3036720281 -0.9467438804
H   2.3011766191 -0.7180372535  0.3333852490
7
Iter 85  Energy = -29.6073282576
C   0.8780695045  0.7839619679 -0.1641019441
H   0.6993067564  1.5611177352 -0.9189981802
O   0.5252219283  0.9701292419  1.1227162319
C   1.3507705096 -0.5558507203 -0.1943340082
H   0.7785493127 -0.2472812832  1.0619940331
H   1.0680917259 -1.3037428225 -0.9466521569
H   2.3012318923 -0.7179674607  0.3333152870
7
Iter 86  Energy = -29.6073286450
C   0.8780635600  0.7839635992 -0.1641143124
H   0.6993832503  1.5611815810 -0.9189683070
O   0.5251618846  0.9700812970  1.1226996430
C   1.3507801512 -0.5558513430 -0.1943413039
H   0.7785323411 -0.2472970507  1.0619791132
H   1.0680335855 -1.3038129886 -0.9465612238
H   2.3012868572 -0.7178984354  0.3332456533
7
Iter 87  Energy = -29.6073289430
C   0.8780575315  0.7839652400 -0.1641265777
H   0.6994592972  1.5612449077 -0.9189386559
O   0.5251019608  0.9700337986  1.1226830924
C   1.3507897124 -0.5558520805 -0.1943484813
H   0.7785157113 -0.2473125978  1.0619645446
H   1.0679759219 -1.3038824508 -0.9464710061
H   2.3013414955 -0.7178301587  0.3331763478
7
Iter 88  Energy = -29.6073292559
C   0.8780514469  0.7839667839 -0.1641386823
H   0.6995348980  1.5613077437 -0.9189092655
O   0.5250421618  0.9699867374  1.1226665898
C   1.3507991772 -0.5558527726 -0.1943554850
H   0.7784994184 -0.2473279222  1.0619502832
H   1.0679187100 -1.3039512812 -0.9463815435
H   2.3013958186 -0.7177626299  0.3331073673
7
Iter 89  Energy = -29.6073295838
C   0.8780452917  0.7839683332 -0.1641507227
H   0.6996100620  1.5613700469 -0.9188800859
O   0.5249824893  0.9699401112  1.1226501572
C   1.3508085500 -0.5558535281 -0.1943623486
H   0.7784834530 -0.2473430373  1.0619363398
H   1.0678619557 -1.3040194343 -0.9462927948
H   2.3014498296 -0.7176958316  0.3330387181
7
Iter 90  Energy = -29.6073298818
C   0.8780390867  0.7839697748 -0.1641626047
H   0.6996847803  1.5614318745 -0.9188511655
O   0.5249229679  0.9698938482  1.1226337567
C   1.3508178214 -0.5558542471 -0.1943690831
H   0.7784677865 -0.2473578709  1.0619227382
H   1.0678056479 -1.3040869581 -0.9462047862
H   2.3015035411 -0.7176297620  0.3329704078
7
Iter 91  Energy = -29.6073301053
C   0.8780328203  0.7839712074 -0.1641743602
H   0.6997590661  1.5614931820 -0.9188224727
O   0.5248635752  0.9698480335  1.1226174259
C   1.3508270411 -0.5558550203 -0.1943756742
H   0.7784524388 -0.2473725137  1.0619094205
H   1.0677497825 -1.3041538424 -0.9461174868
H   2.3015569077 -0.7175643884  0.3329024106
7
Iter 92  Energy = -29.6073304778
C   0.8780265207  0.7839725480 -0.1641860063
H   0.6998329115  1.5615540033 -0.9187940126
O   0.5248043311  0.9698026057  1.1226011459
C   1.3508361186 -0.5558557483 -0.1943821270
H   0.7784373939 -0.2473869249  1.0618964032
H   1.0676943506 -1.3042201043 -0.9460309081
H   2.3016100055 -0.7174997200  0.3328347677
7
Iter 93  Energy = -29.6073307312
C   0.8780201787  0.7839738370 -0.1641975897
H   0.6999063212  1.5616143275 -0.9187657671
O   0.5247452422  0.9697575081  1.1225849523
C   1.3508451608 -0.5558565173 -0.1943884835
H   0.7784226128 -0.2474010282  1.0618837356
H   1.0676393583 -1.3042857329 -0.9459450278
H   2.3016627579 -0.7174357356  0.3327674419
7
Iter 94  Energy = -29.6073310143
C   0.8780137745  0.7839751497 -0.1642090484
H   0.6999793032  1.5616741399 -0.9187377310
O   0.5246863081  0.9697128123  1.1225687920
C   1.3508540999 -0.5558573336 -0.1943947142
H   0.7784081264 -0.2474149500  1.0618713255
H   1.0675847877 -1.3043507334 -0.9458598228
H   2.3017152320 -0.7173724271  0.3327004598
7
Iter 95  Energy = -29.6073312974
C   0.8780073283  0.7839763924 -0.1642203319
H   0.7000518530  1.5617334860 -0.9187099566
O   0.5246275260  0.9696685136  1.1225526969
C   1.3508629556 -0.5558581236 -0.1944007949
H   0.7783939254 -0.2474286726  1.0618591502
H   1.0675306287 -1.3044151468 -0.9457753079
H   2.3017674150 -0.7173097909  0.3326338048
7
Iter 96  Energy = -29.6073315954
C   0.8780008116  0.7839776745 -0.1642314937
H   0.7001239788  1.5617923237 -0.9186823777
O   0.5245689173  0.9696245857  1.1225366278
C   1.3508717562 -0.5558589561 -0.1944067197
H   0.7783799968 -0.2474421955  1.0618472193
H   1.0674768770 -1.3044789642 -0.9456914685
H   2.3018192947 -0.7172478102  0.3325674736
7
Iter 97  Energy = -29.6073318487
C   0.8779942717  0.7839789033 -0.1642425414
H   0.7001956756  1.5618506877 -0.9186550347
O   0.5245104661  0.9695810399  1.1225206410
C   1.3508804858 -0.5558597808 -0.1944124982
H   0.7783663411 -0.2474555244  1.0618355332
H   1.0674235295 -1.3045421963 -0.9456083054
H   2.3018708623 -0.7171864712  0.3325014676
7
Iter 98  Energy = -29.6073321319
C   0.8779877046  0.7839800915 -0.1642534743
H   0.7002669449  1.5619085829 -0.9186279224
O   0.5244521832  0.9695378435  1.1225047247
C   1.3508891455 -0.5558606246 -0.1944181867
H   0.7783529257 -0.2474686307  1.0618241204
H   1.0673705849 -1.3046048371 -0.9455257948
H   2.3019221433 -0.7171257683  0.3324357936
7
Iter 99  Energy = -29.6073323703
C   0.8779811062  0.7839812394 -0.1642642905
H   0.7003377883  1.5619660105 -0.9186010281
O   0.5243940637  0.9694950272  1.1224888669
C   1.3508977515 -0.5558614654 -0.1944237385
H   0.7783397660 -0.2474815598  1.0618129416
H   1.0673180302 -1.3046668973 -0.9454439340
H   2.3019731263 -0.7170656982  0.3323704431
7
Iter 100  Energy = -29.6073326236
C   0.8779744776  0.7839823540 -0.1642749706
H   0.7004082055  1.5620229838 -0.9185743648
O   0.5243361183  0.9694525806  1.1224730822
C   1.3509062710 -0.5558623176 -0.1944291647
H   0.7783268616 -0.2474943080  1.0618019655
H   1.0672658720 -1.3047283860 -0.9453627109
H   2.3020238256 -0.7170062501  0.3323054253
7
Iter 101  Energy = -29.6073328918
C   0.8779678207  0.7839834595 -0.1642855535
H   0.7004781998  1.5620795011 -0.9185479270
O   0.5242783507  0.9694104910  1.1224573624
C   1.3509147445 -0.5558631850 -0.1944344526
H   0.7783141973 -0.2475068990  1.0617912277
H   1.0672140934 -1.3047893017 -0.9452821254
H   2.3020742247 -0.7169474105  0.3322407295
7
Iter 102  Energy = -29.6073331153
C   0.8779611435  0.7839845379 -0.1642960389
H   0.7005477787  1.5621355428 -0.9185216927
O   0.5242207533  0.9693687796  1.1224417237
C   1.3509231223 -0.5558640381 -0.1944396331
H   0.7783017741 -0.2475193289  1.0617807004
H   1.0671626941 -1.3048496638 -0.9452021764
H   2.3021243648 -0.7168891738  0.3321763777
7
Iter 103  Energy = -29.6073333836
C   0.8779544341  0.7839856207 -0.1643064003
H   0.7006169415  1.5621911207 -0.9184956683
O   0.5241633426  0.9693274355  1.1224261251
C   1.3509314155 -0.5558649069 -0.1944446933
H   0.7782895864 -0.2475316243  1.0617703723
H   1.0671116744 -1.3049094553 -0.9451228309
H   2.3021742363 -0.7168315340  0.3321123560
7
Iter 104  Energy = -29.6073336369
C   0.8779477078  0.7839866431 -0.1643166262
H   0.7006856848  1.5622462646 -0.9184698713
O   0.5241061233  0.9692864190  1.1224105886
C   1.3509396984 -0.5558657685 -0.1944496608
H   0.7782776059 -0.2475437208  1.0617602882
H   1.0670610291 -1.3049687050 -0.9450441012
H   2.3022237818 -0.7167744772  0.3320486433
7
Iter 105  Energy = -29.6073338753
C   0.8779409722  0.7839876644 -0.1643267816
H   0.7007540159  1.5623009455 -0.9184442764
O   0.5240490752  0.9692457563  1.1223951605
C   1.3509478971 -0.5558666497 -0.1944545492
H   0.7782658406 -0.2475556551  1.0617504018
H   1.0670107538 -1.3050274034 -0.9449659637
H   2.3022730765 -0.7167180033  0.3319852698
7
Iter 106  Energy = -29.6073341286
C   0.8779342160  0.7839886502 -0.1643367924
H   0.7008219348  1.5623551895 -0.9184189032
O   0.5239922299  0.9692054242  1.1223797757
C   1.3509560610 -0.5558674800 -0.1944593122
H   0.7782542820 -0.2475674338  1.0617407260
H   1.0669608287 -1.3050856004 -0.9448884528
H   2.3023220785 -0.7166620948  0.3319222195
7
Iter 107  Energy = -29.6073343819
C   0.8779274475  0.7839896185 -0.1643467073
H   0.7008894478  1.5624089795 -0.9183937346
O   0.5239355753  0.9691654384  1.1223644621
C   1.3509641813 -0.5558683108 -0.1944639868
H   0.7782429291 -0.2475790761  1.0617312607
H   1.0669112703 -1.3051432474 -0.9448115159
H   2.3023707791 -0.7166067467  0.3318594838
7
Iter 108  Energy = -29.6073345459
C   0.8779206664  0.7839905606 -0.1643564969
H   0.7009565540  1.5624623306 -0.9183687762
O   0.5238791071  0.9691258027  1.1223492287
C   1.3509722231 -0.5558691340 -0.1944685818
H   0.7782317773 -0.2475905699  1.0617219706
H   1.0668620658 -1.3052003781 -0.9447351684
H   2.3024192369 -0.7165519574  0.3317970865
7
Iter 109  Energy = -29.6073347843
C   0.8779138686  0.7839914951 -0.1643661956
H   0.7010232533  1.5625152423 -0.9183440166
O   0.5238228398  0.9690864987  1.1223340637
C   1.3509802502 -0.5558699529 -0.1944730642
H   0.7782208158 -0.2476019196  1.0617128855
H   1.0668132045 -1.3052569971 -0.9446594189
H   2.3024673983 -0.7164977113  0.3317350075
7
Iter 110  Energy = -29.6073350227
C   0.8779070609  0.7839924104 -0.1643757617
H   0.7010895508  1.5625677279 -0.9183194825
O   0.5237667804  0.9690474972  1.1223189630
C   1.3509881711 -0.5558707697 -0.1944774722
H   0.7782100510 -0.2476131166  1.0617039728
H   1.0667646993 -1.3053130886 -0.9445842291
H   2.3025153157 -0.7164440040  0.3316732708
7
Iter 111  Energy = -29.6073352462
C   0.8779002503  0.7839933046 -0.1643852412
H   0.7011554437  1.5626197803 -0.9182951397
O   0.5237109123  0.9690088471  1.1223039550
C   1.3509960781 -0.5558716061 -0.1944818089
H   0.7781994679 -0.2476241780  1.0616952512
H   1.0667165404 -1.3053686662 -0.9445096029
H   2.3025629359 -0.7163908243  0.3316118468
7
Iter 112  Energy = -29.6073354250
C   0.8778934520  0.7839941501 -0.1643946392
H   0.7012209361  1.5626714055 -0.9182709922
O   0.5236552435  0.9689705035  1.1222890442
C   1.3510039220 -0.5558723890 -0.1944860145
H   0.7781890726 -0.2476350824  1.0616866760
H   1.0666687128 -1.3054237632 -0.9444355628
H   2.3026102903 -0.7163381671  0.3315507478
7
Iter 113  Energy = -29.6073356783
C   0.8778866263  0.7839950371 -0.1644039445
H   0.7012860365  1.5627225894 -0.9182470322
O   0.5235997925  0.9689324745  1.1222741857
C   1.3510117408 -0.5558732074 -0.1944901393
H   0.7781788545 -0.2476458706  1.0616782963
H   1.0666212284 -1.3054783464 -0.9443620705
H   2.3026573508 -0.7162860189  0.3314899641
7
Iter 114  Energy = -29.6073359019
C   0.8778798142  0.7839958489 -0.1644131315
H   0.7013507361  1.5627733822 -0.9182232968
O   0.5235445472  0.9688947516  1.1222594099
C   1.3510195030 -0.5558739925 -0.1944941792
H   0.7781688050 -0.2476565122  1.0616700946
H   1.0665740778 -1.3055324403 -0.9442891392
H   2.3027041466 -0.7162343801  0.3314295023
7
Iter 115  Energy = -29.6073360807
C   0.8778730123  0.7839966553 -0.1644222281
H   0.7014150329  1.5628237680 -0.9181997465
O   0.5234895093  0.9688573511  1.1222447015
C   1.3510271949 -0.5558747964 -0.1944981578
H   0.7781589261 -0.2476670310  1.0616620673
H   1.0665272627 -1.3055860472 -0.9442167553
H   2.3027506920 -0.7161832413  0.3313693769
7
Iter 116  Energy = -29.6073363340
C   0.8778662084  0.7839974474 -0.1644312024
H   0.7014789365  1.5628737441 -0.9181763998
O   0.5234346907  0.9688202468  1.1222300531
C   1.3510348110 -0.5558755784 -0.1945020174
H   0.7781492210 -0.2476774254  1.0616541667
H   1.0664807688 -1.3056391761 -0.9441449214
H   2.3027969941 -0.7161325994  0.3313095795
7
Iter 117  Energy = -29.6073365426
C   0.8778593961  0.7839982558 -0.1644401175
H   0.7015424516  1.5629233017 -0.9181532318
O   0.5233800853  0.9687834448  1.1222155010
C   1.3510424468 -0.5558764034 -0.1945057981
H   0.7781396701 -0.2476876913  1.0616464461
H   1.0664346005 -1.3056918179 -0.9440736237
H   2.3028429795 -0.7160824314  0.3312500824
7
Iter 118  Energy = -29.6073367363
C   0.8778525867  0.7839990178 -0.1644489144
H   0.7016055763  1.5629724554 -0.9181302461
O   0.5233257075  0.9687469410  1.1222009825
C   1.3510500236 -0.5558771920 -0.1945094922
H   0.7781302774 -0.2476978324  1.0616388833
H   1.0663887519 -1.3057439857 -0.9440028655
H   2.3028887058 -0.7160327465  0.3311909102
7
Iter 119  Energy = -29.6073368853
C   0.8778457927  0.7839997818 -0.1644576331
H   0.7016683147  1.5630212110 -0.9181074674
O   0.5232715381  0.9687107321  1.1221865794
C   1.3510574966 -0.5558779741 -0.1945131233
H   0.7781210440 -0.2477078569  1.0616314606
H   1.0663432305 -1.3057956924 -0.9439326328
H   2.3029342116 -0.7159835422  0.3311320745
7
Iter 120  Energy = -29.6073370642
C   0.8778390274  0.7840004858 -0.1644663033
H   0.7017306599  1.5630695816 -0.9180848632
O   0.5232176019  0.9686746961  1.1221722635
C   1.3510649809 -0.5558787650 -0.1945167705
H   0.7781119068 -0.2477175957  1.0616243178
H   1.0662980308 -1.3058469407 -0.9438629473
H   2.3029794202 -0.7159348022  0.3310735598
7
Iter 121  Energy = -29.6073372877
C   0.8778322886  0.7840011109 -0.1644748374
H   0.7017926194  1.5631175737 -0.9180624575
O   0.5231639113  0.9686389183  1.1221579585
C   1.3510723811 -0.5558794471 -0.1945202962
H   0.7781029247 -0.2477272336  1.0616173177
H   1.0662531444 -1.3058977412 -0.9437937849
H   2.3030243584 -0.7158865213  0.3310153571
7
Iter 122  Energy = -29.6073375559
C   0.8778255322  0.7840018162 -0.1644833282
H   0.7018542023  1.5631651511 -0.9180402159
O   0.5231104431  0.9686034287  1.1221437470
C   1.3510797419 -0.5558801863 -0.1945237556
H   0.7780940888 -0.2477367625  1.0616104717
H   1.0662085672 -1.3059480903 -0.9437251498
H   2.3030690524 -0.7158386963  0.3309574881
7
Iter 123  Energy = -29.6073376900
C   0.8778187954  0.7840024346 -0.1644916705
H   0.7019153934  1.5632123825 -0.9180181773
O   0.5230572091  0.9685682153  1.1221295671
C   1.3510870868 -0.5558809073 -0.1945271362
H   0.7780853931 -0.2477461639  1.0616037777
H   1.0661642996 -1.3059979887 -0.9436570264
H   2.3031134511 -0.7157913124  0.3308999225
7
Iter 124  Energy = -29.6073378688
C   0.8778120652  0.7840030945 -0.1644999684
H   0.7019762123  1.5632592077 -0.9179963078
O   0.5230041970  0.9685332992  1.1221154856
C   1.3510943327 -0.5558816510 -0.1945304373
H   0.7780768535 -0.2477554957  1.0615971849
H   1.0661203453 -1.3060474222 -0.9435893858
H   2.3031576228 -0.7157443716  0.3308426857
7
Iter 125  Energy = -29.6073380178
C   0.8778053536  0.7840037029 -0.1645081520
H   0.7020366522  1.5633056637 -0.9179746185
O   0.5229514220  0.9684986462  1.1221014467
C   1.3511015111 -0.5558823386 -0.1945336350
H   0.7780684572 -0.2477647164  1.0615907090
H   1.0660766874 -1.3060964294 -0.9435222636
H   2.3032015454 -0.7156978668  0.3307857714
7
Iter 126  Energy = -29.6073381966
C   0.8777986589  0.7840043374 -0.1645162957
H   0.7020967119  1.5633517472 -0.9179530985
O   0.5228988626  0.9684642821  1.1220875055
C   1.3511086902 -0.5558830833 -0.1945367933
H   0.7780601837 -0.2477738321  1.0615844175
H   1.0660333350 -1.3061450027 -0.9434556435
H   2.3032451864 -0.7156517873  0.3307291644
7
Iter 127  Energy = -29.6073383755
C   0.8777919683  0.7840049266 -0.1645243235
H   0.7021564004  1.5633974652 -0.9179317639
O   0.5228465445  0.9684301923  1.1220736155
C   1.3511158122 -0.5558837833 -0.1945398615
H   0.7780520453 -0.2477828513  1.0615782345
H   1.0659902714 -1.3061931516 -0.9433895259
H   2.3032885866 -0.7156061362  0.3306728783
7
Iter 128  Energy = -29.6073385692
C   0.8777853015  0.7840055154 -0.1645322583
H   0.7022157143  1.5634428152 -0.9179105964
O   0.5227944684  0.9683963403  1.1220597657
C   1.3511229067 -0.5558844984 -0.1945428602
H   0.7780440351 -0.2477917590  1.0615721954
H   1.0659475122 -1.3062408601 -0.9433238834
H   2.3033316905 -0.7155608911  0.3306168908
7
Iter 129  Energy = -29.6073387480
C   0.8777786405  0.7840060759 -0.1645400980
H   0.7022746625  1.5634877958 -0.9178895996
O   0.5227426246  0.9683627837  1.1220459793
C   1.3511299121 -0.5558851866 -0.1945457935
H   0.7780361575 -0.2478005971  1.0615662507
H   1.0659050436 -1.3062881420 -0.9432587192
H   2.3033745880 -0.7155160674  0.3305612344
7
Iter 130  Energy = -29.6073389119
C   0.8777720050  0.7840066433 -0.1645478967
H   0.7023332381  1.5635324255 -0.9178687774
O   0.5226910059  0.9683294711  1.1220323004
C   1.3511368979 -0.5558858971 -0.1945486516
H   0.7780284001 -0.2478093115  1.0615604470
H   1.0658628658 -1.3063350210 -0.9431940553
H   2.3034172159 -0.7154716483  0.3305058874
7
Iter 131  Energy = -29.6073390758
C   0.8777653969  0.7840071608 -0.1645556161
H   0.7023914482  1.5635767008 -0.9178481234
O   0.5226396205  0.9682964369  1.1220186918
C   1.3511438376 -0.5558865593 -0.1945514495
H   0.7780207582 -0.2478179410  1.0615547726
H   1.0658209746 -1.3063814987 -0.9431298729
H   2.3034595928 -0.7154276363  0.3304508494
7
Iter 132  Energy = -29.6073392248
C   0.8777587996  0.7840076964 -0.1645632629
H   0.7024492917  1.5636206195 -0.9178276314
O   0.5225884675  0.9682636602  1.1220051619
C   1.3511507300 -0.5558872785 -0.1945541914
H   0.7780132388 -0.2478264679  1.0615491992
H   1.0657793799 -1.3064275469 -0.9430661449
H   2.3035017208 -0.7153840196  0.3303961203
7
Iter 133  Energy = -29.6073393440
C   0.8777522298  0.7840081852 -0.1645708095
H   0.7025067713  1.5636642021 -0.9178073261
O   0.5225375553  0.9682311226  1.1219916926
C   1.3511575393 -0.5558879514 -0.1945568831
H   0.7780058322 -0.2478348986  1.0615437514
H   1.0657380673 -1.3064731932 -0.9430028903
H   2.3035436334 -0.7153408051  0.3303417172
7
Iter 134  Energy = -29.6073395675
C   0.8777456693  0.7840087121 -0.1645783177
H   0.7025638951  1.5637074200 -0.9177871634
O   0.5224868762  0.9681988531  1.1219783071
C   1.3511643355 -0.5558886511 -0.1945594993
H   0.7779985360 -0.2478432505  1.0615384188
H   1.0656970318 -1.3065184515 -0.9429401111
H   2.3035852855 -0.7152979695  0.3302876165
7
Iter 135  Energy = -29.6073397315
C   0.8777391304  0.7840092008 -0.1645857430
H   0.7026206586  1.5637502977 -0.9177671647
O   0.5224364331  0.9681668290  1.1219649967
C   1.3511711062 -0.5558893410 -0.1945620522
H   0.7779913517 -0.2478514928  1.0615331887
H   1.0656562775 -1.3065633114 -0.9428777883
H   2.3036266722 -0.7152555203  0.3302338133
7
Iter 136  Energy = -29.6073398507
C   0.8777326219  0.7840096756 -0.1645930952
H   0.7026770609  1.5637928464 -0.9177473310
O   0.5223862311  0.9681350405  1.1219517532
C   1.3511778275 -0.5558900016 -0.1945645206
H   0.7779842744 -0.2478596457  1.0615280687
H   1.0656157969 -1.3066078043 -0.9428159415
H   2.3036678177 -0.7152134489  0.3301803183
7
Iter 137  Energy = -29.6073400444
C   0.8777261318  0.7840101227 -0.1646003402
H   0.7027331077  1.5638350627 -0.9177276720
O   0.5223362699  0.9681035143  1.1219385666
C   1.3511845008 -0.5558906908 -0.1945669693
H   0.7779772993 -0.2478677229  1.0615230564
H   1.0655755990 -1.3066518768 -0.9427545174
H   2.3037087217 -0.7151717465  0.3301271274
7
Iter 138  Energy = -29.6073401934
C   0.8777196597  0.7840105839 -0.1646075328
H   0.7027888008  1.5638769370 -0.9177081532
O   0.5222865502  0.9680722133  1.1219254541
C   1.3511911515 -0.5558913748 -0.1945693254
H   0.7779704280 -0.2478756958  1.0615181367
H   1.0655356684 -1.3066955847 -0.9426935628
H   2.3037493715 -0.7151304152  0.3300742353
7
Iter 139  Energy = -29.6073403722
C   0.8777132074  0.7840110407 -0.1646146418
H   0.7028441468  1.5639184713 -0.9176887927
O   0.5222370708  0.9680411601  1.1219124039
C   1.3511977127 -0.5558920515 -0.1945716434
H   0.7779636601 -0.2478836004  1.0615133027
H   1.0654960104 -1.3067389044 -0.9426330389
H   2.3037898223 -0.7150894523  0.3300216633
7
Iter 140  Energy = -29.6073404616
C   0.8777067799  0.7840114833 -0.1646217050
H   0.7028991409  1.5639596834 -0.9176695837
O   0.5221878200  0.9680103631  1.1218994443
C   1.3512042533 -0.5558927283 -0.1945739215
H   0.7779569907 -0.2478914276  1.0615085875
H   1.0654566257 -1.3067818539 -0.9425729586
H   2.3038300200 -0.7150488563  0.3299693887
7
Iter 141  Energy = -29.6073406404
C   0.8777003768  0.7840119158 -0.1646286929
H   0.7029537889  1.5640005678 -0.9176505319
O   0.5221388172  0.9679797727  1.1218865491
C   1.3512107417 -0.5558934030 -0.1945761391
H   0.7779504133 -0.2478991487  1.0615039675
H   1.0654175051 -1.3068244296 -0.9425133202
H   2.3038699867 -0.7150086120  0.3299174181
7
Iter 142  Energy = -29.6073407596
C   0.8776939975  0.7840123339 -0.1646356210
H   0.7030080932  1.5640411298 -0.9176316431
O   0.5220900482  0.9679494281  1.1218737530
C   1.3512172121 -0.5558940595 -0.1945782810
H   0.7779439284 -0.2479067920  1.0614994350
H   1.0653786415 -1.3068666603 -0.9424541315
H   2.3039097093 -0.7149687183  0.3298657396
7
Iter 143  Energy = -29.6073409087
C   0.8776876428  0.7840127397 -0.1646424689
H   0.7030620500  1.5640813789 -0.9176129000
O   0.5220415298  0.9679192950  1.1218609970
C   1.3512236383 -0.5558947222 -0.1945803761
H   0.7779375360 -0.2479143482  1.0614949953
H   1.0653400502 -1.3069085077 -0.9423953500
H   2.3039491833 -0.7149291736  0.3298143538
7
Iter 144  Energy = -29.6073410428
C   0.8776813158  0.7840131305 -0.1646492685
H   0.7031156649  1.5641213073 -0.9175942995
O   0.5219932447  0.9678893916  1.1218483290
C   1.3512300365 -0.5558953814 -0.1945824312
H   0.7779312251 -0.2479218047  1.0614906646
H   1.0653017139 -1.3069500069 -0.9423370155
H   2.3039884288 -0.7148899745  0.3297632711
7
Iter 145  Energy = -29.6073412067
C   0.8776750295  0.7840134472 -0.1646559829
H   0.7031689381  1.5641609298 -0.9175758483
O   0.5219452122  0.9678596509  1.1218357261
C   1.3512363858 -0.5558959907 -0.1945844735
H   0.7779249805 -0.2479290957  1.0614864546
H   1.0652636424 -1.3069911608 -0.9422791122
H   2.3040274415 -0.7148511199  0.3297124872
7
Iter 146  Energy = -29.6073413110
C   0.8776687527  0.7840138254 -0.1646626649
H   0.7032218758  1.5642002266 -0.9175575280
O   0.5218974153  0.9678301416  1.1218232148
C   1.3512427326 -0.5558966962 -0.1945864836
H   0.7779188208 -0.2479363025  1.0614823376
H   1.0652258330 -1.3070319432 -0.9422216170
H   2.3040661994 -0.7148125908  0.3296619902
7
Iter 147  Energy = -29.6073414898
C   0.8776625128  0.7840141539 -0.1646692555
H   0.7032744763  1.5642392167 -0.9175393547
O   0.5218498594  0.9678008805  1.1218107491
C   1.3512489735 -0.5558973281 -0.1945884533
H   0.7779127558 -0.2479434670  1.0614782939
H   1.0651882802 -1.3070723876 -0.9421645371
H   2.3041047713 -0.7147744070  0.3296118075
7
Iter 148  Energy = -29.6073415941
C   0.8776562908  0.7840144987 -0.1646757985
H   0.7033267460  1.5642778930 -0.9175213266
O   0.5218025343  0.9677718777  1.1217983798
C   1.3512552016 -0.5558979495 -0.1945903330
H   0.7779067812 -0.2479506020  1.0614742982
H   1.0651509698 -1.3071125055 -0.9421078765
H   2.3041431052 -0.7147365515  0.3295619047
7
Iter 149  Energy = -29.6073417133
C   0.8776501015  0.7840148030 -0.1646822475
H   0.7033786799  1.5643162772 -0.9175034442
O   0.5217554477  0.9677430971  1.1217860704
C   1.3512614002 -0.5558985437 -0.1945921757
H   0.7779008779 -0.2479576497  1.0614703864
H   1.0651139118 -1.3071522975 -0.9420516261
H   2.3041812096 -0.7146990255  0.3295122858
7
Iter 150  Energy = -29.6073418325
C   0.8776439384  0.7840151180 -0.1646886357
H   0.7034302826  1.5643543542 -0.9174856979
O   0.5217086003  0.9677145317  1.1217738296
C   1.3512675491 -0.5558991399 -0.1945940180
H   0.7778950405 -0.2479646182  1.0614665795
H   1.0650771056 -1.3071917553 -0.9419957760
H   2.3042191117 -0.7146618302  0.3294629672
7
Iter 151  Energy = -29.6073419964
C   0.8776378115  0.7840153888 -0.1646949550
H   0.7034815538  1.5643921445 -0.9174680958
O   0.5216619907  0.9676861958  1.1217616663
C   1.3512736357 -0.5558996989 -0.1945958147
H   0.7778892803 -0.2479715230  1.0614628313
H   1.0650405521 -1.3072308858 -0.9419403223
H   2.3042568040 -0.7146249614  0.3294139382
7
Iter 152  Energy = -29.6073420411
C   0.8776317050  0.7840156910 -0.1647012461
H   0.7035324990  1.5644296283 -0.9174506150
O   0.5216156152  0.9676580742  1.1217495916
C   1.3512797504 -0.5559002914 -0.1945975429
H   0.7778835891 -0.2479783445  1.0614591669
H   1.0650042410 -1.3072697004 -0.9418852770
H   2.3042942283 -0.7145883981  0.3293651708
7
Iter 153  Energy = -29.6073422200
C   0.8776256205  0.7840159648 -0.1647074355
H   0.7035831205  1.5644668150 -0.9174332659
O   0.5215694899  0.9676301570  1.1217375508
C   1.3512857905 -0.5559008584 -0.1945992658
H   0.7778779668 -0.2479850859  1.0614555730
H   1.0649681767 -1.3073081797 -0.9418306116
H   2.3043314630 -0.7145521540  0.3293167054
7
Iter 154  Energy = -29.6073423243
C   0.8776195603  0.7840162649 -0.1647135969
H   0.7036334197  1.5645037025 -0.9174160433
O   0.5215235945  0.9676024642  1.1217256031
C   1.3512918041 -0.5559014302 -0.1946009211
H   0.7778724180 -0.2479917754  1.0614520287
H   1.0649323567 -1.3073463414 -0.9417763317
H   2.3043684743 -0.7145162250  0.3292685124
7
Iter 155  Energy = -29.6073424584
C   0.8776135344  0.7840165456 -0.1647197049
H   0.7036833955  1.5645403075 -0.9173989569
O   0.5214779465  0.9675749601  1.1217137218
C   1.3512977993 -0.5559019683 -0.1946025269
H   0.7778669289 -0.2479983849  1.0614485768
H   1.0648967728 -1.3073842017 -0.9417224535
H   2.3044052494 -0.7144805983  0.3292205943
7
Iter 156  Energy = -29.6073425627
C   0.8776075418  0.7840168193 -0.1647257421
H   0.7037330475  1.5645766418 -0.9173820098
O   0.5214325327  0.9675476743  1.1217019053
C   1.3513037379 -0.5559025371 -0.1946041264
H   0.7778615080 -0.2480049336  1.0614452019
H   1.0648614308 -1.3074217344 -0.9416689493
H   2.3044418284 -0.7144452701  0.3291729709
7
Iter 157  Energy = -29.6073427266
C   0.8776015589  0.7840170865 -0.1647316816
H   0.7037823835  1.5646126877 -0.9173651843
O   0.5213873682  0.9675206026  1.1216901263
C   1.3513096775 -0.5559031042 -0.1946056632
H   0.7778561523 -0.2480114186  1.0614418687
H   1.0648263230 -1.3074589557 -0.9416158231
H   2.3044781635 -0.7144102392  0.3291256080
7
Iter 158  Energy = -29.6073428756
C   0.8775956173  0.7840173603 -0.1647376206
H   0.7038314051  1.5646484468 -0.9173484836
O   0.5213424261  0.9674937352  1.1216784617
C   1.3513155529 -0.5559036633 -0.1946071795
H   0.7778508628 -0.2480178387  1.0614386076
H   1.0647914588 -1.3074958690 -0.9415630669
H   2.3045143039 -0.7143755128  0.3290785326
7
Iter 159  Energy = -29.6073429054
C   0.8775897138  0.7840175952 -0.1647434714
H   0.7038801067  1.5646839476 -0.9173319315
O   0.5212977205  0.9674670851  1.1216668655
C   1.3513214132 -0.5559041898 -0.1946086612
H   0.7778456291 -0.2480241983  1.0614354273
H   1.0647568231 -1.3075325026 -0.9415107058
H   2.3045502206 -0.7143410788  0.3290317287
7
Iter 160  Energy = -29.6073430246
C   0.8775838443  0.7840178146 -0.1647492695
H   0.7039284980  1.5647191679 -0.9173155018
O   0.5212532603  0.9674405917  1.1216553291
C   1.3513272065 -0.5559047008 -0.1946101217
H   0.7778404519 -0.2480304568  1.0614323150
H   1.0647224224 -1.3075688242 -0.9414587113
H   2.3045859437 -0.7143069338  0.3289852110
7
Iter 161  Energy = -29.6073431438
C   0.8775779895  0.7840180773 -0.1647550369
H   0.7039765808  1.5647541062 -0.9172991877
O   0.5212090326  0.9674143093  1.1216438822
C   1.3513329750 -0.5559052605 -0.1946115354
H   0.7778353425 -0.2480366600  1.0614292397
H   1.0646882544 -1.3076048393 -0.9414070759
H   2.3046214527 -0.7142730734  0.3289389654
7
Iter 162  Energy = -29.6073432630
C   0.8775721787  0.7840183028 -0.1647607319
H   0.7040243520  1.5647887848 -0.9172830092
O   0.5211650409  0.9673882299  1.1216324961
C   1.3513386991 -0.5559057703 -0.1946129040
H   0.7778302903 -0.2480428145  1.0614262280
H   1.0646543122 -1.3076405757 -0.9413558164
H   2.3046567539 -0.7142394974  0.3288929904
7
Iter 163  Energy = -29.6073433673
C   0.8775663796  0.7840185478 -0.1647663641
H   0.7040718192  1.5648231885 -0.9172669497
O   0.5211212905  0.9673623493  1.1216211636
C   1.3513444044 -0.5559062979 -0.1946142512
H   0.7778252937 -0.2480489161  1.0614232796
H   1.0646205971 -1.3076760097 -0.9413049107
H   2.3046918427 -0.7142062009  0.3288472857
7
Iter 164  Energy = -29.6073435313
C   0.8775606076  0.7840187837 -0.1647719362
H   0.7041189790  1.5648573414 -0.9172510251
O   0.5210777824  0.9673366470  1.1216098887
C   1.3513500959 -0.5559068143 -0.1946155336
H   0.7778203512 -0.2480549565  1.0614203911
H   1.0645870974 -1.3077111631 -0.9412543766
H   2.3047267137 -0.7141731771  0.3288018452
7
Iter 165  Energy = -29.6073435611
C   0.8775548682  0.7840190336 -0.1647774890
H   0.7041658368  1.5648912098 -0.9172351915
O   0.5210345047  0.9673111336  1.1215986865
C   1.3513557357 -0.5559073358 -0.1946168131
H   0.7778154640 -0.2480609272  1.0614175688
H   1.0645538332 -1.3077460201 -0.9412041885
H   2.3047613842 -0.7141404340  0.3287566794
7
Iter 166  Energy = -29.6073436952
C   0.8775491676  0.7840192262 -0.1647829649
H   0.7042123899  1.5649248401 -0.9172195005
O   0.5209914639  0.9672858107  1.1215875435
C   1.3513613377 -0.5559078325 -0.1946180628
H   0.7778106325 -0.2480668410  1.0614148058
H   1.0645207908 -1.3077805839 -0.9411543476
H   2.3047958445 -0.7141079609  0.3287117801
7
Iter 167  Energy = -29.6073437697
C   0.8775434936  0.7840194491 -0.1647883843
H   0.7042586434  1.5649582130 -0.9172039397
O   0.5209486548  0.9672606784  1.1215764873
C   1.3513668894 -0.5559083656 -0.1946192835
H   0.7778058592 -0.2480727025  1.0614120699
H   1.0644879754 -1.3078148605 -0.9411048447
H   2.3048301111 -0.7140757531  0.3286671497
7
Iter 168  Energy = -29.6073438889
C   0.8775378636  0.7840196124 -0.1647937859
H   0.7043045982  1.5649913307 -0.9171884849
O   0.5209060724  0.9672357349  1.1215655166
C   1.3513724506 -0.5559088323 -0.1946204457
H   0.7778011275 -0.2480784885  1.0614094100
H   1.0644553683 -1.3078488858 -0.9410557207
H   2.3048641469 -0.7140438130  0.3286227672
7
Iter 169  Energy = -29.6073439932
C   0.8775322581  0.7840198223 -0.1647991194
H   0.7043502552  1.5650241945 -0.9171731545
O   0.5208637234  0.9672109748  1.1215546024
C   1.3513779572 -0.5559093619 -0.1946216203
H   0.7777964508 -0.2480842258  1.0614068083
H   1.0644229904 -1.3078826158 -0.9410069199
H   2.3048979925 -0.7140121298  0.3285786604
7
Iter 170  Energy = -29.6073440826
C   0.8775266783  0.7840200035 -0.1648043900
H   0.7043956162  1.5650568219 -0.9171579483
O   0.5208216137  0.9671863972  1.1215437321
C   1.3513834568 -0.5559098717 -0.1946227308
H   0.7777918244 -0.2480899152  1.0614042571
H   1.0643908231 -1.3079160708 -0.9409584679
H   2.3049316159 -0.7139807068  0.3285348034
7
Iter 171  Energy = -29.6073442167
C   0.8775211248  0.7840202171 -0.1648096323
H   0.7044406895  1.5650891769 -0.9171428400
O   0.5207797356  0.9671620015  1.1215329290
C   1.3513889093 -0.5559103584 -0.1946238005
H   0.7777872531 -0.2480955621  1.0614017516
H   1.0643588636 -1.3079492775 -0.9409103695
H   2.3049650528 -0.7139495409  0.3284912180
7
Iter 172  Energy = -29.6073442614
C   0.8775156101  0.7840203977 -0.1648148207
H   0.7044854681  1.5651212984 -0.9171278543
O   0.5207380903  0.9671377760  1.1215221939
C   1.3513943000 -0.5559108412 -0.1946248696
H   0.7777827247 -0.2481011409  1.0613992979
H   1.0643271260 -1.3079821976 -0.9408625922
H   2.3049983099 -0.7139186356  0.3284478990
7
Iter 1  Energy = -29.6072649425
C   0.8773924955  0.7831818990 -0.1629442323
H   0.6910970780  1.5541834228 -0.9219751768
O   0.5295494442  0.9762300203  1.1235637048
C   1.3489842015 -0.5563871327 -0.1924466184
H   0.7827455278 -0.2432692428  1.0661510968
H   1.0762409145 -1.2945749353 -0.9580894872
H   2.2952319609 -0.7289973788  0.3396799683
7
Iter 2  Energy = -29.6072672522
C   0.8774582185  0.7831263717 -0.1628815594
H   0.6912154674  1.5542969372 -0.9219882217
O   0.5295092055  0.9761949633  1.1235865955
C   1.3490477279 -0.5562924381 -0.1925050798
H   0.7826411176 -0.2434461874  1.0660186511
H   1.0760484575 -1.2947665835 -0.9579080913
H   2.2953214283 -0.7287464118  0.3396169591
7
Iter 3  Energy = -29.6072688913
C   0.8774806866  0.7832311609 -0.1629105659
H   0.6913466808  1.5543556813 -0.9219526442
O   0.5294666420  0.9761477623  1.1236347949
C   1.3491293245 -0.5563334441 -0.1925902042
H   0.7825378843 -0.2436168182  1.0659053015
H   1.0758711565 -1.2949206457 -0.9577034501
H   2.2954092480 -0.7284970453  0.3395560216
7
Iter 4  Energy = -29.6072704858
C   0.8775354230  0.7831963190 -0.1628624536
H   0.6914650650  1.5544612342 -0.9219516805
O   0.5294328349  0.9760883496  1.1236431196
C   1.3491774465 -0.5562492655 -0.1926384345
H   0.7824368802 -0.2437684759  1.0657806052
H   1.0756917630 -1.2951022739 -0.9575235259
H   2.2955022100 -0.7282592369  0.3394916216
7
Iter 5  Energy = -29.6072720355
C   0.8775558867  0.7832889250 -0.1628898999
H   0.6915935338  1.5545238558 -0.9219122493
O   0.5293956388  0.9760216683  1.1236751167
C   1.3492428816 -0.5562768692 -0.1927085962
H   0.7823370697 -0.2439154246  1.0656718502
H   1.0755247669 -1.2952530206 -0.9573248654
H   2.2955918452 -0.7280224840  0.3394278954
7
Iter 6  Energy = -29.6072734362
C   0.8776029161  0.7832676844 -0.1628556722
H   0.6917112175  1.5546253898 -0.9219015144
O   0.5293641666  0.9759466444  1.1236768486
C   1.3492830543 -0.5562055552 -0.1927503549
H   0.7822394810 -0.2440469795  1.0655544513
H   1.0753561437 -1.2954251527 -0.9571456176
H   2.2956846433 -0.7277953802  0.3393611112
7
Iter 7  Energy = -29.6072749710
C   0.8776229305  0.7833468638 -0.1628821271
H   0.6918366500  1.5546933455 -0.9218605497
O   0.5293291635  0.9758668338  1.1236987034
C   1.3493379415 -0.5562244257 -0.1928105555
H   0.7821430600 -0.2441742551  1.0654507517
H   1.0751978237 -1.2955721311 -0.9569515708
H   2.2957740540 -0.7275695799  0.3392946020
7
Iter 8  Energy = -29.6072763121
C   0.8776643232  0.7833339685 -0.1628592681
H   0.6919532099  1.5547929520 -0.9218428904
O   0.5292980222  0.9757817938  1.1236970369
C   1.3493732186 -0.5561646836 -0.1928482449
H   0.7820488659 -0.2442894809  1.0653405206
H   1.0750385065 -1.2957359123 -0.9567732990
H   2.2958654767 -0.7273519867  0.3392253996
7
Iter 9  Energy = -29.6072776383
C   0.8776841657  0.7834007512 -0.1628851013
H   0.6920757710  1.5548659957 -0.9218012420
O   0.5292635184  0.9756937556  1.1237119638
C   1.3494206863 -0.5561775299 -0.1929010831
H   0.7819559285 -0.2444010935  1.0652419346
H   1.0748877899 -1.2958792814 -0.9565834964
H   2.2959537641 -0.7271359470  0.3391562774
7
Iter 10  Energy = -29.6072789496
C   0.8777210714  0.7833933042 -0.1628714397
H   0.6921910634  1.5549646022 -0.9217784043
O   0.5292316507  0.9756024077  1.1237083240
C   1.3494527332 -0.5561276545 -0.1929360127
H   0.7818651579 -0.2445030705  1.0651385729
H   1.0747365859 -1.2960359140 -0.9564066636
H   2.2960433613 -0.7269270237  0.3390848774
7
Iter 11  Energy = -29.6072802907
C   0.8777406093  0.7834494391 -0.1628967687
H   0.6923110140  1.5550420358 -0.9217364137
O   0.5291967167  0.9755092876  1.1237181061
C   1.3494947207 -0.5561361908 -0.1929832664
H   0.7817757005 -0.2446019946  1.0650450870
H   1.0745925892 -1.2961760292 -0.9562209763
H   2.2961302730 -0.7267198960  0.3390134858
7
Iter 12  Energy = -29.6072816169
C   0.8777736860  0.7834457988 -0.1628904567
H   0.6924250064  1.5551400289 -0.9217095514
O   0.5291635584  0.9754141933  1.1237130451
C   1.3495244774 -0.5560946003 -0.1930161508
H   0.7816883427 -0.2446932030  1.0649482049
H   1.0744484889 -1.2963265406 -0.9560460337
H   2.2962180634 -0.7265190258  0.3389401958
7
Iter 13  Energy = -29.6072827792
C   0.8777927158  0.7834929706 -0.1629154582
H   0.6925426055  1.5552210672 -0.9216673577
O   0.5291276330  0.9753181879  1.1237188128
C   1.3495623084 -0.5560999538 -0.1930589877
H   0.7816023243 -0.2447818067  1.0648597688
H   1.0743104841 -1.2964636545 -0.9558643721
H   2.2963035527 -0.7263201592  0.3388668471
7
Iter 14  Energy = -29.6072839266
C   0.8778224745  0.7834919787 -0.1629149685
H   0.6926553000  1.5553186440 -0.9216373428
O   0.5290928656  0.9752210522  1.1237126350
C   1.3495903859 -0.5560651590 -0.1930903524
H   0.7815183075 -0.2448640375  1.0647690296
H   1.0741726849 -1.2966089811 -0.9556916897
H   2.2963896054 -0.7261268457  0.3387919420
7
Iter 15  Energy = -29.6072851336
C   0.8778407818  0.7835317297 -0.1629396476
H   0.6927707903  1.5554025485 -0.9215950057
O   0.5290556349  0.9751236144  1.1237151249
C   1.3496249521 -0.5560681243 -0.1931296575
H   0.7814356886 -0.2449440770  1.0646854235
H   1.0740400498 -1.2967433697 -0.9555139594
H   2.2964737260 -0.7259356701  0.3387169748
7
Iter 16  Energy = -29.6072862214
C   0.8778675413  0.7835327248 -0.1629437578
H   0.6928822234  1.5554997331 -0.9215624725
O   0.5290191065  0.9750257173  1.1237079360
C   1.3496516784 -0.5560389363 -0.1931597581
H   0.7813549915 -0.2450188933  1.0646003538
H   1.0739078812 -1.2968842089 -0.9553437808
H   2.2965582015 -0.7257494840  0.3386407347
7
Iter 17  Energy = -29.6072873837
C   0.8778849608  0.7835663900 -0.1629680766
H   0.6929957917  1.5555858827 -0.9215200373
O   0.5289803746  0.9749279828  1.1237076795
C   1.3496836183 -0.5560401446 -0.1931962005
H   0.7812757177 -0.2450918220  1.0645213814
H   1.0737801451 -1.2970161213 -0.9551699135
H   2.2966410158 -0.7255655153  0.3385644226
7
Iter 18  Energy = -29.6072885311
C   0.8779090064  0.7835688475 -0.1629758397
H   0.6931059970  1.5556826567 -0.9214854875
O   0.5289420071  0.9748302523  1.1236996015
C   1.3497092587 -0.5560155884 -0.1932251731
H   0.7811982879 -0.2451604120  1.0644415455
H   1.0736530498 -1.2971530536 -0.9550024585
H   2.2967240173 -0.7253860498  0.3384870668
7
Iter 19  Energy = -29.6072895145
C   0.8779253965  0.7835975198 -0.1629997520
H   0.6932178051  1.5557705275 -0.9214430210
O   0.5289016893  0.9747329815  1.1236970041
C   1.3497389940 -0.5560154971 -0.1932591773
H   0.7811222988 -0.2452273589  1.0643669115
H   1.0735297959 -1.2972826506 -0.9548323679
H   2.2968056451 -0.7252088691  0.3384096585
7
Iter 20  Energy = -29.6072905278
C   0.8779469573  0.7836011148 -0.1630103623
H   0.6933268106  1.5558668512 -0.9214068679
O   0.5288614879  0.9746360474  1.1236880511
C   1.3497636247 -0.5559947907 -0.1932871392
H   0.7810480744 -0.2452906909  1.0642919082
H   1.0734073284 -1.2974160984 -0.9546677413
H   2.2968873414 -0.7250357795  0.3383314089
7
Iter 21  Energy = -29.6072915858
C   0.8779622131  0.7836257191 -0.1630338433
H   0.6934370028  1.5559559484 -0.9213643792
O   0.5288195673  0.9745397777  1.1236834013
C   1.3497914892 -0.5559937717 -0.1933190632
H   0.7809752878 -0.2453525460  1.0642213484
H   1.0732882110 -1.2975434840 -0.9545013171
H   2.2969678535 -0.7248649895  0.3382531090
7
Iter 22  Energy = -29.6072925842
C   0.8779814985  0.7836300995 -0.1630465974
H   0.6935448424  1.5560517721 -0.9213269922
O   0.5287775728  0.9744440623  1.1236736211
C   1.3498151607 -0.5559762051 -0.1933460650
H   0.7809041959 -0.2454113246  1.0641507461
H   1.0731699836 -1.2976738032 -0.9543395999
H   2.2970483710 -0.7246979479  0.3381741440
7
Iter 23  Energy = -29.6072934932
C   0.8779955868  0.7836513770 -0.1630697502
H   0.6936535306  1.5561417092 -0.9212845161
O   0.5287340263  0.9743491641  1.1236673028
C   1.3498414467 -0.5559745739 -0.1933761787
H   0.7808345188 -0.2454687671  1.0640840275
H   1.0730546974 -1.2977990631 -0.9541767515
H   2.2971278183 -0.7245331936  0.3380951251
7
Iter 24  Energy = -29.6072945213
C   0.8780127826  0.7836563148 -0.1630841901
H   0.6937602242  1.5562369863 -0.9212461660
O   0.5286902911  0.9742549977  1.1236567546
C   1.3498643107 -0.5559596199 -0.1934022281
H   0.7807664673 -0.2455236173  1.0640175144
H   1.0729403638 -1.2979265208 -0.9540179960
H   2.2972071852 -0.7243718881  0.3380155681
7
Iter 25  Energy = -29.6072954303
C   0.8780256753  0.7836748009 -0.1631069333
H   0.6938675023  1.5563274407 -0.9212037542
O   0.5286451717  0.9741617510  1.1236489448
C   1.3498891839 -0.5559575382 -0.1934307078
H   0.7806998165 -0.2455772549  1.0639543321
H   1.0728286476 -1.2980497050 -0.9538586018
H   2.2972856279 -0.7242128416  0.3379359784
7
Iter 26  Energy = -29.6072963095
C   0.8780409573  0.7836801001 -0.1631226553
H   0.6939730736  1.5564221106 -0.9211646793
O   0.5285997647  0.9740693399  1.1236376941
C   1.3499112863 -0.5559447903 -0.1934558380
H   0.7806347163 -0.2456286555  1.0638915780
H   1.0727179284 -1.2981744749 -0.9537027899
H   2.2973638981 -0.7240569765  0.3378559492
7
Iter 27  Energy = -29.6072971737
C   0.8780526587  0.7836962882 -0.1631450086
H   0.6940790155  1.5565128080 -0.9211223617
O   0.5285531235  0.9739779170  1.1236285914
C   1.3499349279 -0.5559424525 -0.1934828713
H   0.7805709869 -0.2456789561  1.0638317295
H   1.0726095527 -1.2982956201 -0.9535467320
H   2.2974413596 -0.7239033309  0.3377759126
7
Iter 28  Energy = -29.6072980678
C   0.8780661593  0.7837018332 -0.1631616517
H   0.6941834882  1.5566068057 -0.9210827691
O   0.5285061364  0.9738874017  1.1236166803
C   1.3499562537 -0.5559315596 -0.1935071268
H   0.7805087446 -0.2457273198  1.0637724179
H   1.0725022043 -1.2984178606 -0.9533938392
H   2.2975186384 -0.7237526464  0.3376955484
7
Iter 29  Energy = -29.6072988725
C   0.8780766708  0.7837160925 -0.1631836038
H   0.6942881623  1.5566975043 -0.9210405837
O   0.5284580421  0.9737979204  1.1236064518
C   1.3499787988 -0.5559290578 -0.1935328096
H   0.7804478316 -0.2457746643  1.0637156615
H   1.0723969459 -1.2985370107 -0.9532410404
H   2.2975951737 -0.7236041294  0.3376151829
7
Iter 30  Energy = -29.6072997069
C   0.8780885343  0.7837217415 -0.1632009281
H   0.6943915571  1.5567907687 -0.9210006315
O   0.5284095637  0.9737093764  1.1235939351
C   1.3499994276 -0.5559197130 -0.1935561840
H   0.7803883461 -0.2458203161  1.0636595358
H   1.0722927382 -1.2986568376 -0.9530910262
H   2.2976714581 -0.7234583647  0.3375345568
7
Iter 31  Energy = -29.6073005861
C   0.8780978777  0.7837344407 -0.1632224896
H   0.6944950163  1.5568812676 -0.9209586171
O   0.5283601033  0.9736218643  1.1235827136
C   1.3500209737 -0.5559172159 -0.1935806784
H   0.7803301434 -0.2458650250  1.0636057024
H   1.0721904322 -1.2987739694 -0.9529413357
H   2.2977470782 -0.7233147066  0.3374539623
7
Iter 32  Energy = -29.6073013610
C   0.8781082248  0.7837401162 -0.1632402378
H   0.6945973389  1.5569737601 -0.9209184529
O   0.5283102305  0.9735354168  1.1235695826
C   1.3500408800 -0.5559091806 -0.1936031656
H   0.7802733364 -0.2459083605  1.0635524993
H   1.0720891694 -1.2988914699 -0.9527941511
H   2.2978224448 -0.7231736257  0.3373731823
7
Iter 33  Energy = -29.6073021507
C   0.8781164262  0.7837515425 -0.1632614284
H   0.6946996236  1.5570638978 -0.9208766474
O   0.5282594768  0.9734499763  1.1235575127
C   1.3500614796 -0.5559067723 -0.1936264618
H   0.7802177752 -0.2459507924  1.0635013075
H   1.0719896496 -1.2990066070 -0.9526474761
H   2.2978971937 -0.7230345886  0.3372924500
7
Iter 34  Energy = -29.6073029107
C   0.8781253676  0.7837571713 -0.1632794227
H   0.6948008942  1.5571555651 -0.9208363939
O   0.5282083406  0.9733654962  1.1235438071
C   1.3500806918 -0.5558998258 -0.1936481120
H   0.7801635046 -0.2459919052  1.0634508722
H   1.0718911658 -1.2991218791 -0.9525030905
H   2.2979716602 -0.7228979667  0.3372115956
7
Iter 35  Energy = -29.6073036557
C   0.8781324838  0.7837674463 -0.1633001880
H   0.6949020408  1.5572452167 -0.9207948407
O   0.5281564051  0.9732820656  1.1235309393
C   1.3501004664 -0.5558974924 -0.1936703610
H   0.7801104321 -0.2460322193  1.0634022653
H   1.0717942810 -1.2992350446 -0.9523593477
H   2.2980455161 -0.7227633167  0.3371307891
7
Iter 36  Energy = -29.6073044157
C   0.8781401282  0.7837730069 -0.1633183947
H   0.6950022710  1.5573360090 -0.9207545946
O   0.5281040617  0.9731996192  1.1235168089
C   1.3501190692 -0.5558915312 -0.1936911714
H   0.7800586112 -0.2460713675  1.0633543887
H   1.0716984160 -1.2993481414 -0.9522176921
H   2.2981190669 -0.7226309404  0.3370499104
7
Iter 37  Energy = -29.6073051459
C   0.8781462092  0.7837823156 -0.1633387863
H   0.6951023076  1.5574250649 -0.9207133388
O   0.5280510166  0.9731181691  1.1235033042
C   1.3501380307 -0.5558893407 -0.1937124276
H   0.7800079374 -0.2461097395  1.0633081565
H   1.0716040264 -1.2994593404 -0.9520767821
H   2.2981920958 -0.7225004746  0.3369691272
7
Iter 38  Energy = -29.6073058462
C   0.8781526418  0.7837877499 -0.1633570414
H   0.6952015119  1.5575149343 -0.9206731738
O   0.5279975868  0.9730376733  1.1234887146
C   1.3501560241 -0.5558842121 -0.1937324665
H   0.7799584439 -0.2461470405  1.0632627067
H   1.0715106332 -1.2995703013 -0.9519377966
H   2.2982647824 -0.7223721482  0.3368883094
7
Iter 39  Energy = -29.6073065019
C   0.8781577384  0.7837962346 -0.1633771034
H   0.6953004720  1.5576032677 -0.9206322123
O   0.5279435079  0.9729581884  1.1234746615
C   1.3501743005 -0.5558821917 -0.1937527661
H   0.7799100649 -0.2461836455  1.0632187303
H   1.0714186002 -1.2996795449 -0.9517996434
H   2.2983369398 -0.7222456538  0.3368075862
7
Iter 40  Energy = -29.6073072022
C   0.8781630757  0.7838014348 -0.1633952957
H   0.6953986513  1.5576921988 -0.9205922172
O   0.5278890806  0.9728796221  1.1234596582
C   1.3501917297 -0.5558777173 -0.1937720162
H   0.7798628014 -0.2462192599  1.0631755341
H   1.0713275387 -1.2997884401 -0.9516632813
H   2.2984087462 -0.7221211827  0.3367268702
7
Iter 41  Energy = -29.6073078430
C   0.8781672352  0.7838091537 -0.1634149300
H   0.6954965494  1.5577797476 -0.9205516022
O   0.5278340657  0.9728020625  1.1234450857
C   1.3502093278 -0.5558758485 -0.1937914447
H   0.7798166156 -0.2462542300  1.0631336481
H   1.0712377514 -1.2998957424 -0.9515277851
H   2.2984800787 -0.7219984869  0.3366462800
7
Iter 42  Energy = -29.6073085284
C   0.8781715224  0.7838142685 -0.1634330756
H   0.6955937317  1.5578676493 -0.9205118119
O   0.5277787045  0.9727254186  1.1234297720
C   1.3502262013 -0.5558720412 -0.1938099196
H   0.7797715104 -0.2462883500  1.0630925169
H   1.0711489008 -1.3000025918 -0.9513939642
H   2.2985510536 -0.7218776985  0.3365657353
7
Iter 43  Energy = -29.6073091692
C   0.8781748066  0.7838213602 -0.1634523342
H   0.6956905874  1.5579543373 -0.9204715620
O   0.5277228350  0.9726497180  1.1234147558
C   1.3502431953 -0.5558703320 -0.1938284761
H   0.7797274208 -0.2463218320  1.0630526202
H   1.0710612379 -1.3001079841 -0.9512610683
H   2.2986215413 -0.7217586130  0.3364853180
7
Iter 44  Energy = -29.6073098099
C   0.8781781477  0.7838262464 -0.1634703342
H   0.6957867649  1.5580412219 -0.9204320286
O   0.5276666429  0.9725748901  1.1233991242
C   1.3502595471 -0.5558670513 -0.1938462289
H   0.7796843526 -0.2463544731  1.0630134754
H   1.0709744998 -1.3002128316 -0.9511297316
H   2.2986916701 -0.7216413475  0.3364049772
7
Iter 45  Energy = -29.6073104358
C   0.8781806074  0.7838327675 -0.1634892253
H   0.6958825918  1.5581270046 -0.9203921815
O   0.5276100017  0.9725009464  1.1233837377
C   1.3502759505 -0.5558655326 -0.1938639610
H   0.7796422612 -0.2463865109  1.0629754389
H   1.0708888670 -1.3003163065 -0.9509993435
H   2.2987613447 -0.7215257142  0.3363247875
7
Iter 46  Energy = -29.6073110765
C   0.8781830681  0.7838374509 -0.1635070503
H   0.6959777753  1.5582128385 -0.9203529535
O   0.5275530564  0.9724278816  1.1233678371
C   1.3502917705 -0.5558627419 -0.1938810290
H   0.7796011391 -0.2464177912  1.0629381454
H   1.0708041364 -1.3004191659 -0.9508704156
H   2.2988306794 -0.7214118168  0.3362447179
7
Iter 47  Energy = -29.6073116130
C   0.8781847436  0.7838434820 -0.1635255981
H   0.6960725930  1.5582976455 -0.9203135068
O   0.5274957114  0.9723556736  1.1233521479
C   1.3503076431 -0.5558614126 -0.1938980396
H   0.7795609439 -0.2464484908  1.0629019095
H   1.0707204442 -1.3005207534 -0.9507424691
H   2.2988995460 -0.7212994889  0.3361648081
7
Iter 48  Energy = -29.6073121941
C   0.8781863801  0.7838479880 -0.1635432227
H   0.6961667905  1.5583824139 -0.9202746416
O   0.5274380937  0.9722843229  1.1233360231
C   1.3503230328 -0.5558590493 -0.1939143836
H   0.7795216812 -0.2464785337  1.0628663761
H   1.0706376190 -1.3006216880 -0.9506159129
H   2.2989680281 -0.7211887996  0.3360850148
7
Iter 49  Energy = -29.6073128498
C   0.8781873220  0.7838535865 -0.1635613586
H   0.6962605989  1.5584662261 -0.9202356260
O   0.5273801293  0.9722138034  1.1233200211
C   1.3503383828 -0.5558579031 -0.1939306661
H   0.7794833087 -0.2465080146  1.0628317973
H   1.0705557787 -1.3007214143 -0.9504903369
H   2.2990361054 -0.7210796306  0.3360054225
7
Iter 50  Energy = -29.6073134011
C   0.8781881981  0.7838578858 -0.1635787427
H   0.6963538150  1.5585498992 -0.9201971303
O   0.5273219113  0.9721441046  1.1233036847
C   1.3503533122 -0.5558558974 -0.1939463560
H   0.7794458136 -0.2465368630  1.0627979181
H   1.0704747572 -1.3008204529 -0.9503661054
H   2.2991038185 -0.7209720229  0.3359259852
7
Iter 51  Energy = -29.6073139375
C   0.8781884816  0.7838630470 -0.1635965296
H   0.6964466263  1.5586326917 -0.9201585747
O   0.5272633821  0.9720752217  1.1232874689
C   1.3503681429 -0.5558548905 -0.1939619223
H   0.7794091805 -0.2465652122  1.0627648941
H   1.0703946782 -1.3009183316 -0.9502428359
H   2.2991711344 -0.7208658722  0.3358467515
7
Iter 52  Energy = -29.6073144591
C   0.8781886625  0.7838671418 -0.1636136690
H   0.6965388720  1.5587152455 -0.9201204750
O   0.5272046395  0.9720070966  1.1232709504
C   1.3503826374 -0.5558531888 -0.1939769538
H   0.7793733767 -0.2465929407  1.0627325624
H   1.0703153971 -1.3010154912 -0.9501208400
H   2.2992380403 -0.7207612094  0.3357676755
7
Iter 53  Energy = -29.6073150253
C   0.8781883013  0.7838719821 -0.1636311163
H   0.6966307008  1.5587969751 -0.9200823784
O   0.5271456253  0.9719397698  1.1232545349
C   1.3503970570 -0.5558523628 -0.1939918431
H   0.7793383878 -0.2466202115  1.0627010537
H   1.0702369976 -1.3011115536 -0.9499998209
H   2.2993045562 -0.7206579445  0.3356888204
7
Iter 54  Energy = -29.6073155171
C   0.8781878249  0.7838758957 -0.1636479644
H   0.6967219781  1.5588784106 -0.9200447066
O   0.5270864177  0.9718732063  1.1232378543
C   1.3504111435 -0.5558509668 -0.1940062847
H   0.7793041938 -0.2466469191  1.0626702095
H   1.0701593708 -1.3012068679 -0.9498800154
H   2.2993706973 -0.7205561039  0.3356101581
7
Iter 55  Energy = -29.6073160833
C   0.8781868815  0.7838804008 -0.1636650745
H   0.6968128311  1.5589590545 -0.9200070740
O   0.5270269767  0.9718073922  1.1232212697
C   1.3504251385 -0.5558502647 -0.1940205532
H   0.7792707729 -0.2466731806  1.0626401434
H   1.0700825888 -1.3013011373 -0.9497611790
H   2.2994364361 -0.7204556095  0.3355317192
7
Iter 56  Energy = -29.6073165900
C   0.8781858177  0.7838841201 -0.1636816994
H   0.6969031435  1.5590393738 -0.9199698523
O   0.5269673808  0.9717422133  1.1232045096
C   1.3504388546 -0.5558491182 -0.1940344420
H   0.7792380737 -0.2466987905  1.0626107742
H   1.0700065565 -1.3013946633 -0.9496435345
H   2.2995017986 -0.7203564797  0.3354534953
7
Iter 57  Energy = -29.6073170370
C   0.8781843552  0.7838882582 -0.1636984777
H   0.6969930173  1.5591189482 -0.9199327072
O   0.5269075783  0.9716777893  1.1231878111
C   1.3504524926 -0.5558485480 -0.1940481766
H   0.7792061112 -0.2467239766  1.0625821537
H   1.0699313249 -1.3014871809 -0.9495268571
H   2.2995667462 -0.7202586346  0.3353755048
7
Iter 58  Energy = -29.6073175585
C   0.8781827415  0.7838918153 -0.1637148445
H   0.6970823769  1.5591981170 -0.9198959308
O   0.5268476312  0.9716140886  1.1231709638
C   1.3504658351 -0.5558476496 -0.1940615126
H   0.7791748770 -0.2467487066  1.0625541247
H   1.0698568188 -1.3015789161 -0.9494112923
H   2.2996313455 -0.7201620924  0.3352977430
7
Iter 59  Energy = -29.6073180652
C   0.8781807586  0.7838957117 -0.1637312559
H   0.6971712877  1.5592765845 -0.9198592809
O   0.5267875321  0.9715510939  1.1231541185
C   1.3504790691 -0.5558472237 -0.1940746481
H   0.7791443463 -0.2467730362  1.0625267765
H   1.0697830744 -1.3016696831 -0.9492966869
H   2.2996955568 -0.7200667916  0.3352202287
7
Iter 60  Energy = -29.6073185420
C   0.8781786435  0.7838990610 -0.1637472768
H   0.6972596820  1.5593546413 -0.9198229947
O   0.5267273085  0.9714887908  1.1231371552
C   1.3504920493 -0.5558465208 -0.1940874646
H   0.7791144983 -0.2467969099  1.0625000220
H   1.0697100327 -1.3017596651 -0.9491831500
H   2.2997594102 -0.7199727421  0.3351429614
7
Iter 61  Energy = -29.6073190486
C   0.8781761929  0.7839027067 -0.1637634070
H   0.6973476364  1.5594319993 -0.9197868404
O   0.5266669426  0.9714271829  1.1231202786
C   1.3505049373 -0.5558462306 -0.1941000620
H   0.7790853190 -0.2468203997  1.0624739069
H   1.0696377152 -1.3018487170 -0.9490705717
H   2.2998228814 -0.7198798865  0.3350659483
7
Iter 62  Energy = -29.6073194957
C   0.8781736026  0.7839058928 -0.1637791550
H   0.6974350836  1.5595089093 -0.9197510176
O   0.5266064945  0.9713662209  1.1231032470
C   1.3505175848 -0.5558456821 -0.1941123146
H   0.7790567922 -0.2468434546  1.0624483531
H   1.0695660715 -1.3019369991 -0.9489590485
H   2.2998859961 -0.7197882327  0.3349891883
7
Iter 63  Energy = -29.6073199576
C   0.8781707125  0.7839093163 -0.1637949363
H   0.6975220793  1.5595851587 -0.9197153597
O   0.5265459324  0.9713059271  1.1230862783
C   1.3505301434 -0.5558455140 -0.1941243694
H   0.7790289041 -0.2468661387  1.0624233989
H   1.0694951292 -1.3020243668 -0.9488484493
H   2.2999487245 -0.7196977288  0.3349126891
7
Iter 64  Energy = -29.6073203749
C   0.8781676932  0.7839123349 -0.1638104004
H   0.6976085812  1.5596609390 -0.9196800312
O   0.5264852978  0.9712462801  1.1230692317
C   1.3505424920 -0.5558451180 -0.1941361099
H   0.7790016318 -0.2468884262  1.0623989920
H   1.0694248371 -1.3021109809 -0.9487388787
H   2.3000110923 -0.7196083754  0.3348364481
7
Iter 65  Energy = -29.6073208368
C   0.8781644013  0.7839155541 -0.1638258488
H   0.6976946309  1.5597360631 -0.9196448692
O   0.5264245883  0.9711872619  1.1230522054
C   1.3505547129 -0.5558450640 -0.1941476604
H   0.7789749678 -0.2469103553  1.0623751330
H   1.0693552210 -1.3021966798 -0.9486301961
H   2.3000731024 -0.7195201252  0.3347604881
7
Iter 66  Energy = -29.6073212540
C   0.8781609847  0.7839183938 -0.1638410027
H   0.6977801873  1.5598107282 -0.9196100393
O   0.5263638292  0.9711288608  1.1230351282
C   1.3505667655 -0.5558448173 -0.1941588860
H   0.7789488966 -0.2469318982  1.0623517811
H   1.0692862277 -1.3022816341 -0.9485225171
H   2.3001347338 -0.7194329787  0.3346847900
7
Iter 67  Energy = -29.6073217160
C   0.8781573065  0.7839214628 -0.1638561638
H   0.6978653008  1.5598847262 -0.9195753861
O   0.5263030158  0.9710710558  1.1230181026
C   1.3505786832 -0.5558448803 -0.1941699614
H   0.7789233935 -0.2469530923  1.0623289966
H   1.0692178881 -1.3023657134 -0.9484157281
H   2.3001960368 -0.7193469042  0.3346093943
7
Iter 68  Energy = -29.6073221332
C   0.8781535331  0.7839241287 -0.1638710230
H   0.6979499185  1.5599582698 -0.9195410587
O   0.5262421703  0.9710138596  1.1230010209
C   1.3505904292 -0.5558447375 -0.1941807526
H   0.7788984454 -0.2469739154  1.0623067118
H   1.0691501513 -1.3024490580 -0.9483099184
H   2.3002569771 -0.7192618934  0.3345342724
7
Iter 69  Energy = -29.6073225206
C   0.8781495247  0.7839269940 -0.1638858672
H   0.6980340914  1.5600311676 -0.9195069293
O   0.5261812836  0.9709572721  1.1229840082
C   1.3506020635 -0.5558449168 -0.1941913858
H   0.7788740502 -0.2469944356  1.0622849371
H   1.0690830470 -1.3025315263 -0.9482049575
H   2.3003175639 -0.7191779025  0.3344594452
7
Iter 70  Energy = -29.6073229826
C   0.8781454120  0.7839295398 -0.1639004230
H   0.6981177744  1.5601035958 -0.9194731154
O   0.5261203958  0.9709012531  1.1229669384
C   1.3506135409 -0.5558449099 -0.1942017112
H   0.7788501844 -0.2470146009  1.0622636257
H   1.0690165190 -1.3026132883 -0.9481009661
H   2.3003777979 -0.7190949372  0.3343849026
7
Iter 71  Energy = -29.6073233849
C   0.8781410817  0.7839322527 -0.1639149627
H   0.6982010151  1.5601753825 -0.9194394864
O   0.5260594942  0.9708457978  1.1229499259
C   1.3506249115 -0.5558451729 -0.1942118879
H   0.7788268388 -0.2470344473  1.0622428176
H   1.0689506036 -1.3026941975 -0.9479978143
H   2.3004376804 -0.7190129631  0.3343106591
7
Iter 72  Energy = -29.6073237425
C   0.8781366548  0.7839346541 -0.1639292140
H   0.6982837730  1.5602466970 -0.9194061716
O   0.5259986055  0.9707909152  1.1229328668
C   1.3506361132 -0.5558452779 -0.1942217787
H   0.7788040046 -0.2470539771  1.0622224231
H   1.0688852509 -1.3027743833 -0.9478955817
H   2.3004972225 -0.7189319758  0.3342367081
7
Iter 73  Energy = -29.6073241448
C   0.8781320297  0.7839372261 -0.1639434390
H   0.6983660848  1.5603173826 -0.9193730492
O   0.5259377269  0.9707365753  1.1229158603
C   1.3506472075 -0.5558456353 -0.1942315172
H   0.7787816614 -0.2470732099  1.0622025050
H   1.0688204910 -1.3028537432 -0.9477941722
H   2.3005564237 -0.7188519441  0.3341630637
7
Iter 74  Energy = -29.6073245025
C   0.8781273304  0.7839394957 -0.1639574307
H   0.6984479202  1.5603875885 -0.9193402333
O   0.5258768679  0.9706827950  1.1228988547
C   1.3506581501 -0.5558458313 -0.1942410044
H   0.7787598032 -0.2470921377  1.0621830168
H   1.0687562753 -1.3029324003 -0.9476936716
H   2.3006152779 -0.7187728589  0.3340897196
7
Iter 75  Energy = -29.6073249048
C   0.8781224546  0.7839418892 -0.1639713630
H   0.6985293091  1.5604571825 -0.9193076082
O   0.5258160370  0.9706295526  1.1228818873
C   1.3506689973 -0.5558462276 -0.1942503279
H   0.7787384096 -0.2471107803  1.0621639726
H   1.0686926229 -1.3030102720 -0.9475939954
H   2.3006737945 -0.7186946927  0.3340166849
7
Iter 76  Energy = -29.6073252326
C   0.8781174924  0.7839440608 -0.1639850566
H   0.6986102257  1.5605262922 -0.9192752871
O   0.5257552571  0.9705768242  1.1228649043
C   1.3506796846 -0.5558465247 -0.1942594066
H   0.7787174810 -0.2471291320  1.0621453196
H   1.0686295099 -1.3030874251 -0.9474951779
H   2.3007319743 -0.7186174435  0.3339439552
7
Iter 77  Energy = -29.6073256201
C   0.8781123841  0.7839462899 -0.1639987019
H   0.6986906929  1.5605948241 -0.9192431891
O   0.5256945103  0.9705246319  1.1228480033
C   1.3506902868 -0.5558469882 -0.1942683477
H   0.7786969923 -0.2471472170  1.0621271080
H   1.0685669417 -1.3031638014 -0.9473971629
H   2.3007898166 -0.7185410864  0.3338715408
7
Iter 78  Energy = -29.6073259777
C   0.8781071851  0.7839483420 -0.1640121254
H   0.6987706945  1.5606628547 -0.9192113689
O   0.5256338362  0.9704729131  1.1228310859
C   1.3507007734 -0.5558473700 -0.1942770429
H   0.7786769343 -0.2471649858  1.0621092817
H   1.0685048888 -1.3032394912 -0.9473000096
H   2.3008473124 -0.7184656098  0.3337994304
7
Iter 79  Energy = -29.6073263055
C   0.8781018467  0.7839504831 -0.1640255077
H   0.6988502537  1.5607302990 -0.9191797567
O   0.5255732163  0.9704217021  1.1228142469
C   1.3507111586 -0.5558479230 -0.1942855959
H   0.7786573003 -0.2471825003  1.0620918623
H   1.0684433676 -1.3033144191 -0.9472036399
H   2.3009044819 -0.7183909889  0.3337276426
7
Iter 80  Energy = -29.6073266631
C   0.8780964406  0.7839523928 -0.1640386498
H   0.6989293476  1.5607972627 -0.9191484336
O   0.5255126815  0.9703709690  1.1227973871
C   1.3507214336 -0.5558483441 -0.1942939214
H   0.7786380709 -0.2471997270  1.0620748216
H   1.0683823396 -1.3033886778 -0.9471081149
H   2.3009613117 -0.7183172225  0.3336561620
7
Iter 81  Energy = -29.6073270804
C   0.8780909141  0.7839543861 -0.1640517372
H   0.6990079977  1.5608636542 -0.9191173204
O   0.5254522114  0.9703207562  1.1227805996
C   1.3507315778 -0.5558489337 -0.1943021282
H   0.7786192524 -0.2472167404  1.0620581646
H   1.0683218335 -1.3034621854 -0.9470133441
H   2.3010178383 -0.7182442843  0.3335850177
7
Iter 82  Energy = -29.6073273635
C   0.8780853230  0.7839561985 -0.1640646194
H   0.6990861896  1.5609295586 -0.9190865008
O   0.5253918355  0.9702709925  1.1227638445
C   1.3507415983 -0.5558494279 -0.1943101280
H   0.7786008203 -0.2472334571  1.0620418658
H   1.0682618167 -1.3035350400 -0.9469194037
H   2.3010740420 -0.7181721721  0.3335141932
7
Iter 83  Energy = -29.6073276615
C   0.8780796011  0.7839581161 -0.1640774429
H   0.6991639415  1.5609948853 -0.9190558738
O   0.5253315518  0.9702216931  1.1227471401
C   1.3507515650 -0.5558500654 -0.1943179547
H   0.7785827722 -0.2472499353  1.0620259229
H   1.0682022964 -1.3036071779 -0.9468262201
H   2.3011298969 -0.7181008631  0.3334436800
7
Iter 84  Energy = -29.6073280639
C   0.8780738340  0.7839598249 -0.1640900472
H   0.6992412345  1.5610597472 -0.9190255473
O   0.5252713720  0.9701728703  1.1227304447
C   1.3507613988 -0.5558506340 -0.1943256214
H   0.7785650957 -0.2472661849  1.0620103356
H   1.0681432537 -1.3036786264 -0.9467338068
H   2.3011854363 -0.7180303433  0.3333734934
7
Iter 85  Energy = -29.6073283768
C   0.8780679578  0.7839616381 -0.1641026132
H   0.6993180912  1.5611240351 -0.9189954075
O   0.5252112964  0.9701244896  1.1227138222
C   1.3507711321 -0.5558513324 -0.1943331267
H   0.7785477841 -0.2472821934  1.0619950822
H   1.0680846976 -1.3037493814 -0.9466421422
H   2.3012406660 -0.7179606006  0.3333036369
7
Iter 86  Energy = -29.6073286301
C   0.8780620472  0.7839632341 -0.1641149919
H   0.6993944932  1.5611878620 -0.9189655608
O   0.5251513215  0.9700765720  1.1226972668
C   1.3507807893 -0.5558519304 -0.1943404487
H   0.7785308217 -0.2472979479  1.0619801634
H   1.0680266016 -1.3038195075 -0.9465512677
H   2.3012955508 -0.7178916271  0.3332340900
7
Iter 87  Energy = -29.6073289728
C   0.8780560317  0.7839649046 -0.1641272866
H   0.6994704579  1.5612511458 -0.9189359272
O   0.5250914654  0.9700290994  1.1226807665
C   1.3507903368 -0.5558526738 -0.1943476504
H   0.7785142069 -0.2473134899  1.0619655671
H   1.0679689817 -1.3038889248 -0.9464611019
H   2.3013501442 -0.7178234059  0.3331648841
7
Iter 88  Energy = -29.6073292857
C   0.8780499610  0.7839664405 -0.1641393804
H   0.6995459761  1.5613139429 -0.9189065541
O   0.5250317408  0.9699820712  1.1226642771
C   1.3507997834 -0.5558533459 -0.1943546759
H   0.7784979310 -0.2473288120  1.0619512796
H   1.0679118127 -1.3039577111 -0.9463716952
H   2.3014044193 -0.7177559299  0.3330960030
7
Iter 89  Energy = -29.6073296583
C   0.8780438006  0.7839680198 -0.1641513848
H   0.6996210633  1.5613761933 -0.9188773873
O   0.5249721543  0.9699354664  1.1226478220
C   1.3508091876 -0.5558540820 -0.1943615495
H   0.7784819755 -0.2473439275  1.0619373303
H   1.0678550926 -1.3040258374 -0.9462830170
H   2.3014583502 -0.7176891766  0.3330274398
7
Iter 90  Energy = -29.6073299116
C   0.8780376157  0.7839694389 -0.1641632286
H   0.6996956998  1.5614379837 -0.9188484788
O   0.5249127064  0.9698892335  1.1226314179
C   1.3508184793 -0.5558547970 -0.1943683149
H   0.7784663191 -0.2473587375  1.0619237121
H   1.0677988251 -1.3040933200 -0.9461950665
H   2.3015119789 -0.7176231441  0.3329592121
7
Iter 91  Energy = -29.6073302096
C   0.8780313616  0.7839708991 -0.1641750295
H   0.6997699082  1.5614992419 -0.9188197886
O   0.5248533869  0.9698434331  1.1226151180
C   1.3508276830 -0.5558555703 -0.1943749182
H   0.7784509853 -0.2473733736  1.0619103786
H   1.0677429995 -1.3041601554 -0.9461078212
H   2.3015652996 -0.7175578171  0.3328913147
7
Iter 92  Energy = -29.6073304778
C   0.8780250713  0.7839722496 -0.1641866718
H   0.6998436720  1.5615600302 -0.9187913523
O   0.5247942101  0.9697980563  1.1225988688
C   1.3508368181 -0.5558563233 -0.1943813681
H   0.7784359561 -0.2473877975  1.0618973368
H   1.0676876085 -1.3042263727 -0.9460212967
H   2.3016182881 -0.7174931857  0.3328237373
7
Iter 93  Energy = -29.6073307461
C   0.8780187482  0.7839735267 -0.1641982283
H   0.6999170018  1.5616203221 -0.9187631303
O   0.5247351974  0.9697529896  1.1225826653
C   1.3508458333 -0.5558570563 -0.1943877447
H   0.7784211933 -0.2474019181  1.0618846508
H   1.0676326557 -1.3042919588 -0.9459354670
H   2.3016709947 -0.7174292484  0.3327565090
7
Iter 94  Energy = -29.6073310441
C   0.8780123517  0.7839748460 -0.1642096644
H   0.6999899044  1.5616801032 -0.9187351192
O   0.5246763348  0.9697083169  1.1225665202
C   1.3508548067 -0.5558578576 -0.1943939709
H   0.7784067170 -0.2474158275  1.0618722167
H   1.0675781180 -1.3043569377 -0.9458503298
H   2.3017233921 -0.7173659854  0.3326896019
7
Iter 95  Energy = -29.6073312974
C   0.8780059108  0.7839761252 -0.1642209726
H   0.7000623775  1.5617394045 -0.9187073521
O   0.5246176256  0.9696640267  1.1225504559
C   1.3508637136 -0.5558586720 -0.1944000531
H   0.7783925180 -0.2474295208  1.0618600382
H   1.0675239982 -1.3044213162 -0.9457658764
H   2.3017754802 -0.7173033896  0.3326230147
7
Iter 96  Energy = -29.6073316103
C   0.8779994317  0.7839773751 -0.1642321452
H   0.7001344212  1.5617982205 -0.9186798110
O   0.5245590728  0.9696201276  1.1225344445
C   1.3508725097 -0.5558594859 -0.1944059982
H   0.7783786019 -0.2474430282  1.0618480919
H   1.0674702889 -1.3044850957 -0.9456820943
H   2.3018272975 -0.7172414547  0.3325567672
7
Iter 97  Energy = -29.6073318934
C   0.8779929080  0.7839786082 -0.1642431833
H   0.7002060399  1.5618565526 -0.9186524864
O   0.5245006912  0.9695766021  1.1225184689
C   1.3508812007 -0.5558602916 -0.1944118081
H   0.7783649560 -0.2474563494  1.0618363865
H   1.0674169845 -1.3045482925 -0.9455989825
H   2.3018788434 -0.7171801697  0.3324908608
7
Iter 98  Energy = -29.6073321915
C   0.8779863455  0.7839798148 -0.1642541126
H   0.7002772314  1.5619144197 -0.9186253965
O   0.5244424782  0.9695334245  1.1225025696
C   1.3508898770 -0.5558611392 -0.1944174788
H   0.7783515621 -0.2474694546  1.0618249360
H   1.0673640767 -1.3046108928 -0.9455165242
H   2.3019300526 -0.7171195129  0.3324252630
7
Iter 99  Energy = -29.6073323852
C   0.8779797618  0.7839809767 -0.1642649410
H   0.7003479992  1.5619718164 -0.9185985280
O   0.5243844270  0.9694906204  1.1224867461
C   1.3508984452 -0.5558619701 -0.1944230518
H   0.7783384190 -0.2474823770  1.0618137343
H   1.0673115634 -1.3046729117 -0.9454347149
H   2.3019810077 -0.7170594949  0.3323600128
7
Iter 100  Energy = -29.6073326236
C   0.8779731433  0.7839821307 -0.1642756480
H   0.7004183431  1.5620287447 -0.9185718745
O   0.5243265505  0.9694481983  1.1224709714
C   1.3509069554 -0.5558628332 -0.1944284963
H   0.7783255275 -0.2474951456  1.0618027603
H   1.0672594476 -1.3047343429 -0.9453535339
H   2.3020316565 -0.7170000924  0.3322950779
7
Iter 101  Energy = -29.6073329216
C   0.8779664958  0.7839832479 -0.1642862237
H   0.7004882679  1.5620852071 -0.9185454347
O   0.5242688472  0.9694061515  1.1224552577
C   1.3509154121 -0.5558636882 -0.1944337834
H   0.7783128847 -0.2475077451  1.0617919754
H   1.0672077105 -1.3047952165 -0.9452729937
H   2.3020820058 -0.7169412957  0.3322304601
7
Iter 102  Energy = -29.6073331302
C   0.8779598286  0.7839843104 -0.1642966776
H   0.7005577699  1.5621412297 -0.9185192321
O   0.5242113218  0.9693644498  1.1224396189
C   1.3509238145 -0.5558645456 -0.1944389732
H   0.7783004699 -0.2475201531  1.0617814315
H   1.0671563579 -1.3048555269 -0.9451930812
H   2.3021320605 -0.7168831032  0.3321661695
7
Iter 103  Energy = -29.6073334283
C   0.8779531389  0.7839853654 -0.1643070379
H   0.7006268552  1.5621967889 -0.9184932344
O   0.5241539726  0.9693231447  1.1224240428
C   1.3509321469 -0.5558653927 -0.1944440361
H   0.7782882916 -0.2475324564  1.0617711022
H   1.0671053756 -1.3049152850 -0.9451137925
H   2.3021818425 -0.7168255039  0.3321022104
7
Iter 104  Energy = -29.6073336667
C   0.8779464381  0.7839863884 -0.1643172982
H   0.7006955233  1.5622519002 -0.9184674496
O   0.5240968127  0.9692821458  1.1224085474
C   1.3509404235 -0.5558662377 -0.1944490023
H   0.7782763200 -0.2475445378  1.0617610044
H   1.0670547671 -1.3049745056 -0.9450351239
H   2.3022313381 -0.7167684923  0.3320385775
7
Iter 105  Energy = -29.6073339647
C   0.8779397072  0.7839874297 -0.1643274372
H   0.7007637836  1.5623065464 -0.9184418724
O   0.5240398429  0.9692415000  1.1223931017
C   1.3509485983 -0.5558670765 -0.1944538996
H   0.7782645660 -0.2475564881  1.0617511164
H   1.0670045284 -1.3050331844 -0.9449570465
H   2.3022805969 -0.7167120664  0.3319752920
7
Iter 106  Energy = -29.6073341435
C   0.8779329543  0.7839884398 -0.1643374540
H   0.7008316350  1.5623607424 -0.9184165053
O   0.5239830583  0.9692012104  1.1223777254
C   1.3509567784 -0.5558679103 -0.1944586704
H   0.7782530216 -0.2475682883  1.0617414244
H   1.0669546425 -1.3050913319 -0.9448795753
H   2.3023295339 -0.7166562023  0.3319123093
7
Iter 107  Energy = -29.6073343819
C   0.8779261908  0.7839894138 -0.1643473459
H   0.7008990790  1.5624144923 -0.9183913493
O   0.5239264625  0.9691612614  1.1223624222
C   1.3509648798 -0.5558687404 -0.1944633702
H   0.7782416841 -0.2475799258  1.0617319237
H   1.0669051238 -1.3051489391 -0.9448026854
H   2.3023782037 -0.7166009026  0.3318496589
7
Iter 108  Energy = -29.6073345608
C   0.8779194201  0.7839903662 -0.1643571525
H   0.7009661157  1.5624678060 -0.9183664035
O   0.5238700573  0.9691216417  1.1223472169
C   1.3509729218 -0.5558695575 -0.1944679658
H   0.7782305456 -0.2475914075  1.0617226076
H   1.0668559509 -1.3052060331 -0.9447263907
H   2.3024266127 -0.7165461565  0.3317873412
7
Iter 109  Energy = -29.6073348290
C   0.8779126270  0.7839913017 -0.1643668210
H   0.7010327483  1.5625206791 -0.9183416584
O   0.5238138619  0.9690823523  1.1223320385
C   1.3509809276 -0.5558703730 -0.1944724706
H   0.7782196003 -0.2476027472  1.0617135011
H   1.0668071343 -1.3052626023 -0.9446506748
H   2.3024747246 -0.7164919516  0.3317253393
7
Iter 110  Energy = -29.6073350376
C   0.8779058346  0.7839922162 -0.1643763987
H   0.7010989767  1.5625731264 -0.9183171345
O   0.5237578545  0.9690433893  1.1223169730
C   1.3509889014 -0.5558711842 -0.1944768754
H   0.7782088417 -0.2476139382  1.0617045745
H   1.0667586566 -1.3053186689 -0.9445755461
H   2.3025225581 -0.7164382810  0.3316636601
7
Iter 111  Energy = -29.6073353505
C   0.8778990395  0.7839931144 -0.1643858772
H   0.7011648009  1.5626251482 -0.9182928049
O   0.5237020517  0.9690047483  1.1223019747
C   1.3509968181 -0.5558720190 -0.1944812138
H   0.7781982674 -0.2476249840  1.0616958463
H   1.0667105313 -1.3053742132 -0.9445009761
H   2.3025701148 -0.7163851344  0.3316023057
7
Iter 112  Energy = -29.6073354995
C   0.8778922436  0.7839939803 -0.1643952678
H   0.7012302247  1.5626767485 -0.9182686755
O   0.5236464549  0.9689664252  1.1222870516
C   1.3510046435 -0.5558728143 -0.1944854323
H   0.7781878849 -0.2476359045  1.0616872691
H   1.0666627458 -1.3054292585 -0.9444269721
H   2.3026174267 -0.7163325171  0.3315412841
7
Iter 113  Energy = -29.6073357081
C   0.8778854243  0.7839948818 -0.1644045532
H   0.7012952562  1.5627279042 -0.9182447343
O   0.5235910628  0.9689284207  1.1222721970
C   1.3510124612 -0.5558736311 -0.1944895867
H   0.7781776698 -0.2476466788  1.0616788968
H   1.0666152905 -1.3054838230 -0.9443535490
H   2.3026644593 -0.7162804138  0.3314805864
7
Iter 114  Energy = -29.6073359317
C   0.8778786335  0.7839956888 -0.1644137350
H   0.7013598857  1.5627786653 -0.9182210106
O   0.5235358823  0.9688907134  1.1222574241
C   1.3510202093 -0.5558743949 -0.1944936110
H   0.7781676370 -0.2476573175  1.0616706649
H   1.0665681713 -1.3055378842 -0.9442806722
H   2.3027112050 -0.7162288106  0.3314201982
7
Iter 115  Energy = -29.6073361403
C   0.8778718295  0.7839965189 -0.1644228375
H   0.7014241222  1.5628289921 -0.9181974520
O   0.5234809098  0.9688533275  1.1222427117
C   1.3510279167 -0.5558751793 -0.1944975792
H   0.7781577686 -0.2476678307  1.0616626173
H   1.0665213886 -1.3055914535 -0.9442083368
H   2.3027576881 -0.7161777153  0.3313601350
7
Iter 116  Energy = -29.6073363638
C   0.8778650327  0.7839973183 -0.1644318176
H   0.7014879623  1.5628789299 -0.9181741147
O   0.5234261528  0.9688162357  1.1222280751
C   1.3510355446 -0.5558759609 -0.1945014539
H   0.7781480743 -0.2476782150  1.0616547106
H   1.0664749344 -1.3056445364 -0.9441365426
H   2.3028039228 -0.7161271125  0.3313004029
7
Iter 117  Energy = -29.6073365426
C   0.8778582422  0.7839981040 -0.1644407245
H   0.7015514120  1.5629284570 -0.9181509649
O   0.5233716020  0.9687794670  1.1222135313
C   1.3510431519 -0.5558767495 -0.1945052529
H   0.7781385376 -0.2476884871  1.0616469806
H   1.0664288026 -1.3056971430 -0.9440652925
H   2.3028498755 -0.7160769885  0.3312409831
7
Iter 118  Energy = -29.6073367512
C   0.8778514583  0.7839988422 -0.1644495194
H   0.7016144706  1.5629775890 -0.9181280011
O   0.5233172683  0.9687429928  1.1221990556
C   1.3510506943 -0.5558775279 -0.1945090006
H   0.7781291495 -0.2476986004  1.0616394182
H   1.0663829930 -1.3057492886 -0.9439945887
H   2.3028955891 -0.7160273474  0.3311818972
7
Iter 119  Energy = -29.6073369151
C   0.8778446717  0.7839996075 -0.1644582371
H   0.7016771403  1.5630263169 -0.9181052213
O   0.5232631602  0.9687067981  1.1221846476
C   1.3510581825 -0.5558783341 -0.1945126482
H   0.7781199271 -0.2477086023  1.0616319891
H   1.0663375109 -1.3058009474 -0.9439243952
H   2.3029410307 -0.7159781801  0.3311231280
7
Iter 120  Energy = -29.6073370940
C   0.8778379020  0.7840003355 -0.1644669163
H   0.7017394271  1.5630746403 -0.9180826108
O   0.5232092872  0.9686707784  1.1221703348
C   1.3510657088 -0.5558791113 -0.1945162576
H   0.7781108001 -0.2477183345  1.0616248247
H   1.0662923367 -1.3058521759 -0.9438547737
H   2.3029861610 -0.7159294742  0.3310646629
7
Iter 121  Energy = -29.6073373026
C   0.8778311693  0.7840009559 -0.1644754350
H   0.7018013187  1.5631226179 -0.9180602275
O   0.5231556520  0.9686350208  1.1221560415
C   1.3510731096 -0.5558797797 -0.1945197716
H   0.7781018301 -0.2477279577  1.0616178012
H   1.0662474808 -1.3059029600 -0.9437856761
H   2.3030310625 -0.7158812392  0.3310065317
7
Iter 122  Energy = -29.6073375410
C   0.8778244170  0.7840016685 -0.1644838900
H   0.7018628342  1.5631701750 -0.9180380033
O   0.5231022463  0.9685995586  1.1221418118
C   1.3510804682 -0.5558805584 -0.1945232665
H   0.7780930061 -0.2477374865  1.0616109502
H   1.0662029493 -1.3059532520 -0.9437170656
H   2.3030757015 -0.7158334471  0.3309487280
7
Iter 123  Energy = -29.6073376900
C   0.8778176965  0.7840022832 -0.1644922475
H   0.7019239645  1.5632173739 -0.9180159818
O   0.5230490669  0.9685643714  1.1221276548
C   1.3510877999 -0.5558812381 -0.1945266165
H   0.7780843271 -0.2477469044  1.0616042290
H   1.0661587104 -1.3060031265 -0.9436489995
H   2.3031200563 -0.7157861023  0.3308912263
7
Iter 124  Energy = -29.6073378539
C   0.8778109819  0.7840029437 -0.1645005554
H   0.7019847226  1.5632641656 -0.9179941161
O   0.5229961105  0.9685294588  1.1221135823
C   1.3510950666 -0.5558819652 -0.1945299204
H   0.7780757905 -0.2477562053  1.0615976520
H   1.0661147887 -1.3060525440 -0.9435814272
H   2.3031641613 -0.7157391956  0.3308340492
7
Iter 125  Energy = -29.6073380774
C   0.8778042883  0.7840035242 -0.1645087278
H   0.7020450979  1.5633106028 -0.9179724488
O   0.5229433904  0.9684948391  1.1220995470
C   1.3511022630 -0.5558826383 -0.1945331297
H   0.7780674011 -0.2477654247  1.0615911920
H   1.0660711636 -1.3061015213 -0.9435143596
H   2.3032080176 -0.7156927234  0.3307771929
7
Iter 126  Energy = -29.6073381966
C   0.8777975929  0.7840041612 -0.1645168682
H   0.7021051038  1.5633566374 -0.9179509289
O   0.5228908876  0.9684605138  1.1220856085
C   1.3511094573 -0.5558833792 -0.1945362963
H   0.7780591427 -0.2477745540  1.0615848828
H   1.0660278410 -1.3061500458 -0.9434477764
H   2.3032515971 -0.7156466750  0.3307206455
7
Iter 127  Energy = -29.6073384053
C   0.8777909232  0.7840047486 -0.1645248811
H   0.7021647296  1.5634023288 -0.9179296030
O   0.5228386274  0.9684264275  1.1220717090
C   1.3511165314 -0.5558840690 -0.1945393956
H   0.7780510138 -0.2477835586  1.0615786929
H   1.0659848228 -1.3061981541 -0.9433816892
H   2.3032949743 -0.7156010644  0.3306644341
7
Iter 128  Energy = -29.6073385990
C   0.8777842626  0.7840053348 -0.1645328322
H   0.7022239871  1.5634476433 -0.9179084426
O   0.5227865954  0.9683926123  1.1220578970
C   1.3511236055 -0.5558847682 -0.1945424045
H   0.7780430117 -0.2477924535  1.0615726368
H   1.0659420901 -1.3062458470 -0.9433161133
H   2.3033380703 -0.7155558626  0.3306085273
7
Iter 129  Energy = -29.6073387927
C   0.8777776260  0.7840058854 -0.1645406942
H   0.7022828694  1.5634926150 -0.9178874705
O   0.5227347981  0.9683590686  1.1220441469
C   1.3511306284 -0.5558854497 -0.1945453470
H   0.7780351369 -0.2478012699  1.0615667147
H   1.0658996563 -1.3062931132 -0.9432510113
H   2.3033809075 -0.7155110769  0.3305529295
7
Iter 130  Energy = -29.6073389864
C   0.8777709888  0.7840064726 -0.1645484840
H   0.7023413884  1.5635372092 -0.9178666572
O   0.5226832367  0.9683257893  1.1220304646
C   1.3511376142 -0.5558861836 -0.1945482181
H   0.7780273924 -0.2478099988  1.0615608952
H   1.0658575182 -1.3063399363 -0.9431863695
H   2.3034234847 -0.7154666940  0.3304976377
7
Iter 131  Energy = -29.6073390907
C   0.8777643832  0.7840070209 -0.1645561998
H   0.7023995424  1.5635814467 -0.9178460159
O   0.5226318983  0.9682927767  1.1220168798
C   1.3511445303 -0.5558868760 -0.1945510352
H   0.7780197655 -0.2478186190  1.0615551932
H   1.0658156639 -1.3063863729 -0.9431222234
H   2.3034658397 -0.7154227179  0.3304426700
7
Iter 132  Energy = -29.6073392248
C   0.8777577788  0.7840075903 -0.1645638350
H   0.7024573346  1.5636253237 -0.9178255385
O   0.5225808088  0.9682600047  1.1220033385
C   1.3511514341 -0.5558875761 -0.1945537777
H   0.7780122487 -0.2478271384  1.0615496399
H   1.0657740942 -1.3064324070 -0.9430585640
H   2.3035079243 -0.7153791372  0.3303880058
7
Iter 133  Energy = -29.6073394483
C   0.8777512077  0.7840080837 -0.1645713673
H   0.7025147599  1.5636688709 -0.9178052426
O   0.5225299492  0.9682275116  1.1219898751
C   1.3511582898 -0.5558882340 -0.1945564230
H   0.7780048602 -0.2478355843  1.0615441530
H   1.0657328061 -1.3064780356 -0.9429953654
H   2.3035497498 -0.7153359506  0.3303336396
7
Iter 134  Energy = -29.6073395824
C   0.8777446707  0.7840085820 -0.1645788795
H   0.7025718253  1.5637120684 -0.9177851074
O   0.5224793190  0.9681952504  1.1219765284
C   1.3511650643 -0.5558889213 -0.1945590438
H   0.7779975766 -0.2478439194  1.0615387899
H   1.0656918073 -1.3065232475 -0.9429326156
H   2.3035913599 -0.7152931499  0.3302795975
7
Iter 135  Energy = -29.6073397613
C   0.8777381395  0.7840090767 -0.1645862967
H   0.7026285323  1.5637549181 -0.9177651208
O   0.5224289370  0.9681632360  1.1219632001
C   1.3511718092 -0.5558895778 -0.1945616059
H   0.7779903980 -0.2478521640  1.0615335736
H   1.0656510824 -1.3065680870 -0.9428703478
H   2.3036327250 -0.7152507387  0.3302258659
7
Iter 136  Energy = -29.6073399252
C   0.8777316398  0.7840095413 -0.1645936245
H   0.7026848780  1.5637974373 -0.9177452983
O   0.5223787953  0.9681314518  1.1219499450
C   1.3511785137 -0.5558902622 -0.1945641265
H   0.7779833231 -0.2478602878  1.0615284629
H   1.0656106458 -1.3066125191 -0.9428085233
H   2.3036738284 -0.7152086981  0.3301724342
7
Iter 137  Energy = -29.6073400444
C   0.8777251630  0.7840100163 -0.1646009179
H   0.7027408717  1.5638396144 -0.9177256360
O   0.5223288761  0.9680999343  1.1219368041
C   1.3511851740 -0.5558909501 -0.1945665990
H   0.7779763530 -0.2478683383  1.0615234603
H   1.0655704800 -1.3066565767 -0.9427471577
H   2.3037147065 -0.7151670365  0.3301193153
7
Iter 138  Energy = -29.6073401785
C   0.8777186947  0.7840104874 -0.1646081251
H   0.7027965162  1.5638814487 -0.9177061282
O   0.5222791993  0.9680686766  1.1219237161
C   1.3511918177 -0.5558916374 -0.1945689788
H   0.7779694937 -0.2478763287  1.0615185393
H   1.0655305829 -1.3067002442 -0.9426862409
H   2.3037553205 -0.7151257392  0.3300664852
7
Iter 139  Energy = -29.6073404020
C   0.8777122523  0.7840109353 -0.1646152337
H   0.7028518034  1.5639229698 -0.9176867892
O   0.5222297682  0.9680376422  1.1219106841
C   1.3511983915 -0.5558923112 -0.1945712943
H   0.7779627317 -0.2478842198  1.0615137035
H   1.0654909578 -1.3067435408 -0.9426257700
H   2.3037957205 -0.7150848122  0.3300139672
7
Iter 140  Energy = -29.6073404914
C   0.8777058371  0.7840113619 -0.1646222675
H   0.7029067422  1.5639641598 -0.9176676062
O   0.5221805847  0.9680068238  1.1218977036
C   1.3512049408 -0.5558929643 -0.1945735610
H   0.7779560600 -0.2478920164  1.0615089988
H   1.0654515989 -1.3067864598 -0.9425657418
H   2.3038358619 -0.7150442413  0.3299617422
7
Iter 141  Energy = -29.6073406553
C   0.8776994381  0.7840118097 -0.1646292370
H   0.7029613364  1.5640050233 -0.9176485786
O   0.5221316304  0.9679762565  1.1218848196
C   1.3512114438 -0.5558936479 -0.1945757709
H   0.7779494932 -0.2478997367  1.0615043638
H   1.0654125048 -1.3068290171 -0.9425061532
H   2.3038757782 -0.7150040240  0.3299098252
7
Iter 142  Energy = -29.6073407894
C   0.8776930808  0.7840122057 -0.1646361781
H   0.7030155828  1.5640455688 -0.9176296970
O   0.5220829079  0.9679459310  1.1218720329
C   1.3512178991 -0.5558942818 -0.1945779229
H   0.7779430140 -0.2479073732  1.0614998384
H   1.0653736756 -1.3068712211 -0.9424470122
H   2.3039154647 -0.7149641655  0.3298582069
7
Iter 143  Energy = -29.6073409236
C   0.8776867266  0.7840126294 -0.1646430223
H   0.7030694883  1.5640857862 -0.9176109665
O   0.5220344348  0.9679158187  1.1218592983
C   1.3512243539 -0.5558949595 -0.1945800403
H   0.7779366210 -0.2479149101  1.0614954123
H   1.0653351149 -1.3069130478 -0.9423882848
H   2.3039548854 -0.7149246535  0.3298068718
7
Iter 144  Energy = -29.6073410428
C   0.8776804026  0.7840130182 -0.1646498021
H   0.7031230517  1.5641256842 -0.9175923765
O   0.5219862039  0.9678859360  1.1218466298
C   1.3512307252 -0.5558956050 -0.1945820968
H   0.7779303250 -0.2479223682  1.0614910472
H   1.0652968151 -1.3069545108 -0.9423299804
H   2.3039941010 -0.7148854908  0.3297558470
7
Iter 145  Energy = -29.6073412663
C   0.8776741176  0.7840133575 -0.1646565080
H   0.7031762718  1.5641652860 -0.9175739440
O   0.5219382247  0.9678562089  1.1218340255
C   1.3512370773 -0.5558962358 -0.1945841418
H   0.7779240887 -0.2479296569  1.0614868338
H   1.0652587778 -1.3069956283 -0.9422721113
H   2.3040330669 -0.7148466673  0.3297051136
7
Iter 146  Energy = -29.6073413110
C   0.8776678565  0.7840137473 -0.1646632180
H   0.7032291557  1.5642045562 -0.9175556371
O   0.5218904649  0.9678267330  1.1218215465
C   1.3512433892 -0.5558969269 -0.1945861548
H   0.7779179441 -0.2479368789  1.0614827076
H   1.0652209986 -1.3070363878 -0.9422146606
H   2.3040718156 -0.7148081792  0.3296546849
7
Iter 147  Energy = -29.6073414898
C   0.8776616296  0.7840140474 -0.1646697971
H   0.7032817041  1.5642435306 -0.9175374915
O   0.5218429433  0.9677975288  1.1218091110
C   1.3512496607 -0.5558975497 -0.1945881106
H   0.7779118901 -0.2479440650  1.0614786438
H   1.0651834725 -1.3070768048 -0.9421576241
H   2.3041103245 -0.7147700234  0.3296045382
7
Iter 148  Energy = -29.6073416239
C   0.8776554247  0.7840143761 -0.1646763405
H   0.7033339171  1.5642821893 -0.9175194695
O   0.5217956631  0.9677685457  1.1217967465
C   1.3512558601 -0.5558981677 -0.1945900172
H   0.7779059161 -0.2479511846  1.0614746518
H   1.0651461990 -1.3071168881 -0.9421009985
H   2.3041486450 -0.7147322076  0.3295546962
7
Iter 149  Energy = -29.6073417133
C   0.8776492482  0.7840146716 -0.1646828167
H   0.7033858029  1.5643205335 -0.9175015801
O   0.5217486203  0.9677397905  1.1217844584
C   1.3512620466 -0.5558987274 -0.1945918649
H   0.7779000174 -0.2479582251  1.0614707393
H   1.0651091696 -1.3071566635 -0.9420448019
H   2.3041867201 -0.7146947174  0.3295051342
7
Iter 150  Energy = -29.6073418623
C   0.8776430802  0.7840150178 -0.1646892056
H   0.7034373584  1.5643585661 -0.9174838237
O   0.5217018249  0.9677112569  1.1217722082
C   1.3512682095 -0.5558993339 -0.1945936759
H   0.7778941987 -0.2479652094  1.0614668971
H   1.0650723960 -1.3071960862 -0.9419889848
H   2.3042245581 -0.7146575485  0.3294558538
7
Iter 151  Energy = -29.6073419666
C   0.8776369490  0.7840153170 -0.1646955329
H   0.7034885802  1.5643963218 -0.9174662210
O   0.5216552650  0.9676829246  1.1217600559
C   1.3512743332 -0.5558999376 -0.1945954745
H   0.7778884375 -0.2479720772  1.0614631475
H   1.0650358718 -1.3072351835 -0.9419335731
H   2.3042621889 -0.7146207036  0.3294068665
7
Iter 152  Energy = -29.6073420709
C   0.8776308524  0.7840156184 -0.1647018151
H   0.7035394796  1.5644337691 -0.9174487478
O   0.5216089344  0.9676548304  1.1217479854
C   1.3512803793 -0.5559005204 -0.1945972464
H   0.7778827603 -0.2479789061  1.0614594638
H   1.0649996001 -1.3072739512 -0.9418785439
H   2.3042996195 -0.7145841788  0.3293581729
7
Iter 153  Energy = -29.6073422349
C   0.8776247683  0.7840159246 -0.1647080277
H   0.7035900521  1.5644709265 -0.9174314056
O   0.5215628514  0.9676269339  1.1217359695
C   1.3512864525 -0.5559010995 -0.1945989485
H   0.7778771424 -0.2479856438  1.0614558652
H   1.0649635604 -1.3073124147 -0.9418239307
H   2.3043367984 -0.7145479655  0.3293097467
7
Iter 154  Energy = -29.6073423541
C   0.8776187320  0.7840161680 -0.1647141672
H   0.7036402987  1.5645078086 -0.9174142078
O   0.5215170024  0.9675992561  1.1217240308
C   1.3512924867 -0.5559016363 -0.1946006249
H   0.7778715871 -0.2479923086  1.0614523467
H   1.0649277603 -1.3073505671 -0.9417697113
H   2.3043737576 -0.7145120598  0.3292616009
7
Iter 155  Energy = -29.6073425180
C   0.8776127118  0.7840164392 -0.1647202563
H   0.7036902275  1.5645443836 -0.9173971252
O   0.5214713966  0.9675718000  1.1217121403
C   1.3512984552 -0.5559021616 -0.1946022367
H   0.7778661117 -0.2479989385  1.0614488741
H   1.0648921997 -1.3073883985 -0.9417158756
H   2.3044105227 -0.7144764638  0.3292137453
7
Iter 156  Energy = -29.6073426372
C   0.8776067200  0.7840167095 -0.1647262749
H   0.7037398376  1.5645806801 -0.9173801862
O   0.5214260269  0.9675445451  1.1217003336
C   1.3513043707 -0.5559027131 -0.1946038369
H   0.7778607034 -0.2480054880  1.0614454645
H   1.0648568937 -1.3074259020 -0.9416624009
H   2.3044470735 -0.7144411708  0.3291661683
7
Iter 157  Energy = -29.6073427266
C   0.8776007566  0.7840169707 -0.1647322372
H   0.7037891264  1.5646167045 -0.9173633875
O   0.5213808935  0.9675174925  1.1216886054
C   1.3513103007 -0.5559032634 -0.1946053819
H   0.7778553557 -0.2480119630  1.0614421380
H   1.0648218156 -1.3074631078 -0.9416093265
H   2.3044833773 -0.7144061730  0.3291188580
7
Iter 158  Energy = -29.6073428458
C   0.8775948274  0.7840172390 -0.1647381819
H   0.7038381005  1.5646524399 -0.9173467012
O   0.5213359928  0.9674906490  1.1216769630
C   1.3513161887 -0.5559037961 -0.1946068872
H   0.7778500727 -0.2480183838  1.0614388785
H   1.0647869680 -1.3075000176 -0.9415566334
H   2.3045194758 -0.7143714710  0.3290718315
7
Iter 159  Energy = -29.6073429352
C   0.8775889269  0.7840175056 -0.1647440491
H   0.7038867604  1.5646879071 -0.9173301594
O   0.5212913288  0.9674639938  1.1216653961
C   1.3513220094 -0.5559043576 -0.1946083945
H   0.7778448487 -0.2480247176  1.0614356827
H   1.0647523696 -1.3075366061 -0.9415042948
H   2.3045553817 -0.7143370656  0.3290250882
7
Iter 160  Energy = -29.6073430246
C   0.8775830595  0.7840177267 -0.1647498399
H   0.7039351013  1.5647231147 -0.9173137460
O   0.5212469046  0.9674375479  1.1216538847
C   1.3513278266 -0.5559048940 -0.1946098358
H   0.7778396845 -0.2480309847  1.0614325367
H   1.0647179977 -1.3075729008 -0.9414523339
H   2.3045910512 -0.7143029497  0.3289786056
7
Iter 161  Energy = -29.6073431289
C   0.8775772048  0.7840179864 -0.1647555788
H   0.7039831397  1.5647580260 -0.9172974443
O   0.5212027252  0.9674112953  1.1216424123
C   1.3513336141 -0.5559054356 -0.1946112513
H   0.7778345781 -0.2480372047  1.0614294740
H   1.0646838497 -1.3076088934 -0.9414007428
H   2.3046265136 -0.7142691131  0.3289324020
7
Iter 162  Energy = -29.6073432928
C   0.8775713882  0.7840182034 -0.1647612331
H   0.7040308645  1.5647926808 -0.9172812726
O   0.5211587915  0.9673852123  1.1216309871
C   1.3513393409 -0.5559059380 -0.1946126258
H   0.7778295286 -0.2480433364  1.0614264562
H   1.0646499372 -1.3076445944 -0.9413495142
H   2.3046617746 -0.7142355677  0.3288864710
7
Iter 163  Energy = -29.6073433971
C   0.8775655937  0.7840184478 -0.1647668607
H   0.7040782879  1.5648270610 -0.9172652312
O   0.5211150866  0.9673593440  1.1216196563
C   1.3513450528 -0.5559064734 -0.1946139788
H   0.7778245384 -0.2480494317  1.0614235196
H   1.0646162513 -1.3076799911 -0.9412986446
H   2.3046968139 -0.7142022955  0.3288408081
7
Iter 164  Energy = -29.6073434717
C   0.8775598329  0.7840186777 -0.1647724334
H   0.7041254032  1.5648611824 -0.9172493085
O   0.5210716148  0.9673336714  1.1216083950
C   1.3513507123 -0.5559069843 -0.1946152969
H   0.7778196048 -0.2480554666  1.0614206249
H   1.0645827934 -1.3077151101 -0.9412481331
H   2.3047316636 -0.7141693087  0.3287954206
7
Iter 165  Energy = -29.6073436207
C   0.8775541035  0.7840189007 -0.1647779731
H   0.7041722146  1.5648950437 -0.9172335025
O   0.5210283786  0.9673081903  1.1215972086
C   1.3513563616 -0.5559074928 -0.1946165682
H   0.7778147242 -0.2480614416  1.0614177985
H   1.0645495521 -1.3077499515 -0.9411979921
H   2.3047662906 -0.7141365874  0.3287502970
7
Iter 166  Energy = -29.6073436803
C   0.8775484011  0.7840191328 -0.1647834595
H   0.7042187259  1.5649286388 -0.9172178164
O   0.5209853712  0.9672829046  1.1215860901
C   1.3513619558 -0.5559080144 -0.1946178073
H   0.7778099062 -0.2480673657  1.0614150035
H   1.0645165355 -1.3077844920 -0.9411481891
H   2.3048007292 -0.7141041426  0.3287054455
7
Iter 167  Energy = -29.6073437697
C   0.8775427382  0.7840193420 -0.1647889000
H   0.7042649344  1.5649619833 -0.9172022524
O   0.5209425980  0.9672577973  1.1215750412
C   1.3513675525 -0.5559085122 -0.1946190129
H   0.7778051314 -0.2480732161  1.0614122975
H   1.0644837374 -1.3078187683 -0.9410987529
H   2.3048349332 -0.7140719646  0.3286608464
7
Iter 168  Energy = -29.6073439336
C   0.8775371075  0.7840195431 -0.1647942981
H   0.7043108444  1.5649950768 -0.9171868064
O   0.5209000572  0.9672328755  1.1215640702
C   1.3513730903 -0.5559090205 -0.1946201980
H   0.7778004118 -0.2480790065  1.0614096332
H   1.0644511648 -1.3078527576 -0.9410496540
H   2.3048689493 -0.7140400503  0.3286165199
7
Iter 169  Energy = -29.6073439485
C   0.8775315022  0.7840197502 -0.1647996354
H   0.7043564588  1.5650279196 -0.9171714873
O   0.5208577510  0.9672081365  1.1215531631
C   1.3513786112 -0.5559095142 -0.1946213276
H   0.7777957444 -0.2480847522  1.0614070126
H   1.0644188017 -1.3078864825 -0.9410009117
H   2.3049027555 -0.7140083961  0.3285724523
7
Iter 170  Energy = -29.6073440677
C   0.8775259190  0.7840199506 -0.1648048939
H   0.7044017788  1.5650605195 -0.9171562926
O   0.5208156862  0.9671835720  1.1215422913
C   1.3513841006 -0.5559100259 -0.1946224590
H   0.7777911212 -0.2480904377  1.0614044695
H   1.0643866621 -1.3079199137 -0.9409524943
H   2.3049363569 -0.7139770040  0.3285286462
7
Iter 171  Energy = -29.6073441422
C   0.8775203675  0.7840201493 -0.1648101235
H   0.7044468053  1.5650928648 -0.9171411967
O   0.5207738547  0.9671591923  1.1215314800
C   1.3513895480 -0.5559105069 -0.1946235038
H   0.7777865594 -0.2480960810  1.0614019445
H   1.0643547312 -1.3079530876 -0.9409044316
H   2.3049697588 -0.7139458696  0.3284850989
7
Iter 172  Energy = -29.6073442316
C   0.8775148557  0.7840203558 -0.1648153279
H   0.7044915434  1.5651249517 -0.9171262098
O   0.5207322466  0.9671349984  1.1215207542
C   1.3513949526 -0.5559109890 -0.1946245695
H   0.7777820364 -0.2481016722  1.0613995045
H   1.0643230182 -1.3079859958 -0.9408567005
H   2.3050029719 -0.7139149877  0.3284418183
7
Iter 1  Energy = -29.6072649425
C   0.8774786291  0.7830708325 -0.1630157747
H   0.6908672639  1.5540595122 -0.9220277838
O   0.5298299285  0.9760039130  1.1237026184
C   1.3489616160 -0.5562993153 -0.1926763720
H   0.7826202934 -0.2427602713  1.0664935420
H   1.0765449508 -1.2945295177 -0.9583789053
H   2.2949389410 -0.7291784988  0.3398419289
7
Iter 2  Energy = -29.6072668499
C   0.8775149125  0.7831052956 -0.1629851052
H   0.6910122167  1.5541588625 -0.9220153442
O   0.5297589969  0.9760040517  1.1237278213
C   1.3490388323 -0.5562824224 -0.1927241688
H   0.7825328403 -0.2430019118  1.0663276530
H   1.0763297634 -1.2947070868 -0.9581571034
H   2.2950540603 -0.7289101332  0.3397655001
7
Iter 3  Energy = -29.6072683400
C   0.8775498303  0.7831276098 -0.1629339430
H   0.6911366982  1.5542518902 -0.9220087792
O   0.5297098570  0.9760283119  1.1237380538
C   1.3490922409 -0.5562463945 -0.1927423621
H   0.7824581364 -0.2432598308  1.0661387200
H   1.0761351253 -1.2948744052 -0.9579559909
H   2.2951597346 -0.7286605244  0.3397035537
7
Iter 4  Energy = -29.6072695917
C   0.8775603320  0.7832481719 -0.1629563791
H   0.6912690400  1.5543089001 -0.9219680574
O   0.5296638014  0.9760110589  1.1237704632
C   1.3491624570 -0.5562975179 -0.1927957854
H   0.7823724172 -0.2434713619  1.0659915357
H   1.0759548136 -1.2950184800 -0.9577455790
H   2.2952587619 -0.7284141138  0.3396430542
7
Iter 5  Energy = -29.6072709924
C   0.8776160594  0.7831870526 -0.1628885024
H   0.6913850750  1.5544260940 -0.9219721683
O   0.5296297690  0.9759603120  1.1237603218
C   1.3491995047 -0.5561906115 -0.1928193815
H   0.7822802822 -0.2436354295  1.0658491604
H   1.0757711556 -1.2952001644 -0.9575688780
H   2.2953597772 -0.7281805964  0.3395787008
7
Iter 6  Energy = -29.6072724080
C   0.8776253792  0.7833035886 -0.1629243322
H   0.6915155282  1.5544834592 -0.9219245541
O   0.5295892354  0.9759060320  1.1237868564
C   1.3492628828 -0.5562407633 -0.1928768069
H   0.7821897181 -0.2438000236  1.0657267613
H   1.0756028665 -1.2953396523 -0.9573644079
H   2.2954560128 -0.7279459838  0.3395157360
7
Iter 7  Energy = -29.6072737342
C   0.8776728485  0.7832621805 -0.1628753519
H   0.6916316247  1.5545939551 -0.9219176416
O   0.5295561637  0.9758416383  1.1237752537
C   1.3492940498 -0.5561541753 -0.1928993228
H   0.7821002660 -0.2439443262  1.0655944760
H   1.0754311320 -1.2955103464 -0.9571869164
H   2.2955555386 -0.7277222676  0.3394487561
7
Iter 8  Energy = -29.6072751349
C   0.8776837856  0.7833604755 -0.1629095683
H   0.6917588960  1.5546574937 -0.9218699235
O   0.5295176264  0.9757731911  1.1237937860
C   1.3493478373 -0.5561925519 -0.1929497808
H   0.7820115339 -0.2440861179  1.0654806195
H   1.0752719770 -1.2956476372 -0.9569883534
H   2.2956499666 -0.7274981941  0.3393824748
7
Iter 9  Energy = -29.6072764462
C   0.8777253877  0.7833315715 -0.1628753889
H   0.6918743053  1.5547643695 -0.9218553164
O   0.5294842965  0.9756977467  1.1237819433
C   1.3493765809 -0.5561215993 -0.1929721163
H   0.7819243481 -0.2442121427  1.0653586423
H   1.0751099722 -1.2958097701 -0.9568113755
H   2.2957467320 -0.7272835159  0.3393128678
7
Iter 10  Energy = -29.6072778022
C   0.8777379356  0.7834134853 -0.1629078515
H   0.6919984454  1.5548340200 -0.9218082943
O   0.5294462429  0.9756190642  1.1237945701
C   1.3494237219 -0.5561506041 -0.1930174977
H   0.7818378068 -0.2443351083  1.0652525908
H   1.0749584217 -1.2959450788 -0.9566180224
H   2.2958390486 -0.7270691189  0.3392437597
7
Iter 11  Energy = -29.6072790688
C   0.8777748882  0.7833932092 -0.1628853231
H   0.6921129399  1.5549385343 -0.9217879125
O   0.5294119352  0.9755359034  1.1237829155
C   1.3494508919 -0.5560922126 -0.1930401794
H   0.7817530322 -0.2444458750  1.0651401284
H   1.0748048808 -1.2961001043 -0.9564422613
H   2.2959330544 -0.7268627949  0.3391718874
7
Iter 12  Energy = -29.6072803503
C   0.8777885204  0.7834612591 -0.1629161318
H   0.6922342636  1.5550133479 -0.9217416279
O   0.5293735427  0.9754505554  1.1237908632
C   1.3494929224 -0.5561138990 -0.1930815570
H   0.7816689753 -0.2445538176  1.0650411787
H   1.0746600513 -1.2962334965 -0.9562538207
H   2.2960233470 -0.7266572892  0.3391003497
7
Iter 13  Energy = -29.6072815275
C   0.8778215629  0.7834470992 -0.1629027335
H   0.6923477174  1.5551162061 -0.9217167777
O   0.5293378525  0.9753622447  1.1237793163
C   1.3495190522 -0.5560656388 -0.1931047052
H   0.7815867141 -0.2446519482  1.0649374489
H   1.0745139317 -1.2963824938 -0.9560798165
H   2.2961147921 -0.7264588079  0.3390265215
7
Iter 14  Energy = -29.6072827941
C   0.8778357591  0.7835037286 -0.1629322769
H   0.6924665479  1.5551952037 -0.9216711556
O   0.5292986317  0.9752725024  1.1237836247
C   1.3495571480 -0.5560816278 -0.1931428163
H   0.7815053012 -0.2447475449  1.0648450403
H   1.0743751042 -1.2965140710 -0.9558960853
H   2.2962031306 -0.7262615299  0.3389529219
7
Iter 15  Energy = -29.6072839266
C   0.8778653734  0.7834942536 -0.1629261572
H   0.6925789432  1.5552966998 -0.9216427326
O   0.5292613019  0.9751810448  1.1237721554
C   1.3495824564 -0.5560415710 -0.1931663385
H   0.7814256974 -0.2448353248  1.0647491131
H   1.0742355443 -1.2966580148 -0.9557242449
H   2.2962923061 -0.7260704262  0.3388774566
7
Iter 16  Energy = -29.6072850144
C   0.8778797198  0.7835414524 -0.1629543992
H   0.6926955283  1.5553790427 -0.9215976690
O   0.5292209147  0.9750888472  1.1237733238
C   1.3496173923 -0.5560531102 -0.1932018352
H   0.7813470851 -0.2449209352  1.0646626362
H   1.0741021304 -1.2967878201 -0.9555449420
H   2.2963788527 -0.7258808158  0.3388021358
7
Iter 17  Energy = -29.6072862512
C   0.8779062454  0.7835356142 -0.1629540120
H   0.6928068464  1.5554793915 -0.9215664044
O   0.5291818450  0.9749956372  1.1237617727
C   1.3496420521 -0.5560197869 -0.1932256085
H   0.7812702211 -0.2450001202  1.0645737200
H   1.0739684203 -1.2969273934 -0.9553755278
H   2.2964659939 -0.7256966824  0.3387253103
7
Iter 18  Energy = -29.6072872943
C   0.8779203719  0.7835752018 -0.1629811433
H   0.6929214153  1.5555643206 -0.9215217937
O   0.5291401222  0.9749022040  1.1237602934
C   1.3496743626 -0.5560279055 -0.1932589534
H   0.7811944500 -0.2450774259  1.0644927272
H   1.0738399422 -1.2970554714 -0.9552004741
H   2.2965509601 -0.7255142631  0.3386485930
7
Iter 19  Energy = -29.6072883970
C   0.8779441232  0.7835721580 -0.1629852491
H   0.6930316487  1.5556636649 -0.9214882831
O   0.5290992759  0.9748082988  1.1237485445
C   1.3496983989 -0.5560000601 -0.1932828117
H   0.7811203749 -0.2451494248  1.0644101068
H   1.0737115086 -1.2971912451 -0.9550337001
H   2.2966362941 -0.7253367302  0.3385706426
7
Iter 20  Energy = -29.6072894251
C   0.8779577860  0.7836055487 -0.1630114656
H   0.6931443859  1.5557505499 -0.9214440559
O   0.5290561040  0.9747145542  1.1237448779
C   1.3497285086 -0.5560055223 -0.1933142897
H   0.7810474692 -0.2452197689  1.0643341434
H   1.0735875481 -1.2973176430 -0.9548627463
H   2.2967198227 -0.7251610590  0.3384927853
7
Iter 21  Energy = -29.6072904533
C   0.8779790299  0.7836046512 -0.1630191588
H   0.6932535373  1.5558489485 -0.9214087479
O   0.5290134622  0.9746207639  1.1237329209
C   1.3497519239 -0.5559821619 -0.1933380612
H   0.7809762112 -0.2452857068  1.0642571277
H   1.0734639009 -1.2974500453 -0.9546987481
H   2.2968035594 -0.7249897899  0.3384139169
7
Iter 22  Energy = -29.6072914666
C   0.8779920087  0.7836329831 -0.1630444708
H   0.6933645951  1.5559372742 -0.9213648626
O   0.5289688153  0.9745273991  1.1237273246
C   1.3497801645 -0.5559856121 -0.1933678934
H   0.7809061657 -0.2453501762  1.0641857363
H   1.0733441156 -1.2975747359 -0.9545317037
H   2.2968857596 -0.7248204721  0.3383351211
7
Iter 23  Energy = -29.6072924352
C   0.8780109414  0.7836337431 -0.1630548825
H   0.6934726706  1.5560347745 -0.9213281560
O   0.5289244506  0.9744342639  1.1237150086
C   1.3498029764 -0.5559659450 -0.1933914696
H   0.7808377061 -0.2454109503  1.0641137942
H   1.0732248347 -1.2977040877 -0.9543705616
H   2.2969680446 -0.7246551369  0.3382555191
7
Iter 24  Energy = -29.6072934336
C   0.8780231266  0.7836579140 -0.1630794330
H   0.6935821630  1.5561241201 -0.9212845766
O   0.5288783241  0.9743417598  1.1237077592
C   1.3498295915 -0.5559678381 -0.1934198038
H   0.7807704880 -0.2454704145  1.0640466108
H   1.0731089161 -1.2978270616 -0.9542072707
H   2.2970490152 -0.7244918185  0.3381759668
7
Iter 25  Energy = -29.6072943425
C   0.8780399519  0.7836599161 -0.1630919888
H   0.6936891631  1.5562207551 -0.9212467960
O   0.5288322834  0.9742497118  1.1236951037
C   1.3498518335 -0.5559512584 -0.1934430303
H   0.7807047976 -0.2455267547  1.0639792230
H   1.0729936560 -1.2979535889 -0.9540490084
H   2.2971299385 -0.7243321194  0.3380957497
7
Iter 26  Energy = -29.6072952813
C   0.8780512175  0.7836807477 -0.1631158333
H   0.6937972101  1.5563107228 -0.9212035077
O   0.5287847084  0.9741584032  1.1236864428
C   1.3498770236 -0.5559520668 -0.1934700439
H   0.7806403574 -0.2455818923  1.0639158851
H   1.0728813535 -1.2980747965 -0.9538892851
H   2.2972097532 -0.7241744567  0.3380155947
7
Iter 27  Energy = -29.6072961754
C   0.8780661068  0.7836837231 -0.1631300311
H   0.6939031472  1.5564064684 -0.9211648975
O   0.5287370721  0.9740677411  1.1236733914
C   1.3498986423 -0.5559380370 -0.1934928523
H   0.7805773939 -0.2456344245  1.0638526217
H   1.0727698057 -1.2981986947 -0.9537339011
H   2.2972894556 -0.7240201149  0.3379349204
7
Iter 28  Energy = -29.6072970694
C   0.8780764235  0.7837017546 -0.1631532405
H   0.6940098175  1.5564967911 -0.9211219167
O   0.5286880904  0.9739779136  1.1236635067
C   1.3499225551 -0.5559380026 -0.1935186064
H   0.7805156760 -0.2456858560  1.0637928225
H   1.0726608670 -1.2983181285 -0.9535776251
H   2.2973681942 -0.7238678101  0.3378543094
7
Iter 29  Energy = -29.6072979188
C   0.8780895374  0.7837053617 -0.1631686100
H   0.6941146984  1.5565916611 -0.9210827195
O   0.5286389577  0.9738888186  1.1236500348
C   1.3499435844 -0.5559260717 -0.1935409200
H   0.7804553665 -0.2457350122  1.0637333024
H   1.0725527676 -1.2984395419 -0.9534251061
H   2.2974467121 -0.7237185527  0.3377732669
7
Iter 30  Energy = -29.6072987980
C   0.8780988658  0.7837210939 -0.1631912363
H   0.6942200695  1.5566820539 -0.9210400155
O   0.5285886257  0.9738006380  1.1236390959
C   1.3499664033 -0.5559254594 -0.1935655372
H   0.7803962906 -0.2457831703  1.0636767769
H   1.0724469933 -1.2985571753 -0.9532721300
H   2.2975243759 -0.7235713180  0.3376922948
7
Iter 31  Energy = -29.6072996026
C   0.8781103588  0.7837251744 -0.1632075500
H   0.6943238993  1.5567760177 -0.9210003935
O   0.5285380675  0.9737132590  1.1236252528
C   1.3499868170 -0.5559152844 -0.1935872802
H   0.7803385713 -0.2458293722  1.0636206714
H   1.0723421055 -1.2986762234 -0.9531224514
H   2.2976018044 -0.7234269078  0.3376110000
7
Iter 32  Energy = -29.6073003775
C   0.8781186984  0.7837389916 -0.1632296475
H   0.6944280269  1.5568662788 -0.9209579906
O   0.5284864522  0.9736268346  1.1236134162
C   1.3500086160 -0.5559142818 -0.1936108404
H   0.7802820488 -0.2458746434  1.0635671757
H   1.0722393005 -1.2987920327 -0.9529726540
H   2.2976784812 -0.7232844847  0.3375297899
7
Iter 33  Energy = -29.6073011524
C   0.8781286757  0.7837433961 -0.1632466071
H   0.6945308149  1.5569593185 -0.9209181003
O   0.5284345774  0.9735412514  1.1235991781
C   1.3500284246 -0.5559055809 -0.1936319769
H   0.7802268354 -0.2459182203  1.0635141924
H   1.0721374103 -1.2989088124 -0.9528257771
H   2.2977548861 -0.7231446914  0.3374483414
7
Iter 34  Energy = -29.6073019421
C   0.8781360067  0.7837556969 -0.1632681726
H   0.6946337456  1.5570492650 -0.9208760034
O   0.5283817672  0.9734567105  1.1235865035
C   1.3500492892 -0.5559043747 -0.1936544663
H   0.7801728204 -0.2459610391  1.0634634433
H   1.0720374141 -1.2990227734 -0.9526790227
H   2.2978305811 -0.7230068241  0.3373669683
7
Iter 35  Energy = -29.6073027319
C   0.8781445948  0.7837602635 -0.1632855050
H   0.6947354936  1.5571413743 -0.9208359924
O   0.5283286803  0.9733730414  1.1235718356
C   1.3500684573 -0.5558969035 -0.1936749562
H   0.7801200462 -0.2460023625  1.0634133054
H   1.0719383532 -1.2991373387 -0.9525348767
H   2.2979059985 -0.7228714137  0.3372854398
7
Iter 36  Energy = -29.6073035216
C   0.8781509391  0.7837712373 -0.1633065703
H   0.6948372674  1.5572308546 -0.9207942113
O   0.5282747802  0.9732903351  1.1235584088
C   1.3500884559 -0.5558955349 -0.1936964870
H   0.7800684075 -0.2460428905  1.0633651918
H   1.0718410046 -1.2992494532 -0.9523910933
H   2.2979807688 -0.7227378865  0.3372040123
7
Iter 37  Energy = -29.6073041922
C   0.8781582257  0.7837759614 -0.1633242164
H   0.6949379888  1.5573219903 -0.9207541740
O   0.5282205630  0.9732085484  1.1235434234
C   1.3501070504 -0.5558891812 -0.1937163006
H   0.7800179737 -0.2460821284  1.0633176836
H   1.0717446026 -1.2993618709 -0.9522496388
H   2.2980552191 -0.7226066578  0.3371224728
7
Iter 38  Energy = -29.6073048925
C   0.8781636481  0.7837857638 -0.1633448173
H   0.6950386308  1.5574109036 -0.9207127565
O   0.5281656280  0.9731277088  1.1235293963
C   1.3501262346 -0.5558877138 -0.1937369033
H   0.7799686314 -0.2461206074  1.0632719899
H   1.0716497667 -1.2994721299 -0.9521087105
H   2.2981290840 -0.7224772641  0.3370410512
7
Iter 39  Energy = -29.6073056674
C   0.8781697296  0.7837905294 -0.1633625810
H   0.6951383340  1.5575010305 -0.9206727737
O   0.5281104073  0.9730477376  1.1235140169
C   1.3501442633 -0.5558822531 -0.1937560541
H   0.7799204305 -0.2461579130  1.0632269718
H   1.0715558608 -1.2995824548 -0.9519699063
H   2.2982025981 -0.7223500153  0.3369595767
7
Iter 40  Energy = -29.6073063082
C   0.8781742368  0.7837993968 -0.1633827614
H   0.6952378801  1.5575892499 -0.9206317144
O   0.5280545313  0.9729687193  1.1234994620
C   1.3501627379 -0.5558808038 -0.1937757786
H   0.7798732818 -0.2461945064  1.0631835627
H   1.0714634014 -1.2996908473 -0.9518317428
H   2.2982755542 -0.7222245472  0.3368782218
7
Iter 41  Energy = -29.6073070383
C   0.8781792212  0.7838041246 -0.1634005741
H   0.6953365684  1.5576783641 -0.9205918850
O   0.5279983695  0.9728906122  1.1234837880
C   1.3501801976 -0.5558761168 -0.1937942729
H   0.7798272300 -0.2462301017  1.0631408359
H   1.0713718707 -1.2997991168 -0.9516955066
H   2.2983481660 -0.7221011048  0.3367968639
7
Iter 42  Energy = -29.6073077089
C   0.8781828636  0.7838121721 -0.1634203315
H   0.6954350367  1.5577658170 -0.9205512185
O   0.5279416222  0.9728134416  1.1234687818
C   1.3501980231 -0.5558747234 -0.1938131440
H   0.7797821954 -0.2462650251  1.0630995519
H   1.0712816661 -1.2999056527 -0.9515600201
H   2.2984202164 -0.7219793697  0.3367156302
7
Iter 43  Energy = -29.6073083794
C   0.8781868444  0.7838168135 -0.1634381370
H   0.6955327165  1.5578538848 -0.9205115845
O   0.5278845967  0.9727371504  1.1234528511
C   1.3502149538 -0.5558707139 -0.1938309779
H   0.7797382061 -0.2462990202  1.0630589590
H   1.0711923790 -1.3000119035 -0.9514263004
H   2.2984919268 -0.7218595512  0.3366344390
7
Iter 44  Energy = -29.6073090202
C   0.8781896604  0.7838241481 -0.1634574583
H   0.6956301300  1.5579404878 -0.9204713219
O   0.5278270636  0.9726617635  1.1234374270
C   1.3502321248 -0.5558694106 -0.1938490735
H   0.7796951963 -0.2463323857  1.0630196593
H   1.0711043266 -1.3001165589 -0.9512933796
H   2.2985631214 -0.7217413841  0.3365533958
7
Iter 45  Energy = -29.6073096609
C   0.8781926982  0.7838286621 -0.1634751704
H   0.6957268086  1.5580275013 -0.9204319628
O   0.5277692673  0.9725872236  1.1234212727
C   1.3502485333 -0.5558659757 -0.1938662435
H   0.7796531744 -0.2463648863  1.0629810376
H   1.0710171596 -1.3002208313 -0.9511621209
H   2.2986339818 -0.7216250330  0.3364724358
7
Iter 46  Energy = -29.6073102868
C   0.8781947342  0.7838353605 -0.1634940771
H   0.6958231753  1.5581132120 -0.9203921178
O   0.5277110304  0.9725135582  1.1234054917
C   1.3502651205 -0.5558647620 -0.1938835616
H   0.7796120878 -0.2463967805  1.0629436120
H   1.0709311475 -1.3003236522 -0.9510317292
H   2.2987043279 -0.7215102752  0.3363916293
7
Iter 47  Energy = -29.6073108977
C   0.8781969008  0.7838397580 -0.1635116437
H   0.6959188552  1.5581991371 -0.9203530438
O   0.5276525493  0.9724407163  1.1233890981
C   1.3502810770 -0.5558618378 -0.1939000764
H   0.7795719431 -0.2464278849  1.0629068785
H   1.0708460045 -1.3004259928 -0.9509028858
H   2.2987742935 -0.7213972336  0.3363109194
7
Iter 48  Energy = -29.6073114789
C   0.8781982053  0.7838459135 -0.1635301812
H   0.6960141953  1.5582838913 -0.9203136306
O   0.5275936706  0.9723687332  1.1233730425
C   1.3502970898 -0.5558607408 -0.1939166636
H   0.7795327050 -0.2464584306  1.0628712055
H   1.0707619406 -1.3005269729 -0.9507749294
H   2.2988438171 -0.7212857308  0.3362304031
7
Iter 49  Energy = -29.6073120600
C   0.8781995608  0.7838501527 -0.1635475570
H   0.6961088887  1.5583687071 -0.9202748918
O   0.5275345773  0.9722975558  1.1233564504
C   1.3503125743 -0.5558582415 -0.1939325346
H   0.7794943590 -0.2464882519  1.0628362084
H   1.0706787152 -1.3006274015 -0.9506484322
H   2.2989129481 -0.7211758574  0.3361500025
7
Iter 50  Energy = -29.6073126560
C   0.8782001646  0.7838558494 -0.1635657028
H   0.6962032101  1.5584524719 -0.9202359335
O   0.5274751386  0.9722272029  1.1233401237
C   1.3503281049 -0.5558572992 -0.1939484351
H   0.7794568712 -0.2465175487  1.0628022315
H   1.0705965095 -1.3007265484 -0.9505228388
H   2.2989816242 -0.7210674641  0.3360698005
7
Iter 51  Energy = -29.6073132223
C   0.8782007775  0.7838599489 -0.1635828813
H   0.6962969146  1.5585361806 -0.9201975665
O   0.5274154972  0.9721576516  1.1233233745
C   1.3503431386 -0.5558552031 -0.1939637047
H   0.7794202394 -0.2465461848  1.0627689017
H   1.0705151219 -1.3008251032 -0.9503986317
H   2.2990499340 -0.7209606259  0.3359897533
7
Iter 52  Energy = -29.6073137140
C   0.8782007419  0.7838651724 -0.1636006578
H   0.6963902287  1.5586189215 -0.9201590634
O   0.5273555534  0.9720889085  1.1233068481
C   1.3503581593 -0.5558543477 -0.1939789139
H   0.7793844346 -0.2465743289  1.0627364601
H   1.0704346836 -1.3009224494 -0.9502753490
H   2.2991178219 -0.7208552127  0.3359099210
7
Iter 53  Energy = -29.6073142654
C   0.8782006655  0.7838691052 -0.1636176189
H   0.6964829540  1.5587015020 -0.9201210802
O   0.5272954344  0.9720209193  1.1232899571
C   1.3503727575 -0.5558525844 -0.1939935720
H   0.7793494433 -0.2466018538  1.0627046634
H   1.0703550411 -1.3010191451 -0.9501533630
H   2.2991853272 -0.7207512795  0.3358302585
7
Iter 54  Energy = -29.6073148763
C   0.8782000113  0.7838739909 -0.1636350199
H   0.6965752767  1.5587831687 -0.9200830311
O   0.5272350672  0.9719536855  1.1232732271
C   1.3503873168 -0.5558518841 -0.1940081672
H   0.7793152327 -0.2466288881  1.0626737199
H   1.0702763033 -1.3011146983 -0.9500323095
H   2.2992524154 -0.7206487110  0.3357508248
7
Iter 55  Energy = -29.6073153979
C   0.8781993092  0.7838777461 -0.1636517033
H   0.6966670169  1.5588646391 -0.9200454881
O   0.5271745456  0.9718872014  1.1232561955
C   1.3504015423 -0.5558504072 -0.1940222209
H   0.7792817945 -0.2466553709  1.0626434127
H   1.0701983256 -1.3012095918 -0.9499125185
H   2.2993190896 -0.7205475535  0.3356715662
7
Iter 56  Energy = -29.6073158896
C   0.8781980848  0.7838822943 -0.1636687563
H   0.6967583484  1.5589452462 -0.9200079313
O   0.5271137975  0.9718214755  1.1232393360
C   1.3504157048 -0.5558498562 -0.1940362078
H   0.7792491078 -0.2466814018  1.0626138909
H   1.0701212090 -1.3013033808 -0.9497936447
H   2.2993853715 -0.7204477149  0.3355925557
7
Iter 57  Energy = -29.6073165005
C   0.8781967986  0.7838858761 -0.1636851824
H   0.6968491195  1.5590255767 -0.9199708307
O   0.5270529214  0.9717564668  1.1232222192
C   1.3504295002 -0.5558486331 -0.1940497233
H   0.7792171587 -0.2467069181  1.0625849645
H   1.0700448291 -1.3013964771 -0.9496759685
H   2.2994512962 -0.7203492298  0.3355137637
7
Iter 58  Energy = -29.6073169178
C   0.8781950829  0.7838900332 -0.1637018738
H   0.6969394591  1.5591051181 -0.9199337691
O   0.5269918720  0.9716921067  1.1232052292
C   1.3504432584 -0.5558481362 -0.1940631518
H   0.7791858918 -0.2467318996  1.0625568447
H   1.0699692686 -1.3014885518 -0.9495592496
H   2.2995167914 -0.7202520094  0.3354352136
7
Iter 59  Energy = -29.6073173797
C   0.8781932540  0.7838934978 -0.1637181282
H   0.6970292691  1.5591842818 -0.9198970850
O   0.5269307045  0.9716284525  1.1231880771
C   1.3504567125 -0.5558471917 -0.1940761677
H   0.7791553314 -0.2467564132  1.0625293103
H   1.0698944221 -1.3015798877 -0.9494436656
H   2.2995819307 -0.7201560799  0.3353569026
7
Iter 60  Energy = -29.6073178864
C   0.8781910529  0.7838973809 -0.1637345213
H   0.6971186355  1.5592627147 -0.9198605060
O   0.5268693852  0.9715654973  1.1231710232
C   1.3504701059 -0.5558468146 -0.1940890328
H   0.7791254498 -0.2467804994  1.0625024718
H   1.0698203518 -1.3016702523 -0.9493290266
H   2.2996466438 -0.7200613674  0.3352788336
7
Iter 61  Energy = -29.6073183483
C   0.8781887301  0.7839006577 -0.1637504328
H   0.6972074802  1.5593407545 -0.9198243132
O   0.5268079787  0.9715032400  1.1231538037
C   1.3504832243 -0.5558460850 -0.1941015462
H   0.7790962380 -0.2468041554  1.0624761895
H   1.0697469829 -1.3017598659 -0.9492154685
H   2.2997109907 -0.7199678864  0.3352010090
7
Iter 62  Energy = -29.6073188698
C   0.8781860563  0.7839043218 -0.1637664777
H   0.6972958801  1.5594180760 -0.9197882300
O   0.5267464640  0.9714416428  1.1231366465
C   1.3504962464 -0.5558458346 -0.1941138745
H   0.7790676737 -0.2468274251  1.0624505673
H   1.0696743541 -1.3018485331 -0.9491028406
H   2.2997749513 -0.7198755879  0.3351234516
7
Iter 63  Energy = -29.6073193467
C   0.8781832887  0.7839074097 -0.1637821202
H   0.6973837617  1.5594949861 -0.9197525217
O   0.5266848793  0.9713806933  1.1231193764
C   1.3505089943 -0.5558452381 -0.1941258670
H   0.7790397424 -0.2468502619  1.0624254925
H   1.0696023933 -1.3019364558 -0.9489912774
H   2.2998385661 -0.7197844729  0.3350461602
7
Iter 64  Energy = -29.6073197639
C   0.8781801999  0.7839108314 -0.1637978531
H   0.6974711982  1.5595711924 -0.9197169333
O   0.5266232005  0.9713204188  1.1231021866
C   1.3505216650 -0.5558450913 -0.1941376828
H   0.7790124357 -0.2468727431  1.0624010094
H   1.0695311472 -1.3020234579 -0.9488806194
H   2.2999017797 -0.7196944899  0.3349691349
7
Iter 65  Energy = -29.6073201960
C   0.8781769948  0.7839137894 -0.1638131887
H   0.6975581241  1.5596469683 -0.9196817024
O   0.5265614813  0.9712607746  1.1230848748
C   1.3505341145 -0.5558446907 -0.1941491652
H   0.7789857338 -0.2468948296  1.0623770317
H   1.0694605452 -1.3021097112 -0.9487709840
H   2.2999646324 -0.7196056404  0.3348923747
7
Iter 66  Energy = -29.6073206580
C   0.8781735043  0.7839170187 -0.1638285671
H   0.6976446030  1.5597220639 -0.9196466336
O   0.5264996976  0.9712017504  1.1230676470
C   1.3505464904 -0.5558446809 -0.1941604824
H   0.7789596155 -0.2469165419  1.0623536377
H   1.0693906257 -1.3021950711 -0.9486622507
H   2.3000270900 -0.7195178784  0.3348158902
7
Iter 67  Energy = -29.6073211199
C   0.8781699239  0.7839198052 -0.1638436284
H   0.6977305778  1.5597967170 -0.9196119086
O   0.5264378809  0.9711433528  1.1230503602
C   1.3505586418 -0.5558444157 -0.1941715044
H   0.7789340701 -0.2469378861  1.0623307514
H   1.0693213358 -1.3022797026 -0.9485545158
H   2.3000891958 -0.7194312098  0.3347396878
7
Iter 68  Energy = -29.6073215222
C   0.8781660769  0.7839228346 -0.1638587046
H   0.6978161051  1.5598707004 -0.9195773427
O   0.5263760258  0.9710855711  1.1230331252
C   1.3505706751 -0.5558444932 -0.1941823677
H   0.7789090881 -0.2469589046  1.0623083990
H   1.0692527009 -1.3023634528 -0.9484476548
H   2.3001509543 -0.7193455946  0.3346637868
7
Iter 69  Energy = -29.6073219693
C   0.8781621325  0.7839254783 -0.1638734571
H   0.6979011346  1.5599442248 -0.9195431039
O   0.5263141757  0.9710283574  1.1230158070
C   1.3505825005 -0.5558443342 -0.1941929279
H   0.7788846476 -0.2469795438  1.0622865251
H   1.0691846707 -1.3024464859 -0.9483417754
H   2.3002123640 -0.7192610343  0.3345881735
7
Iter 70  Energy = -29.6073223865
C   0.8781579544  0.7839283258 -0.1638882405
H   0.6979857165  1.5600170969 -0.9195090453
O   0.5262522962  0.9709717558  1.1229985902
C   1.3505942712 -0.5558445128 -0.1942033204
H   0.7788607378 -0.2469998752  1.0622651695
H   1.0691172690 -1.3025286524 -0.9482367548
H   2.3002733811 -0.7191774753  0.3345128438
7
Iter 71  Energy = -29.6073228186
C   0.8781536801  0.7839308311 -0.1639027097
H   0.6980698046  1.5600895048 -0.9194753059
O   0.5261904400  0.9709157010  1.1229813004
C   1.3506058355 -0.5558444945 -0.1942134359
H   0.7788373496 -0.2470198437  1.0622442598
H   1.0690504617 -1.3026101029 -0.9481326773
H   2.3003340552 -0.7190949334  0.3344378109
7
Iter 72  Energy = -29.6073231316
C   0.8781492022  0.7839334981 -0.1639171769
H   0.6981534414  1.5601612812 -0.9194417511
O   0.5261285740  0.9708602524  1.1229640988
C   1.3506172868 -0.5558447533 -0.1942234166
H   0.7788144675 -0.2470395256  1.0622238397
H   1.0689842669 -1.3026907215 -0.9480294440
H   2.3003943880 -0.7190133685  0.3343630925
7
Iter 73  Energy = -29.6073236084
C   0.8781446220  0.7839358911 -0.1639313421
H   0.6982365890  1.5602325895 -0.9194085206
O   0.5260667502  0.9708053460  1.1229468347
C   1.3506285893 -0.5558448704 -0.1942331218
H   0.7787920757 -0.2470588859  1.0622038598
H   1.0689186365 -1.3027706326 -0.9479271357
H   2.3004543641 -0.7189327760  0.3342886680
7
Iter 74  Energy = -29.6073239958
C   0.8781398540  0.7839384288 -0.1639455074
H   0.6983192944  1.5603032523 -0.9193754662
O   0.5260049466  0.9707509952  1.1229296431
C   1.3506397779 -0.5558451946 -0.1942426449
H   0.7787701727 -0.2470779678  1.0621843207
H   1.0688535949 -1.3028497284 -0.9478256535
H   2.3005139859 -0.7188531241  0.3342145485
7
Iter 75  Energy = -29.6073243386
C   0.8781350121  0.7839406600 -0.1639593900
H   0.6984015089  1.5603734612 -0.9193427354
O   0.5259431875  0.9706971855  1.1229124332
C   1.3506508097 -0.5558453777 -0.1942519335
H   0.7787487353 -0.2470967282  1.0621651980
H   1.0687891069 -1.3029281203 -0.9477250666
H   2.3005732659 -0.7187744180  0.3341407348
7
Iter 76  Energy = -29.6073247409
C   0.8781299947  0.7839430435 -0.1639732705
H   0.6984832791  1.5604430541 -0.9193101977
O   0.5258814660  0.9706439002  1.1228953157
C   1.3506617896 -0.5558457962 -0.1942610509
H   0.7787277503 -0.2471152015  1.0621465240
H   1.0687251802 -1.3030057344 -0.9476253051
H   2.3006321663 -0.7186966039  0.3340672237
7
Iter 77  Energy = -29.6073251134
C   0.8781249137  0.7839451464 -0.1639869136
H   0.6985645704  1.5605121629 -0.9192779518
O   0.5258198115  0.9705911259  1.1228781768
C   1.3506725951 -0.5558460388 -0.1942699164
H   0.7787072089 -0.2471333730  1.0621282416
H   1.0686617856 -1.3030826589 -0.9475264225
H   2.3006907411 -0.7186197018  0.3339940266
7
Iter 78  Energy = -29.6073254561
C   0.8781196693  0.7839473999 -0.1640005014
H   0.6986454126  1.5605806707 -0.9192459105
O   0.5257582156  0.9705388730  1.1228610915
C   1.3506832790 -0.5558465210 -0.1942786814
H   0.7786871038 -0.2471512953  1.0621103950
H   1.0685989507 -1.3031587861 -0.9474283149
H   2.3007489955 -0.7185436784  0.3339211657
7
Iter 79  Energy = -29.6073258436
C   0.8781143625  0.7839493859 -0.1640138329
H   0.6987257797  1.5606487106 -0.9192141746
O   0.5256966955  0.9704871340  1.1228440073
C   1.3506938360 -0.5558468729 -0.1942872146
H   0.7786674224 -0.2471689270  1.0620929155
H   1.0685366372 -1.3032342434 -0.9473310649
H   2.3008068937 -0.7184685240  0.3338486067
7
Iter 80  Energy = -29.6073261714
C   0.8781088970  0.7839515129 -0.1640271446
H   0.6988057062  1.5607161394 -0.9191826202
O   0.5256352521  0.9704358891  1.1228269943
C   1.3507043394 -0.5558474076 -0.1942955932
H   0.7786481473 -0.2471862940  1.0620758530
H   1.0684748539 -1.3033089599 -0.9472346099
H   2.3008644313 -0.7183942166  0.3337763637
7
Iter 81  Energy = -29.6073265439
C   0.8781033693  0.7839534253 -0.1640402328
H   0.6988851628  1.5607830916 -0.9191513675
O   0.5255739005  0.9703851360  1.1228099915
C   1.3507146854 -0.5558478382 -0.1943037383
H   0.7786292840 -0.2472034089  1.0620591233
H   1.0684135690 -1.3033829909 -0.9471389836
H   2.3009216562 -0.7183207515  0.3337044499
7
Iter 82  Energy = -29.6073269016
C   0.8780977122  0.7839554168 -0.1640532645
H   0.6989641748  1.5608494610 -0.9191203135
O   0.5255126378  0.9703348659  1.1227930579
C   1.3507249346 -0.5558484240 -0.1943117475
H   0.7786108104 -0.2472202653  1.0620427689
H   1.0683528014 -1.3034562834 -0.9470441237
H   2.3009785559 -0.7182481069  0.3336328658
7
Iter 83  Energy = -29.6073272294
C   0.8780920067  0.7839572033 -0.1640660510
H   0.6990427126  1.5609153760 -0.9190895658
O   0.5254514846  0.9702850579  1.1227761186
C   1.3507350648 -0.5558489211 -0.1943195680
H   0.7785927138 -0.2472368585  1.0620267799
H   1.0682925287 -1.3035289165 -0.9469500718
H   2.3010351158 -0.7181762765  0.3335616004
7
Iter 84  Energy = -29.6073275572
C   0.8780861789  0.7839590992 -0.1640787977
H   0.6991208166  1.5609806997 -0.9190590080
O   0.5253904280  0.9702357256  1.1227592688
C   1.3507451020 -0.5558495851 -0.1943272751
H   0.7785749890 -0.2472532126  1.0620111527
H   1.0682327623 -1.3036008291 -0.9468567656
H   2.3010913508 -0.7181052337  0.3334906686
7
Iter 85  Energy = -29.6073279297
C   0.8780803099  0.7839607812 -0.1640913634
H   0.6991984568  1.5610455514 -0.9190287291
O   0.5253294895  0.9701868613  1.1227424425
C   1.3507550354 -0.5558501058 -0.1943347494
H   0.7785576277 -0.2472693311  1.0619958658
H   1.0681734610 -1.3036721145 -0.9467642791
H   2.3011472473 -0.7180349785  0.3334200569
7
Iter 86  Energy = -29.6073282427
C   0.8780743189  0.7839625551 -0.1641038437
H   0.6992756537  1.5611098556 -0.9189986623
O   0.5252686692  0.9701384437  1.1227256782
C   1.3507648740 -0.5558508078 -0.1943420932
H   0.7785406237 -0.2472852110  1.0619808955
H   1.0681146518 -1.3037426769 -0.9466725132
H   2.3012028363 -0.7179654951  0.3333497834
7
Iter 87  Energy = -29.6073285407
C   0.8780682941  0.7839641548 -0.1641161453
H   0.6993523958  1.5611736729 -0.9189688615
O   0.5252079720  0.9700904900  1.1227089491
C   1.3507745750 -0.5558514050 -0.1943492860
H   0.7785239609 -0.2473008691  1.0619662647
H   1.0680563165 -1.3038126047 -0.9465815177
H   2.3012581130 -0.7178967759  0.3332798417
7
Iter 88  Energy = -29.6073288238
C   0.8780621762  0.7839658087 -0.1641283918
H   0.6994287003  1.5612369403 -0.9189392691
O   0.5251473963  0.9700429811  1.1226923130
C   1.3507842280 -0.5558521261 -0.1943563330
H   0.7785076355 -0.2473163021  1.0619519532
H   1.0679984493 -1.3038818474 -0.9464912485
H   2.3013130415 -0.7178287916  0.3332102212
7
Iter 89  Energy = -29.6073291516
C   0.8780560118  0.7839673038 -0.1641404231
H   0.6995045476  1.5612997329 -0.9189099293
O   0.5250869738  0.9699958916  1.1226756601
C   1.3507937431 -0.5558527604 -0.1943632152
H   0.7784916311 -0.2473314939  1.0619379413
H   1.0679410359 -1.3039504570 -0.9464017342
H   2.3013676833 -0.7177615542  0.3331409452
7
Iter 90  Energy = -29.6073294646
C   0.8780497651  0.7839688509 -0.1641523814
H   0.6995799578  1.5613620084 -0.9188808359
O   0.5250266763  0.9699492580  1.1226591249
C   1.3508032228 -0.5558535209 -0.1943699191
H   0.7784759604 -0.2473465050  1.0619242150
H   1.0678840758 -1.3040184081 -0.9463129413
H   2.3014219687 -0.7176950220  0.3330719836
7
Iter 91  Energy = -29.6073297626
C   0.8780434880  0.7839702635 -0.1641641910
H   0.6996549200  1.5614237998 -0.9188519828
O   0.5249665351  0.9699030306  1.1226426184
C   1.3508125270 -0.5558541951 -0.1943764999
H   0.7784605963 -0.2473612869  1.0619107929
H   1.0678275714 -1.3040857313 -0.9462248689
H   2.3014759893 -0.7176292190  0.3330033774
7
Iter 92  Energy = -29.6073300904
C   0.8780371484  0.7839716909 -0.1641759375
H   0.6997294453  1.5614850713 -0.9188233355
O   0.5249065534  0.9698571605  1.1226261770
C   1.3508218109 -0.5558549457 -0.1943829593
H   0.7784455143 -0.2473757984  1.0618977302
H   1.0677715114 -1.3041524181 -0.9461375173
H   2.3015296435 -0.7175640995  0.3329350884
7
Iter 93  Energy = -29.6073303735
C   0.8780307670  0.7839730363 -0.1641875164
H   0.6998035276  1.5615458587 -0.9187949298
O   0.5248467333  0.9698116985  1.1226097676
C   1.3508309978 -0.5558556741 -0.1943892647
H   0.7784307286 -0.2473901030  1.0618849381
H   1.0677158847 -1.3042184858 -0.9460508810
H   2.3015829876 -0.7174996691  0.3328671330
7
Iter 94  Energy = -29.6073306268
C   0.8780243280  0.7839743853 -0.1641990240
H   0.6998771749  1.5616061495 -0.9187667577
O   0.5247870636  0.9697666623  1.1225934587
C   1.3508401128 -0.5558564751 -0.1943954722
H   0.7784162332 -0.2474042304  1.0618724492
H   1.0676607021 -1.3042839104 -0.9459649229
H   2.3016360119 -0.7174359184  0.3327995157
7
Iter 95  Energy = -29.6073309249
C   0.8780178463  0.7839756871 -0.1642104311
H   0.6999503897  1.5616659440 -0.9187388026
O   0.5247275606  0.9697219461  1.1225772313
C   1.3508491645 -0.5558572863 -0.1944015810
H   0.7784019899 -0.2474180443  1.0618602677
H   1.0676059429 -1.3043487431 -0.9458796708
H   2.3016887329 -0.7173728414  0.3327322340
7
Iter 96  Energy = -29.6073312527
C   0.8780113325  0.7839769078 -0.1642216601
H   0.7000231675  1.5617252683 -0.9187110880
O   0.5246682302  0.9696776150  1.1225610361
C   1.3508581021 -0.5558580531 -0.1944075308
H   0.7783880278 -0.2474316613  1.0618483039
H   1.0675515930 -1.3044129903 -0.9457951074
H   2.3017411736 -0.7173104246  0.3326652944
7
Iter 97  Energy = -29.6073314911
C   0.8780047713  0.7839781615 -0.1642328124
H   0.7000955179  1.5617840899 -0.9186835796
O   0.5246090671  0.9696336634  1.1225449164
C   1.3508669745 -0.5558588752 -0.1944133645
H   0.7783743289 -0.2474450874  1.0618366134
H   1.0674976642 -1.3044766334 -0.9457112069
H   2.3017933029 -0.7172486572  0.3325986810
7
Iter 98  Energy = -29.6073317295
C   0.8779981681  0.7839793521 -0.1642437829
H   0.7001674339  1.5618424432 -0.9186562977
O   0.5245500878  0.9695900929  1.1225288036
C   1.3508757625 -0.5558596764 -0.1944190459
H   0.7783608934 -0.2474583286  1.0618251453
H   1.0674441378 -1.3045396893 -0.9456279756
H   2.3018451433 -0.7171875330  0.3325324001
7
Iter 99  Energy = -29.6073319829
C   0.8779915263  0.7839805492 -0.1642546787
H   0.7002389260  1.5619003117 -0.9186292277
O   0.5244912821  0.9695468718  1.1225127888
C   1.3508844866 -0.5558605314 -0.1944246305
H   0.7783477020 -0.2474713494  1.0618139327
H   1.0673910185 -1.3046021535 -0.9455453924
H   2.3018966849 -0.7171270373  0.3324664532
7
Iter 100  Energy = -29.6073322660
C   0.8779848789  0.7839816427 -0.1642654282
H   0.7003099834  1.5619577387 -0.9186024039
O   0.5244326493  0.9695040355  1.1224968413
C   1.3508931354 -0.5558613271 -0.1944300676
H   0.7783347613 -0.2474841998  1.0618029425
H   1.0673382884 -1.3046640637 -0.9454634766
H   2.3019479299 -0.7170671652  0.3324008355
7
Iter 101  Energy = -29.6073325491
C   0.8779781867  0.7839827713 -0.1642761054
H   0.7003806216  1.5620146752 -0.9185757785
O   0.5243742035  0.9694615370  1.1224809710
C   1.3509017078 -0.5558621563 -0.1944353809
H   0.7783220614 -0.2474968578  1.0617921723
H   1.0672859520 -1.3047253966 -0.9453821924
H   2.3019988931 -0.7170079110  0.3323355565
7
Iter 102  Energy = -29.6073327875
C   0.8779714727  0.7839838484 -0.1642866299
H   0.7004508317  1.5620711677 -0.9185493820
O   0.5243159452  0.9694194171  1.1224651401
C   1.3509102157 -0.5558629915 -0.1944405924
H   0.7783095959 -0.2475093594  1.0617816384
H   1.0672340090 -1.3047861616 -0.9453015377
H   2.3020495560 -0.7169492598  0.3322706040
7
Iter 103  Energy = -29.6073330259
C   0.8779647302  0.7839849333 -0.1642970432
H   0.7005206216  1.5621271908 -0.9185231934
O   0.5242578717  0.9693776701  1.1224493816
C   1.3509186847 -0.5558638820 -0.1944456916
H   0.7782973614 -0.2475217042  1.0617713165
H   1.0671824517 -1.3048463535 -0.9452214986
H   2.3020999050 -0.7168911932  0.3322059698
7
Iter 104  Energy = -29.6073332793
C   0.8779579677  0.7839859875 -0.1643073616
H   0.7005899918  1.5621827622 -0.9184972257
O   0.5241999885  0.9693362808  1.1224337001
C   1.3509270975 -0.5558647428 -0.1944506264
H   0.7782853593 -0.2475339047  1.0617611909
H   1.0671312611 -1.3049060062 -0.9451420994
H   2.3021499604 -0.7168337148  0.3321416641
7
Iter 105  Energy = -29.6073335624
C   0.8779511900  0.7839870321 -0.1643175764
H   0.7006589462  1.5622378797 -0.9184714736
O   0.5241422913  0.9692952496  1.1224181045
C   1.3509354195 -0.5558655970 -0.1944554890
H   0.7782735696 -0.2475459525  1.0617512868
H   1.0670804514 -1.3049651257 -0.9450633086
H   2.3021997588 -0.7167768242  0.3320776992
7
Iter 106  Energy = -29.6073337710
C   0.8779443939  0.7839880401 -0.1643276645
H   0.7007274844  1.5622925566 -0.9184459383
O   0.5240847945  0.9692545517  1.1224025692
C   1.3509436933 -0.5558664356 -0.1944602612
H   0.7782619832 -0.2475578309  1.0617415966
H   1.0670300104 -1.3050237117 -0.9449851243
H   2.3022492676 -0.7167205071  0.3320140642
7
Iter 107  Energy = -29.6073340541
C   0.8779375845  0.7839890263 -0.1643376477
H   0.7007956072  1.5623467898 -0.9184206092
O   0.5240274962  0.9692141855  1.1223871073
C   1.3509518926 -0.5558672729 -0.1944649560
H   0.7782505977 -0.2475695360  1.0617321139
H   1.0669799338 -1.3050817689 -0.9449075378
H   2.3022985162 -0.7166647601  0.3319507712
7
Iter 108  Energy = -29.6073342776
C   0.8779307626  0.7839899974 -0.1643475511
H   0.7008633245  1.5624005589 -0.9183954751
O   0.5239703927  0.9691741559  1.1223717408
C   1.3509600560 -0.5558680954 -0.1944695356
H   0.7782394120 -0.2475810851  1.0617228115
H   1.0669302138 -1.3051393009 -0.9448305455
H   2.3023474669 -0.7166095669  0.3318877950
7
Iter 109  Energy = -29.6073345310
C   0.8779239299  0.7839909145 -0.1643572981
H   0.7009306316  1.5624538995 -0.9183705591
O   0.5239135025  0.9691344593  1.1223564137
C   1.3509681580 -0.5558689082 -0.1944740522
H   0.7782284133 -0.2475924837  1.0617137174
H   1.0668808512 -1.3051963005 -0.9447541358
H   2.3023961420 -0.7165549177  0.3318251533
7
Iter 110  Energy = -29.6073347098
C   0.8779170842  0.7839918317 -0.1643669357
H   0.7009975279  1.5625068160 -0.9183458622
O   0.5238568116  0.9690951149  1.1223411722
C   1.3509762195 -0.5558697237 -0.1944784286
H   0.7782176193 -0.2476037715  1.0617047694
H   1.0668318369 -1.3052527934 -0.9446783063
H   2.3024445292 -0.7165008106  0.3317628298
7
Iter 111  Energy = -29.6073349333
C   0.8779102231  0.7839927456 -0.1643764723
H   0.7010640209  1.5625592881 -0.9183213550
O   0.5238003293  0.9690560953  1.1223259954
C   1.3509842210 -0.5558705628 -0.1944827525
H   0.7782070069 -0.2476149085  1.0616960269
H   1.0667831785 -1.3053087631 -0.9446030453
H   2.3024926486 -0.7164472322  0.3317008421
7
Iter 112  Energy = -29.6073351568
C   0.8779033636  0.7839936309 -0.1643859267
H   0.7011301103  1.5626113243 -0.9182970402
O   0.5237440534  0.9690173971  1.1223109125
C   1.3509921697 -0.5558713689 -0.1944869717
H   0.7781965767 -0.2476258976  1.0616874487
H   1.0667348621 -1.3053642420 -0.9445283640
H   2.3025404929 -0.7163941825  0.3316391806
7
Iter 113  Energy = -29.6073353952
C   0.8778965001  0.7839945111 -0.1643952808
H   0.7011957974  1.5626629330 -0.9182729219
O   0.5236879889  0.9689790147  1.1222958976
C   1.3510000909 -0.5558721747 -0.1944910978
H   0.7781863245 -0.2476367490  1.0616790550
H   1.0666868868 -1.3054192258 -0.9444542507
H   2.3025880408 -0.7163416477  0.3315778371
7
Iter 114  Energy = -29.6073356336
C   0.8778896426  0.7839953575 -0.1644045361
H   0.7012610815  1.5627141256 -0.9182490011
O   0.5236321340  0.9689409534  1.1222809651
C   1.3510079427 -0.5558729643 -0.1944951506
H   0.7781762429 -0.2476474643  1.0616708307
H   1.0666392517 -1.3054737196 -0.9443806983
H   2.3026353337 -0.7162896266  0.3315168289
7
Iter 115  Energy = -29.6073358572
C   0.8778827884  0.7839961802 -0.1644137098
H   0.7013259681  1.5627649048 -0.9182252859
O   0.5235764998  0.9689031843  1.1222661129
C   1.3510157522 -0.5558737310 -0.1944990958
H   0.7781663284 -0.2476580453  1.0616627875
H   1.0665919512 -1.3055277250 -0.9443077086
H   2.3026823413 -0.7162381063  0.3314561383
7
Iter 116  Energy = -29.6073360658
C   0.8778759243  0.7839970169 -0.1644227555
H   0.7013904595  1.5628152647 -0.9182017644
O   0.5235210786  0.9688657484  1.1222513343
C   1.3510234999 -0.5558745468 -0.1945029852
H   0.7781565883 -0.2476685093  1.0616548742
H   1.0665449859 -1.3055812322 -0.9442352487
H   2.3027290932 -0.7161870780  0.3313957834
7
Iter 117  Energy = -29.6073362148
C   0.8778690827  0.7839978007 -0.1644317256
H   0.7014545479  1.5628652314 -0.9181784363
O   0.5234658801  0.9688286063  1.1222366238
C   1.3510311860 -0.5558753226 -0.1945067870
H   0.7781470019 -0.2476788450  1.0616471522
H   1.0664983531 -1.3056342645 -0.9441633421
H   2.3027755780 -0.7161365422  0.3313357515
7
Iter 118  Energy = -29.6073364532
C   0.8778622310  0.7839985947 -0.1644405946
H   0.7015182457  1.5629147928 -0.9181553127
O   0.5234109058  0.9687917506  1.1222220007
C   1.3510388589 -0.5558761357 -0.1945104965
H   0.7781375722 -0.2476890400  1.0616395808
H   1.0664520460 -1.3056868170 -0.9440919725
H   2.3028217693 -0.7160864827  0.3312760317
7
Iter 119  Energy = -29.6073366767
C   0.8778553991  0.7839993107 -0.1644493349
H   0.7015815479  1.5629639666 -0.9181323918
O   0.5233561535  0.9687552047  1.1222074442
C   1.3510464726 -0.5558769110 -0.1945141337
H   0.7781282977 -0.2476991128  1.0616321521
H   1.0664060623 -1.3057388989 -0.9440211331
H   2.3028676957 -0.7160368975  0.3312166349
7
Iter 120  Energy = -29.6073369002
C   0.8778485502  0.7840000863 -0.1644580265
H   0.7016444646  1.5630127204 -0.9181096327
O   0.5233016286  0.9687189480  1.1221929645
C   1.3510540314 -0.5558777098 -0.1945176829
H   0.7781191755 -0.2477090725  1.0616248758
H   1.0663603973 -1.3057905189 -0.9439508323
H   2.3029133817 -0.7159877913  0.3311575727
7
Iter 121  Energy = -29.6073370642
C   0.8778417422  0.7840007726 -0.1644665962
H   0.7017069834  1.5630611078 -0.9180870727
O   0.5232473358  0.9686829739  1.1221785362
C   1.3510615062 -0.5558784638 -0.1945211683
H   0.7781101990 -0.2477189099  1.0616177521
H   1.0663150569 -1.3058416749 -0.9438810475
H   2.3029588061 -0.7159391435  0.3310988348
7
Iter 122  Energy = -29.6073372132
C   0.8778349588  0.7840014008 -0.1644751186
H   0.7017691162  1.5631091079 -0.9180646942
O   0.5231932936  0.9686471510  1.1221641938
C   1.3510689535 -0.5558791446 -0.1945246206
H   0.7781013197 -0.2477284749  1.0616108845
H   1.0662700265 -1.3058924169 -0.9438118361
H   2.3030039614 -0.7158909610  0.3310404294
7
Iter 123  Energy = -29.6073374069
C   0.8778281555  0.7840021234 -0.1644835951
H   0.7018308769  1.5631566744 -0.9180424588
O   0.5231394750  0.9686116425  1.1221499253
C   1.3510763682 -0.5558799439 -0.1945280231
H   0.7780925964 -0.2477379655  1.0616041420
H   1.0662253261 -1.3059426523 -0.9437430870
H   2.3030488308 -0.7158432161  0.3309823342
7
Iter 124  Energy = -29.6073376155
C   0.8778213956  0.7840026943 -0.1644918968
H   0.7018922414  1.5632039076 -0.9180204545
O   0.5230859025  0.9685763967  1.1221356865
C   1.3510837401 -0.5558805939 -0.1945313061
H   0.7780840061 -0.2477473308  1.0615975558
H   1.0661809169 -1.3059924914 -0.9436749007
H   2.3030934258 -0.7157959187  0.3309245540
7
Iter 125  Energy = -29.6073377794
C   0.8778146318  0.7840033631 -0.1645002071
H   0.7019532333  1.5632507243 -0.9179985907
O   0.5230325512  0.9685414327  1.1221215682
C   1.3510910397 -0.5558813551 -0.1945345565
H   0.7780755590 -0.2477565943  1.0615911042
H   1.0661368299 -1.3060418537 -0.9436071922
H   2.3031377833 -0.7157490538  0.3308671119
7
Iter 126  Energy = -29.6073380178
C   0.8778078881  0.7840039361 -0.1645083414
H   0.7020138391  1.5632971953 -0.9179769289
O   0.5229794493  0.9685067355  1.1221074677
C   1.3510982930 -0.5558820253 -0.1945377003
H   0.7780672464 -0.2477657417  1.0615847675
H   1.0660930389 -1.3060908108 -0.9435400066
H   2.3031818730 -0.7157026257  0.3308099823
7
Iter 127  Energy = -29.6073381817
C   0.8778011465  0.7840045758 -0.1645164482
H   0.7020740714  1.5633432708 -0.9179554210
O   0.5229265794  0.9684723253  1.1220934454
C   1.3511055170 -0.5558827618 -0.1945408088
H   0.7780590621 -0.2477748108  1.0615786119
H   1.0660495538 -1.3061393189 -0.9434733138
H   2.3032256972 -0.7156566172  0.3307531761
7
Iter 128  Energy = -29.6073383457
C   0.8777944350  0.7840051330 -0.1645244163
H   0.7021339235  1.5633890030 -0.9179341175
O   0.5228739525  0.9684381775  1.1220794736
C   1.3511126684 -0.5558834399 -0.1945438268
H   0.7780510120 -0.2477837788  1.0615725543
H   1.0660063723 -1.3061873960 -0.9434071053
H   2.3032692637 -0.7156110343  0.3306966812
7
Iter 129  Energy = -29.6073384649
C   0.8777877332  0.7840057304 -0.1645323671
H   0.7021934046  1.5634343551 -0.9179129687
O   0.5228215539  0.9684043048  1.1220656092
C   1.3511197532 -0.5558841560 -0.1945467869
H   0.7780430884 -0.2477926574  1.0615666216
H   1.0659634886 -1.3062350426 -0.9433413834
H   2.3033126053 -0.7155658695  0.3306405186
7
Iter 130  Energy = -29.6073386288
C   0.8777810503  0.7840062811 -0.1645402143
H   0.7022525121  1.5634793463 -0.9178919913
O   0.5227693983  0.9683706924  1.1220517950
C   1.3511268326 -0.5558848242 -0.1945496426
H   0.7780352872 -0.2478014244  1.0615608164
H   1.0659208899 -1.3062822934 -0.9432761756
H   2.3033556565 -0.7155211131  0.3305846546
7
Iter 131  Energy = -29.6073388821
C   0.8777743884  0.7840068131 -0.1645479830
H   0.7023112454  1.5635239947 -0.9178711874
O   0.5227174861  0.9683373318  1.1220380479
C   1.3511338726 -0.5558855183 -0.1945524479
H   0.7780275989 -0.2478100850  1.0615551457
H   1.0658785889 -1.3063291165 -0.9432114353
H   2.3033984467 -0.7154767563  0.3305291020
7
Iter 132  Energy = -29.6073389864
C   0.8777677408  0.7840073608 -0.1645557009
H   0.7023696178  1.5635682698 -0.9178505496
O   0.5226658027  0.9683042410  1.1220244062
C   1.3511408509 -0.5558862109 -0.1945551934
H   0.7780200345 -0.2478186642  1.0615495756
H   1.0658365778 -1.3063755271 -0.9431471652
H   2.3034410023 -0.7154328067  0.3304738699
7
Iter 133  Energy = -29.6073391801
C   0.8777611161  0.7840078849 -0.1645633204
H   0.7024276160  1.5636122073 -0.9178300840
O   0.5226143642  0.9682714057  1.1220108148
C   1.3511477756 -0.5558869142 -0.1945578737
H   0.7780125891 -0.2478271501  1.0615441162
H   1.0657948614 -1.3064215191 -0.9430833593
H   2.3034833043 -0.7153892523  0.3304189506
7
Iter 134  Energy = -29.6073393440
C   0.8777545117  0.7840083926 -0.1645708556
H   0.7024852527  1.5636557942 -0.9178097803
O   0.5225631679  0.9682388264  1.1219972894
C   1.3511546572 -0.5558875933 -0.1945605012
H   0.7780052500 -0.2478355396  1.0615387851
H   1.0657534273 -1.3064671313 -0.9430200370
H   2.3035253600 -0.7153460864  0.3303643443
7
Iter 135  Energy = -29.6073394930
C   0.8777479271  0.7840088964 -0.1645783341
H   0.7025425305  1.5636990242 -0.9177896360
O   0.5225121983  0.9682065326  1.1219838617
C   1.3511614894 -0.5558883036 -0.1945630668
H   0.7779980324 -0.2478438632  1.0615335318
H   1.0657122766 -1.3065123227 -0.9429571619
H   2.3035671720 -0.7153033020  0.3303100487
7
Iter 136  Energy = -29.6073396421
C   0.8777413498  0.7840093935 -0.1645857129
H   0.7025994477  1.5637419158 -0.9177696508
O   0.5224614883  0.9681744613  1.1219704682
C   1.3511682921 -0.5558889958 -0.1945655607
H   0.7779909139 -0.2478520788  1.0615283980
H   1.0656714021 -1.3065571348 -0.9428947565
H   2.3036087321 -0.7152608998  0.3302560602
7
Iter 137  Energy = -29.6073398209
C   0.8777348116  0.7840098594 -0.1645930520
H   0.7026560049  1.5637844695 -0.9177498328
O   0.5224110091  0.9681426470  1.1219571871
C   1.3511750453 -0.5558896660 -0.1945679861
H   0.7779839001 -0.2478602051  1.0615233716
H   1.0656308018 -1.3066015700 -0.9428328278
H   2.3036500534 -0.7152188741  0.3302023826
7
Iter 138  Energy = -29.6073399252
C   0.8777282880  0.7840103213 -0.1646002940
H   0.7027122055  1.5638266862 -0.9177301686
O   0.5223607808  0.9681110704  1.1219439473
C   1.3511817567 -0.5558903320 -0.1945703425
H   0.7779769957 -0.2478682475  1.0615184334
H   1.0655904845 -1.3066456167 -0.9427713359
H   2.3036911153 -0.7151772207  0.3301490030
7
Iter 139  Energy = -29.6073401636
C   0.8777217965  0.7840107621 -0.1646074607
H   0.7027680500  1.5638685815 -0.9177106835
O   0.5223107920  0.9680797274  1.1219308029
C   1.3511884170 -0.5558910060 -0.1945726711
H   0.7779701819 -0.2478761883  1.0615136172
H   1.0655504394 -1.3066892849 -0.9427103008
H   2.3037319494 -0.7151359305  0.3300959391
7
Iter 140  Energy = -29.6073402828
C   0.8777153169  0.7840112190 -0.1646145655
H   0.7028235414  1.5639101360 -0.9176913390
O   0.5222610472  0.9680486284  1.1219177205
C   1.3511950313 -0.5558916860 -0.1945749299
H   0.7779634723 -0.2478840538  1.0615088827
H   1.0655106654 -1.3067325734 -0.9426497104
H   2.3037725518 -0.7150950096  0.3300431850
7
Iter 141  Energy = -29.6073404020
C   0.8777088672  0.7840116530 -0.1646216070
H   0.7028786821  1.5639513675 -0.9176721527
O   0.5222115488  0.9680177524  1.1219047167
C   1.3512015832 -0.5558923445 -0.1945771273
H   0.7779568582 -0.2478918212  1.0615042400
H   1.0654711683 -1.3067754946 -0.9425895591
H   2.3038129188 -0.7150544516  0.3299907328
7
Iter 142  Energy = -29.6073405957
C   0.8777024349  0.7840120849 -0.1646285779
H   0.7029334731  1.5639922687 -0.9176531113
O   0.5221622876  0.9679871398  1.1218917788
C   1.3512081472 -0.5558930178 -0.1945792770
H   0.7779503361 -0.2478995258  1.0614997085
H   1.0654319339 -1.3068180459 -0.9425298480
H   2.3038530139 -0.7150142438  0.3299385696
7
Iter 143  Energy = -29.6073407447
C   0.8776960358  0.7840124895 -0.1646354598
H   0.7029879142  1.5640328603 -0.9176342384
O   0.5221132752  0.9679567471  1.1218789106
C   1.3512146397 -0.5558936830 -0.1945813889
H   0.7779439046 -0.2479071361  1.0614952673
H   1.0653929667 -1.3068602323 -0.9424705691
H   2.3038928903 -0.7149743859  0.3298867206
7
Iter 144  Energy = -29.6073408788
C   0.8776896596  0.7840128961 -0.1646423153
H   0.7030420145  1.5640731193 -0.9176154980
O   0.5220645000  0.9679265923  1.1218661427
C   1.3512210987 -0.5558943516 -0.1945834433
H   0.7779375646 -0.2479146651  1.0614909114
H   1.0653542658 -1.3069020573 -0.9424117196
H   2.3039325231 -0.7149348749  0.3298351657
7
Iter 145  Energy = -29.6073410428
C   0.8776833113  0.7840132712 -0.1646490717
H   0.7030957682  1.5641130782 -0.9175969250
O   0.5220159784  0.9678966418  1.1218534274
C   1.3512275022 -0.5558949993 -0.1945854687
H   0.7779313011 -0.2479220883  1.0614866671
H   1.0653158276 -1.3069435335 -0.9423533041
H   2.3039719375 -0.7148957104  0.3297839203
7
Iter 146  Energy = -29.6073411173
C   0.8776770027  0.7840136045 -0.1646557616
H   0.7031491768  1.5641527275 -0.9175784885
O   0.5219677146  0.9678668410  1.1218407658
C   1.3512338876 -0.5558956265 -0.1945874609
H   0.7779251055 -0.2479293463  1.0614825456
H   1.0652776522 -1.3069846603 -0.9422953195
H   2.3040110875 -0.7148568809  0.3297329644
7
Iter 147  Energy = -29.6073412514
C   0.8776707042  0.7840139760 -0.1646624474
H   0.7032022537  1.5641920429 -0.9175601751
O   0.5219196835  0.9678372906  1.1218282197
C   1.3512402618 -0.5558962938 -0.1945894125
H   0.7779189919 -0.2479365344  1.0614785180
H   1.0652397356 -1.3070254371 -0.9422377585
H   2.3040499962 -0.7148183838  0.3296823009
7
Iter 148  Energy = -29.6073413855
C   0.8776644508  0.7840142803 -0.1646690449
H   0.7032549899  1.5642310600 -0.9175420128
O   0.5218718946  0.9678079663  1.1218157358
C   1.3512465448 -0.5558969143 -0.1945913352
H   0.7779129640 -0.2479436397  1.0614745648
H   1.0652020762 -1.3070658681 -0.9421806117
H   2.3040887062 -0.7147802244  0.3296319483
7
Iter 149  Energy = -29.6073415196
C   0.8776582142  0.7840146008 -0.1646755622
H   0.7033073903  1.5642697601 -0.9175239852
O   0.5218243368  0.9677789298  1.1218033266
C   1.3512527830 -0.5558975395 -0.1945931894
H   0.7779070296 -0.2479507276  1.0614706437
H   1.0651646645 -1.3071059675 -0.9421238788
H   2.3041272079 -0.7147423962  0.3295818926
7
Iter 150  Energy = -29.6073416835
C   0.8776520038  0.7840149149 -0.1646819985
H   0.7033594549  1.5643081630 -0.9175061037
O   0.5217770276  0.9677501044  1.1217909715
C   1.3512590014 -0.5558981760 -0.1945950230
H   0.7779011658 -0.2479577405  1.0614668186
H   1.0651275126 -1.3071457154 -0.9420675365
H   2.3041654603 -0.7147048901  0.3295321193
7
Iter 151  Energy = -29.6073417729
C   0.8776458228  0.7840152031 -0.1646883725
H   0.7034111899  1.5643462603 -0.9174883527
O   0.5217299631  0.9677215068  1.1217786825
C   1.3512651767 -0.5558987521 -0.1945967953
H   0.7778953753 -0.2479646927  1.0614630618
H   1.0650906059 -1.3071851535 -0.9420116070
H   2.3042034927 -0.7146677116  0.3294826305
7
Iter 152  Energy = -29.6073419666
C   0.8776396491  0.7840155471 -0.1646947007
H   0.7034625994  1.5643840459 -0.9174707329
O   0.5216831484  0.9676931002  1.1217664644
C   1.3512713445 -0.5558993650 -0.1945985307
H   0.7778896500 -0.2479715560  1.0614594020
H   1.0650539483 -1.3072242642 -0.9419560820
H   2.3042412860 -0.7146308479  0.3294334285
7
Iter 153  Energy = -29.6073421007
C   0.8776335244  0.7840158287 -0.1647009636
H   0.7035136787  1.5644215434 -0.9174532581
O   0.5216365661  0.9676649372  1.1217543275
C   1.3512774237 -0.5558999094 -0.1946002217
H   0.7778840043 -0.2479783818  1.0614557860
H   1.0650175384 -1.3072630481 -0.9419009413
H   2.3042788898 -0.7145943105  0.3293845212
7
Iter 154  Energy = -29.6073421454
C   0.8776274214  0.7840161188 -0.1647071639
H   0.7035644326  1.5644587509 -0.9174359209
O   0.5215902226  0.9676369949  1.1217422731
C   1.3512834868 -0.5559004752 -0.1946018843
H   0.7778784263 -0.2479851333  1.0614522466
H   1.0649813802 -1.3073015127 -0.9418461907
H   2.3043162555 -0.7145580839  0.3293358893
7
Iter 155  Energy = -29.6073422796
C   0.8776213479  0.7840163839 -0.1647132930
H   0.7036148589  1.5644956741 -0.9174187151
O   0.5215441192  0.9676092677  1.1217302884
C   1.3512895514 -0.5559010465 -0.1946034961
H   0.7778729159 -0.2479918021  1.0614487710
H   1.0649454624 -1.3073396608 -0.9417918368
H   2.3043533695 -0.7145221574  0.3292875298
7
Iter 156  Energy = -29.6073424137
C   0.8776152912  0.7840166717 -0.1647193704
H   0.7036649654  1.5645322936 -0.9174016264
O   0.5214982622  0.9675817479  1.1217183598
C   1.3512955893 -0.5559016205 -0.1946050786
H   0.7778674643 -0.2479984058  1.0614453777
H   1.0649097846 -1.3073774911 -0.9417378682
H   2.3043902684 -0.7144865384  0.3292394544
7
Iter 157  Energy = -29.6073425180
C   0.8776092839  0.7840169069 -0.1647253697
H   0.7037147465  1.5645686512 -0.9173846930
O   0.5214526500  0.9675544159  1.1217065027
C   1.3513015335 -0.5559021305 -0.1946066270
H   0.7778620807 -0.2480049305  1.0614420486
H   1.0648743436 -1.3074150297 -0.9416842963
H   2.3044269871 -0.7144512262  0.3291916831
7
Iter 158  Energy = -29.6073426968
C   0.8776032907  0.7840171837 -0.1647313403
H   0.7037642125  1.5646047128 -0.9173678781
O   0.5214072711  0.9675273104  1.1216947373
C   1.3513074679 -0.5559026952 -0.1946081424
H   0.7778567630 -0.2480114059  1.0614387769
H   1.0648391460 -1.3074522400 -0.9416310874
H   2.3044634742 -0.7144162077  0.3291441810
7
Iter 159  Energy = -29.6073427862
C   0.8775973341  0.7840174388 -0.1647372545
H   0.7038133576  1.5646404985 -0.9173511851
O   0.5213621326  0.9675004097  1.1216830299
C   1.3513133544 -0.5559032209 -0.1946096233
H   0.7778515021 -0.2480178118  1.0614355862
H   1.0648041855 -1.3074891625 -0.9415782683
H   2.3044997588 -0.7143814946  0.3290969613
7
Iter 160  Energy = -29.6073429203
C   0.8775914047  0.7840177053 -0.1647431191
H   0.7038621872  1.5646760121 -0.9173346258
O   0.5213172380  0.9674736968  1.1216714048
C   1.3513192436 -0.5559037688 -0.1946110611
H   0.7778462975 -0.2480241430  1.0614324675
H   1.0647694571 -1.3075257838 -0.9415258295
H   2.3045357964 -0.7143470610  0.3290500088
7
Iter 161  Energy = -29.6073429799
C   0.8775855076  0.7840179412 -0.1647488805
H   0.7039106970  1.5647112690 -0.9173182077
O   0.5212725915  0.9674471815  1.1216598107
C   1.3513250846 -0.5559042992 -0.1946124485
H   0.7778411589 -0.2480304210  1.0614293926
H   1.0647349611 -1.3075620972 -0.9414737525
H   2.3045716240 -0.7143129164  0.3290033311
7
Iter 162  Energy = -29.6073431438
C   0.8775796272  0.7840181911 -0.1647546066
H   0.7039589006  1.5647462393 -0.9173019057
O   0.5212281783  0.9674208746  1.1216483006
C   1.3513308996 -0.5559048546 -0.1946138353
H   0.7778360764 -0.2480366354  1.0614263908
H   1.0647006976 -1.3075980982 -0.9414220349
H   2.3046072444 -0.7142790598  0.3289569358
7
Iter 163  Energy = -29.6073432034
C   0.8775737944  0.7840183922 -0.1647602807
H   0.7040067943  1.5647809420 -0.9172857283
O   0.5211840066  0.9673947506  1.1216368605
C   1.3513366502 -0.5559053515 -0.1946151886
H   0.7778310444 -0.2480427753  1.0614234572
H   1.0646666611 -1.3076338154 -0.9413706941
H   2.3046426736 -0.7142454867  0.3289108213
7
Iter 164  Energy = -29.6073432779
C   0.8775679857  0.7840186347 -0.1647659309
H   0.7040543799  1.5648153713 -0.9172696679
O   0.5211400660  0.9673688269  1.1216255153
C   1.3513423935 -0.5559058874 -0.1946164970
H   0.7778260729 -0.2480488531  1.0614205757
H   1.0646328579 -1.3076692469 -0.9413197171
H   2.3046778692 -0.7142121898  0.3288649690
7
Iter 165  Energy = -29.6073434120
C   0.8775622027  0.7840188590 -0.1647715076
H   0.7041016584  1.5648495383 -0.9172537257
O   0.5210963716  0.9673430936  1.1216142069
C   1.3513480972 -0.5559064032 -0.1946177517
H   0.7778211627 -0.2480548796  1.0614177334
H   1.0645992808 -1.3077043811 -0.9412690912
H   2.3047128513 -0.7141791712  0.3288193824
7
Iter 166  Energy = -29.6073435462
C   0.8775564447  0.7840190858 -0.1647770290
H   0.7041486326  1.5648834466 -0.9172379069
O   0.5210529126  0.9673175632  1.1216029706
C   1.3513537708 -0.5559069293 -0.1946189862
H   0.7778163039 -0.2480608528  1.0614149539
H   1.0645659233 -1.3077392359 -0.9412188307
H   2.3047476370 -0.7141464218  0.3287740750
7
Iter 167  Energy = -29.6073436654
C   0.8775507285  0.7840192940 -0.1647824968
H   0.7041953024  1.5649171040 -0.9172222251
O   0.5210096907  0.9672922032  1.1215918147
C   1.3513593754 -0.5559074338 -0.1946202006
H   0.7778114984 -0.2480667536  1.0614122306
H   1.0645327984 -1.3077738091 -0.9411689178
H   2.3047822305 -0.7141139495  0.3287290422
7
Iter 168  Energy = -29.6073437399
C   0.8775450387  0.7840195102 -0.1647879167
H   0.7042416703  1.5649505041 -0.9172066622
O   0.5209667040  0.9672670441  1.1215807269
C   1.3513649660 -0.5559079600 -0.1946213944
H   0.7778067452 -0.2480726102  1.0614095700
H   1.0644998973 -1.3078080914 -0.9411193466
H   2.3048166030 -0.7140817421  0.3286842715
7
Iter 169  Energy = -29.6073438740
C   0.8775393874  0.7840197010 -0.1647932916
H   0.7042877365  1.5649836545 -0.9171912046
O   0.5209239571  0.9672420650  1.1215696906
C   1.3513705139 -0.5559084420 -0.1946225484
H   0.7778020367 -0.2480784035  1.0614069756
H   1.0644672099 -1.3078421187 -0.9410701442
H   2.3048507825 -0.7140498014  0.3286397724
7
Iter 170  Energy = -29.6073439485
C   0.8775337700  0.7840198873 -0.1647986276
H   0.7043335070  1.5650165525 -0.9171758719
O   0.5208814342  0.9672172788  1.1215587522
C   1.3513760500 -0.5559089490 -0.1946236797
H   0.7777973811 -0.2480841342  1.0614044292
H   1.0644347472 -1.3078758633 -0.9410212797
H   2.3048847350 -0.7140181178  0.3285955265
7
Iter 171  Energy = -29.6073440528
C   0.8775281628  0.7840200787 -0.1648038846
H   0.7043789858  1.5650491906 -0.9171606505
O   0.5208391684  0.9671926563  1.1215478294
C   1.3513815635 -0.5559094141 -0.1946247432
H   0.7777927752 -0.2480898183  1.0614019249
H   1.0644024883 -1.3079093455 -0.9409727694
H   2.3049184806 -0.7139866930  0.3285515412
7
Iter 172  Energy = -29.6073441869
C   0.8775225777  0.7840202983 -0.1648091008
H   0.7044241717  1.5650815760 -0.9171455464
O   0.5207971307  0.9671682127  1.1215369930
C   1.3513870440 -0.5559099443 -0.1946257982
H   0.7777882213 -0.2480954366  1.0613994570
H   1.0643704571 -1.3079425279 -0.9409245735
H   2.3049520218 -0.7139555234  0.3285078172
7
Iter 173  Energy = -29.6073442465
C   0.8775170396  0.7840204741 -0.1648142611
H   0.7044690602  1.5651137311 -0.9171305618
O   0.5207553240  0.9671439609  1.1215262164
C   1.3513924788 -0.5559104326 -0.1946268299
H   0.7777837135 -0.2481010138  1.0613970513
H   1.0643386311 -1.3079754579 -0.9408767277
H   2.3049853767 -0.7139246069  0.3284643639
7
Iter 174  Energy = -29.6073443061
C   0.8775115386  0.7840206672 -0.1648194116
H   0.7045136620  1.5651456236 -0.9171156773
O   0.5207137440  0.9671198826  1.1215155258
C   1.3513978723 -0.5559109158 -0.1946278211
H   0.7777792554 -0.2481065355  1.0613946880
H   1.0643070206 -1.3080081262 -0.9408292180
H   2.3050185311 -0.7138939421  0.3284211670
7
Iter 1  Energy = -29.6072649425
C   0.8773967102  0.7831766738 -0.1629098267
H   0.6910650447  1.5541814757 -0.9219906069
O   0.5295315525  0.9763061701  1.1235433750
C   1.3489775724 -0.5563560850 -0.1923981519
H   0.7827993084 -0.2433437413  1.0660863744
H   1.0762366169 -1.2945509575 -0.9580965316
H   2.2952348176 -0.7290468811  0.3397046191
7
Iter 2  Energy = -29.6072669840
C   0.8774469445  0.7831759459 -0.1628676125
H   0.6911877870  1.5542780532 -0.9219910414
O   0.5294886036  0.9762841089  1.1235736370
C   1.3490482590 -0.5563111814 -0.1924621719
H   0.7826990951 -0.2435383739  1.0659478252
H   1.0760468057 -1.2947288957 -0.9579034384
H   2.2953241280 -0.7287930024  0.3396420518
7
Iter 3  Energy = -29.6072685635
C   0.8774745748  0.7832586545 -0.1628846522
H   0.6913177036  1.5543437672 -0.9219612535
O   0.5294482056  0.9762342671  1.1236171192
C   1.3491267357 -0.5563337454 -0.1925437920
H   0.7825941558 -0.2437049479  1.0658348790
H   1.0758688752 -1.2948881464 -0.9577031255
H   2.2954113725 -0.7285431948  0.3395800733
7
Iter 4  Energy = -29.6072701132
C   0.8775283779  0.7832296024 -0.1628440768
H   0.6914371589  1.5544467398 -0.9219578050
O   0.5294160397  0.9761646278  1.1236289247
C   1.3491784946 -0.5562566165 -0.1926000304
H   0.7824885672 -0.2438445719  1.0657201049
H   1.0756907463 -1.2950690110 -0.9575235225
H   2.2955022381 -0.7283041158  0.3395156552
7
Iter 5  Energy = -29.6072716779
C   0.8775525941  0.7833083848 -0.1628663183
H   0.6915649424  1.5545136318 -0.9219216437
O   0.5293807383  0.9760913707  1.1236591846
C   1.3492429144 -0.5562733179 -0.1926713549
H   0.7823857969 -0.2439833114  1.0656156851
H   1.0755235687 -1.2952232057 -0.9573278416
H   2.2955910676 -0.7280668973  0.3394515393
7
Iter 6  Energy = -29.6072731829
C   0.8775984343  0.7832935142 -0.1628390769
H   0.6916837005  1.5546124915 -0.9219084320
O   0.5293503841  0.9760091334  1.1236641637
C   1.3492858682 -0.5562088832 -0.1927192152
H   0.7822848368 -0.2441065475  1.0655055492
H   1.0753559906 -1.2953944351 -0.9571484900
H   2.2956824070 -0.7278386172  0.3393847503
7
Iter 7  Energy = -29.6072745985
C   0.8776213734  0.7833622915 -0.1628623095
H   0.6918087285  1.5546835382 -0.9218697497
O   0.5293169350  0.9759235977  1.1236851119
C   1.3493400537 -0.5562196306 -0.1927808484
H   0.7821857713 -0.2442267173  1.0654059128
H   1.0751976209 -1.2955441261 -0.9569568185
H   2.2957711392 -0.7276122965  0.3393179494
7
Iter 8  Energy = -29.6072760290
C   0.8776616925  0.7833549422 -0.1628452959
H   0.6919262561  1.5547808258 -0.9218499637
O   0.5292866735  0.9758330789  1.1236861890
C   1.3493774130 -0.5561657290 -0.1928233770
H   0.7820889185 -0.2443357015  1.0653013033
H   1.0750391655 -1.2957071337 -0.9567783529
H   2.2958615028 -0.7273936254  0.3392487459
7
Iter 9  Energy = -29.6072774595
C   0.8776838100  0.7834136266 -0.1628687682
H   0.6920485851  1.5548562330 -0.9218100407
O   0.5292534812  0.9757403236  1.1237005213
C   1.3494242627 -0.5561722735 -0.1928775001
H   0.7819937444 -0.2444415101  1.0652060845
H   1.0748884506 -1.2958526954 -0.9565904351
H   2.2959492883 -0.7271770457  0.3391793882
7
Iter 10  Energy = -29.6072787857
C   0.8777197930  0.7834107901 -0.1628598480
H   0.6921647218  1.5549529347 -0.9217854470
O   0.5292223558  0.9756446915  1.1236991247
C   1.3494579063 -0.5561272293 -0.1929162698
H   0.7819008045 -0.2445386522  1.0651071531
H   1.0747379504 -1.2960087426 -0.9564134282
H   2.2960380902 -0.7269671328  0.3391079633
7
Iter 11  Energy = -29.6072800821
C   0.8777411534  0.7834604648 -0.1628834257
H   0.6922845482  1.5550322356 -0.9217447959
O   0.5291885217  0.9755477503  1.1237085201
C   1.3494993829 -0.5561307772 -0.1929645995
H   0.7818094422 -0.2446329069  1.0650164682
H   1.0745939802 -1.2961506566 -0.9562292515
H   2.2961245934 -0.7267594503  0.3390363326
7
Iter 12  Energy = -29.6072813338
C   0.8777734877  0.7834605085 -0.1628809526
H   0.6923992767  1.5551286948 -0.9217165096
O   0.5291559945  0.9754492583  1.1237053369
C   1.3495303880 -0.5560930927 -0.1930005172
H   0.7817202867 -0.2447202971  1.0649230875
H   1.0744504657 -1.2963007515 -0.9560541515
H   2.2962117226 -0.7265576595  0.3389629549
7
Iter 13  Energy = -29.6072826004
C   0.8777939536  0.7835025406 -0.1629045278
H   0.6925168321  1.5552112336 -0.9216753837
O   0.5291210108  0.9753501813  1.1237108064
C   1.3495677325 -0.5560945370 -0.1930442321
H   0.7816326915 -0.2448051942  1.0648368654
H   1.0743124965 -1.2964393451 -0.9558736790
H   2.2962969052 -0.7263582176  0.3388893997
7
Iter 14  Energy = -29.6072838074
C   0.8778231014  0.7835045072 -0.1629071232
H   0.6926301733  1.5553075804 -0.9216442224
O   0.5290868066  0.9752503268  1.1237061502
C   1.3495967172 -0.5560628790 -0.1930780399
H   0.7815471660 -0.2448844246  1.0647489405
H   1.0741751792 -1.2965843934 -0.9557008651
H   2.2963824786 -0.7261640565  0.3388144104
7
Iter 15  Energy = -29.6072849846
C   0.8778425472  0.7835401325 -0.1629307110
H   0.6927456882  1.5553926783 -0.9216027160
O   0.5290503721  0.9751504290  1.1237084617
C   1.3496308623 -0.5560627302 -0.1931180683
H   0.7814632070 -0.2449615070  1.0646671435
H   1.0740425940 -1.2967200318 -0.9555240963
H   2.2964663522 -0.7259723102  0.3387392362
7
Iter 16  Energy = -29.6072860426
C   0.8778688059  0.7835434568 -0.1629372863
H   0.6928576931  1.5554888766 -0.9215692380
O   0.5290143466  0.9750503659  1.1237024955
C   1.3496583172 -0.5560360764 -0.1931501121
H   0.7813812300 -0.2450339499  1.0645843304
H   1.0739108195 -1.2968606904 -0.9553538098
H   2.2965504110 -0.7257853224  0.3386628712
7
Iter 17  Energy = -29.6072872645
C   0.8778871161  0.7835737845 -0.1629606723
H   0.6929713298  1.5555759990 -0.9215274710
O   0.5289763166  0.9749506669  1.1237020643
C   1.3496898703 -0.5560348095 -0.1931870941
H   0.7813008257 -0.2451045621  1.0645067717
H   1.0737831344 -1.2969936327 -0.9551806940
H   2.2966330306 -0.7256007862  0.3385863456
7
Iter 18  Energy = -29.6072883374
C   0.8779107499  0.7835781194 -0.1629703982
H   0.6930820435  1.5556719889 -0.9214921678
O   0.5289384003  0.9748511875  1.1236949826
C   1.3497159949 -0.5560123138 -0.1932176485
H   0.7812223104 -0.2451712799  1.0644287407
H   1.0736563770 -1.2971304601 -0.9550131304
H   2.2967157474 -0.7254205816  0.3385088716
7
Iter 19  Energy = -29.6072894102
C   0.8779278382  0.7836041284 -0.1629935834
H   0.6931939609  1.5557606255 -0.9214502050
O   0.5288986909  0.9747523434  1.1236922669
C   1.3497453963 -0.5560102813 -0.1932520923
H   0.7811453488 -0.2452363956  1.0643552440
H   1.0735331724 -1.2972609278 -0.9548436325
H   2.2967972154 -0.7252428321  0.3384312528
7
Iter 20  Energy = -29.6072904682
C   0.8779490689  0.7836091883 -0.1630057622
H   0.6933034208  1.5558563310 -0.9214134417
O   0.5288588975  0.9746540010  1.1236841334
C   1.3497703887 -0.5559912094 -0.1932812892
H   0.7810701927 -0.2452982426  1.0642816867
H   1.0734109830 -1.2973943654 -0.9546789356
H   2.2968786716 -0.7250690426  0.3383528594
7
Iter 21  Energy = -29.6072914517
C   0.8779648896  0.7836316400 -0.1630286996
H   0.6934137505  1.5559460445 -0.9213713457
O   0.5288174909  0.9745564675  1.1236794511
C   1.3497979261 -0.5559886530 -0.1933135651
H   0.7809965715 -0.2453586447  1.0642120305
H   1.0732919160 -1.2975224952 -0.9545129799
H   2.2969590788 -0.7248976988  0.3382743595
7
Iter 22  Energy = -29.6072924203
C   0.8779839005  0.7836371872 -0.1630427610
H   0.6935220017  1.5560413846 -0.9213334617
O   0.5287758553  0.9744596294  1.1236703888
C   1.3498218999 -0.5559724365 -0.1933415250
H   0.7809246741 -0.2454162650  1.0641425900
H   1.0731739167 -1.2976528453 -0.9543512044
H   2.2970393754 -0.7247299943  0.3381952246
7
Iter 23  Energy = -29.6072934037
C   0.8779984226  0.7836567047 -0.1630654115
H   0.6936308472  1.5561318256 -0.9212913014
O   0.5287327736  0.9743637302  1.1236640216
C   1.3498478466 -0.5559695707 -0.1933719445
H   0.7808542693 -0.2454725752  1.0640765765
H   1.0730586917 -1.2977787462 -0.9541887087
H   2.2971187729 -0.7245647076  0.3381160190
7
Iter 24  Energy = -29.6072943425
C   0.8780153901  0.7836625551 -0.1630808780
H   0.6937379194  1.5562267115 -0.9212525388
O   0.5286893655  0.9742686566  1.1236540652
C   1.3498708893 -0.5559557168 -0.1933987675
H   0.7807855155 -0.2455265032  1.0640109687
H   1.0729445510 -1.2979062689 -0.9540298964
H   2.2971979930 -0.7244027737  0.3380362994
7
Iter 25  Energy = -29.6072952813
C   0.8780286187  0.7836796547 -0.1631032573
H   0.6938453669  1.5563175704 -0.9212103551
O   0.5286446536  0.9741745900  1.1236462419
C   1.3498955055 -0.5559526978 -0.1934274789
H   0.7807182174 -0.2455792403  1.0639483796
H   1.0728328899 -1.2980300115 -0.9538707844
H   2.2972763715 -0.7242432044  0.3379565071
7
Iter 26  Energy = -29.6072962052
C   0.8780436986  0.7836856846 -0.1631197514
H   0.6939512804  1.5564119444 -0.9211709501
O   0.5285995592  0.9740814423  1.1236354335
C   1.3499177018 -0.5559408583 -0.1934532644
H   0.7806524922 -0.2456299230  1.0638863720
H   1.0727223406 -1.2981548753 -0.9537149108
H   2.2973545510 -0.7240867522  0.3378763258
7
Iter 27  Energy = -29.6072970694
C   0.8780556600  0.7837007302 -0.1631418095
H   0.6940574037  1.5565029702 -0.9211288070
O   0.5285532846  0.9739893616  1.1236263303
C   1.3499410738 -0.5559377549 -0.1934804525
H   0.7805881967 -0.2456795294  1.0638269718
H   1.0726140074 -1.2982765155 -0.9535590856
H   2.2974319980 -0.7239326008  0.3377961059
7
Iter 28  Energy = -29.6072979784
C   0.8780689992  0.7837068228 -0.1631590874
H   0.6941621925  1.5565967350 -0.9210889249
O   0.5285065841  0.9738982618  1.1236147714
C   1.3499624812 -0.5559275978 -0.1935051973
H   0.7805254061 -0.2457273512  1.0637682646
H   1.0725067968 -1.2983988626 -0.9534061331
H   2.2975091636 -0.7237813468  0.3377155611
7
Iter 29  Energy = -29.6072988427
C   0.8780797124  0.7837201730 -0.1631807998
H   0.6942670496  1.5566877123 -0.9210468713
O   0.5284588170  0.9738082517  1.1236045497
C   1.3499848015 -0.5559245475 -0.1935310320
H   0.7804639874 -0.2457741695  1.0637118885
H   1.0724015931 -1.2985184237 -0.9532534831
H   2.2975856626 -0.7236323334  0.3376350020
7
Iter 30  Energy = -29.6072996324
C   0.8780914383  0.7837262566 -0.1631986199
H   0.6943707319  1.5567808200 -0.9210067004
O   0.5284105972  0.9737192375  1.1235923393
C   1.3500054476 -0.5559158219 -0.1935548133
H   0.7804040093 -0.2458194081  1.0636562538
H   1.0722975041 -1.2986383820 -0.9531034209
H   2.2976618951 -0.7234860390  0.3375542150
7
Iter 31  Energy = -29.6073004818
C   0.8781009395  0.7837381998 -0.1632200068
H   0.6944743755  1.5568715607 -0.9209647824
O   0.5283614278  0.9736313038  1.1235811431
C   1.3500267747 -0.5559128537 -0.1935794088
H   0.7803453484 -0.2458637177  1.0636027341
H   1.0721952411 -1.2987559146 -0.9529538668
H   2.2977375168 -0.7233419148  0.3374734413
7
Iter 32  Energy = -29.6073012418
C   0.8781111637  0.7837442180 -0.1632381514
H   0.6945769754  1.5569639269 -0.9209244381
O   0.5283117911  0.9735444693  1.1235682953
C   1.3500466824 -0.5559053075 -0.1936021815
H   0.7802881043 -0.2459067360  1.0635498847
H   1.0720940752 -1.2988735781 -0.9528066422
H   2.2978128319 -0.7232003277  0.3373924872
7
Iter 33  Energy = -29.6073020464
C   0.8781194694  0.7837550401 -0.1632591814
H   0.6946794523  1.5570542562 -0.9208826954
O   0.5282613050  0.9734586911  1.1235562428
C   1.3500671076 -0.5559025828 -0.1936255912
H   0.7802321225 -0.2459488612  1.0634989578
H   1.0719946024 -1.2989890496 -0.9526600490
H   2.2978875641 -0.7230608290  0.3373115695
7
Iter 34  Energy = -29.6073027915
C   0.8781283202  0.7837609206 -0.1632775447
H   0.6947809819  1.5571458342 -0.9208422836
O   0.5282103713  0.9733739239  1.1235428175
C   1.3500862605 -0.5558960517 -0.1936474966
H   0.7801774604 -0.2459897538  1.0634488179
H   1.0718962146 -1.2991044771 -0.9525156099
H   2.2979620144 -0.7229237315  0.3372305530
7
Iter 35  Energy = -29.6073035365
C   0.8781355195  0.7837707006 -0.1632982457
H   0.6948823214  1.5572356450 -0.9208007691
O   0.5281586654  0.9732902018  1.1235300367
C   1.3501058323 -0.5558934565 -0.1936697986
H   0.7801240181 -0.2460298164  1.0634003837
H   1.0717993699 -1.2992179598 -0.9523719351
H   2.2980358970 -0.7227886515  0.3371495803
7
Iter 36  Energy = -29.6073042667
C   0.8781430820  0.7837764131 -0.1633166990
H   0.6949827938  1.5573263751 -0.9207603798
O   0.5281065321  0.9732074801  1.1235160788
C   1.3501243678 -0.5558877998 -0.1936908242
H   0.7800718202 -0.2460687576  1.0633527732
H   1.0717035774 -1.2993312237 -0.9522302438
H   2.2981094502 -0.7226558244  0.3370685458
7
Iter 37  Energy = -29.6073050118
C   0.8781492201  0.7837853048 -0.1633369950
H   0.6950830242  1.5574155631 -0.9207191451
O   0.5280536975  0.9731258119  1.1235026247
C   1.3501431893 -0.5558854066 -0.1937121049
H   0.7800208074 -0.2461069589  1.0633066824
H   1.0716092190 -1.2994427214 -0.9520893859
H   2.2981824655 -0.7225249304  0.3369875748
7
Iter 38  Energy = -29.6073058015
C   0.8781555719  0.7837909105 -0.1633554728
H   0.6951824600  1.5575053749 -0.9206788378
O   0.5280004506  0.9730451266  1.1234881954
C   1.3501611141 -0.5558805775 -0.1937322904
H   0.7799709855 -0.2461441514  1.0632614170
H   1.0715158880 -1.2995538520 -0.9519503573
H   2.2982551534 -0.7223961690  0.3369065981
7
Iter 39  Energy = -29.6073063827
C   0.8781607005  0.7837990362 -0.1633754067
H   0.6952816087  1.5575938290 -0.9206379000
O   0.5279465756  0.9729654642  1.1234741554
C   1.3501792350 -0.5558783921 -0.1937526216
H   0.7799222945 -0.2461806474  1.0632175514
H   1.0714238911 -1.2996633575 -0.9518122212
H   2.2983273174 -0.7222692708  0.3368256954
7
Iter 40  Energy = -29.6073071426
C   0.8781659548  0.7838043966 -0.1633937916
H   0.6953800175  1.5576827159 -0.9205977987
O   0.5278923074  0.9728867489  1.1234593306
C   1.3501965503 -0.5558741930 -0.1937720012
H   0.7798747371 -0.2462161997  1.0631744833
H   1.0713328897 -1.2997724136 -0.9516758045
H   2.2983991651 -0.7221443929  0.3367448353
7
Iter 41  Energy = -29.6073077983
C   0.8781701522  0.7838118341 -0.1634133682
H   0.6954780972  1.5577703810 -0.9205571972
O   0.5278374697  0.9728090313  1.1234448084
C   1.3502139948 -0.5558722308 -0.1937914463
H   0.7798282626 -0.2462510923  1.0631326982
H   1.0712431379 -1.2998799605 -0.9515403148
H   2.2984705076 -0.7220213008  0.3366640728
7
Iter 42  Energy = -29.6073083943
C   0.8781743861  0.7838170125 -0.1634316550
H   0.6955754892  1.5578582711 -0.9205173018
O   0.5277822712  0.9727322394  1.1234296028
C   1.3502307674 -0.5558686086 -0.1938100101
H   0.7797828715 -0.2462851499  1.0630916982
H   1.0711543427 -1.2999869826 -0.9514064479
H   2.2985414937 -0.7219001187  0.3365833653
7
Iter 43  Energy = -29.6073090500
C   0.8781776809  0.7838238623 -0.1634508405
H   0.6956725256  1.5579450546 -0.9204770486
O   0.5277265730  0.9726564038  1.1234146114
C   1.3502475850 -0.5558668252 -0.1938285721
H   0.7797385196 -0.2463185743  1.0630518491
H   1.0710667178 -1.3000925938 -0.9512735339
H   2.2986120199 -0.7217806638  0.3365027860
7
Iter 44  Energy = -29.6073097056
C   0.8781809570  0.7838288241 -0.1634689622
H   0.6957689076  1.5580319392 -0.9204374399
O   0.5276705254  0.9725814689  1.1233990966
C   1.3502638479 -0.5558637520 -0.1938464039
H   0.7796951883 -0.2463512034  1.0630128120
H   1.0709800293 -1.3001975944 -0.9511421401
H   2.2986821658 -0.7216630201  0.3364222891
7
Iter 45  Energy = -29.6073103464
C   0.8781834221  0.7838351566 -0.1634878301
H   0.6958649116  1.5581178050 -0.9203975727
O   0.5276140289  0.9725074335  1.1233837749
C   1.3502801185 -0.5558622154 -0.1938641850
H   0.7796528382 -0.2463832100  1.0629748469
H   1.0708944335 -1.3003012797 -0.9510117288
H   2.2987518684 -0.7215470281  0.3363419438
7
Iter 46  Energy = -29.6073109573
C   0.8781858237  0.7838398820 -0.1635057355
H   0.6959602888  1.5582036525 -0.9203582796
O   0.5275572315  0.9724342485  1.1233679477
C   1.3502958568 -0.5558595657 -0.1938812916
H   0.7796114658 -0.2464144749  1.0629376527
H   1.0708097351 -1.3004043115 -0.9508827668
H   2.2988212195 -0.7214327686  0.3362617204
7
Iter 47  Energy = -29.6073115832
C   0.8781875072  0.7838457293 -0.1635242408
H   0.6960552761  1.5582885417 -0.9203188031
O   0.5275000293  0.9723619611  1.1233522691
C   1.3503115650 -0.5558581883 -0.1938982990
H   0.7795710388 -0.2464451853  1.0629014540
H   1.0707260700 -1.3005061010 -0.9507547941
H   2.2988901344 -0.7213200950  0.3361816602
7
Iter 48  Energy = -29.6073121792
C   0.8781890837  0.7838502634 -0.1635419145
H   0.6961496609  1.5583733152 -0.9202798521
O   0.5274425483  0.9722905086  1.1233361921
C   1.3503268376 -0.5558559604 -0.1939146903
H   0.7795315444 -0.2464752094  1.0628659661
H   1.0706432739 -1.3006071892 -0.9506281857
H   2.2989586720 -0.7212090659  0.3361017299
7
Iter 49  Energy = -29.6073127753
C   0.8781900261  0.7838557079 -0.1635600350
H   0.6962436368  1.5584572066 -0.9202408192
O   0.5273847093  0.9722199203  1.1233202379
C   1.3503420794 -0.5558548000 -0.1939309539
H   0.7794929471 -0.2465047027  1.0628314254
H   1.0705614510 -1.3007071111 -0.9505025881
H   2.2990267715 -0.7210995597  0.3360219776
7
Iter 50  Energy = -29.6073133415
C   0.8781908592  0.7838600036 -0.1635774660
H   0.6963370360  1.5585409045 -0.9202022706
O   0.5273266119  0.9721501347  1.1233039775
C   1.3503568989 -0.5558529015 -0.1939466660
H   0.7794552361 -0.2465335532  1.0627975724
H   1.0704804669 -1.3008063049 -0.9503782914
H   2.2990945126 -0.7209916222  0.3359423857
7
Iter 51  Energy = -29.6073138481
C   0.8781911260  0.7838650661 -0.1635952594
H   0.6964300145  1.5586237580 -0.9201636746
O   0.5272682002  0.9720811699  1.1232878106
C   1.3503716426 -0.5558519228 -0.1939622670
H   0.7794183795 -0.2465618856  1.0627646199
H   1.0704004091 -1.3009043725 -0.9502549940
H   2.2991618493 -0.7208851519  0.3358630053
7
Iter 52  Energy = -29.6073144591
C   0.8781912622  0.7838691626 -0.1636124323
H   0.6965224317  1.5587063448 -0.9201255128
O   0.5272095684  0.9720129864  1.1232713444
C   1.3503860695 -0.5558503284 -0.1939773065
H   0.7793823673 -0.2465896397  1.0627323281
H   1.0703211462 -1.3010016965 -0.9501329559
H   2.2992287756 -0.7207801671  0.3357837762
7
Iter 53  Energy = -29.6073150104
C   0.8781908846  0.7838738905 -0.1636298550
H   0.6966144234  1.5587881240 -0.9200873688
O   0.5271506600  0.9719456118  1.1232549551
C   1.3504003894 -0.5558495081 -0.1939922211
H   0.7793471759 -0.2466169201  1.0627008556
H   1.0702427595 -1.3010979411 -0.9500119081
H   2.2992953287 -0.7206765949  0.3357047839
7
Iter 54  Energy = -29.6073154873
C   0.8781903748  0.7838777981 -0.1636467584
H   0.6967058660  1.5588695933 -0.9200496363
O   0.5270915496  0.9718790080  1.1232383390
C   1.3504143718 -0.5558482136 -0.1940066790
H   0.7793127931 -0.2466436716  1.0626700367
H   1.0701651605 -1.3011934003 -0.9498920405
H   2.2993615054 -0.7205744516  0.3356259814
7
Iter 55  Energy = -29.6073160237
C   0.8781894104  0.7838822049 -0.1636638293
H   0.6967968710  1.5589503100 -0.9200119731
O   0.5270322085  0.9718131495  1.1232217785
C   1.3504282682 -0.5558475576 -0.1940209598
H   0.7792791818 -0.2466699440  1.0626399858
H   1.0700883954 -1.3012878350 -0.9497731646
H   2.2994272868 -0.7204736642  0.3355474061
7
Iter 56  Energy = -29.6073165304
C   0.8781883171  0.7838859132 -0.1636804952
H   0.6968873428  1.5590306614 -0.9199746921
O   0.5269727025  0.9717479277  1.1232050630
C   1.3504419149 -0.5558465055 -0.1940348481
H   0.7792462994 -0.2466955952  1.0626106447
H   1.0700123778 -1.3013815009 -0.9496554635
H   2.2994926682 -0.7203742383  0.3354690352
7
Iter 57  Energy = -29.6073170072
C   0.8781868323  0.7838899897 -0.1636972861
H   0.6969773736  1.5591102905 -0.9199375151
O   0.5269129843  0.9716834736  1.1231884185
C   1.3504554239 -0.5558459576 -0.1940485896
H   0.7792141589 -0.2467208294  1.0625820387
H   1.0699371596 -1.3014741837 -0.9495387416
H   2.2995576906 -0.7202761200  0.3353909208
7
Iter 58  Energy = -29.6073174840
C   0.8781851994  0.7838934907 -0.1637136833
H   0.6970668796  1.5591895208 -0.9199007020
O   0.5268531227  0.9716197148  1.1231716179
C   1.3504686753 -0.5558451146 -0.1940619378
H   0.7791827462 -0.2467455799  1.0625540410
H   1.0698626687 -1.3015660594 -0.9494231202
H   2.2996223314 -0.7201793075  0.3353130288
7
Iter 59  Energy = -29.6073179758
C   0.8781831963  0.7838973159 -0.1637301312
H   0.6971559426  1.5592680417 -0.9198640117
O   0.5267930948  0.9715566856  1.1231548449
C   1.3504818343 -0.5558447003 -0.1940750649
H   0.7791520440 -0.2467699383  1.0625267068
H   1.0697889282 -1.3016569945 -0.9493084802
H   2.2996865824 -0.7200837452  0.3352353816
7
Iter 60  Energy = -29.6073185122
C   0.8781810445  0.7839006534 -0.1637461848
H   0.6972444889  1.5593461381 -0.9198276692
O   0.5267329477  0.9714943482  1.1231379254
C   1.3504947491 -0.5558440679 -0.1940878502
H   0.7791220348 -0.2467938518  1.0624999518
H   1.0697158939 -1.3017471269 -0.9491949001
H   2.2997504639 -0.7199894279  0.3351579727
7
Iter 61  Energy = -29.6073189592
C   0.8781785703  0.7839042293 -0.1637622711
H   0.6973325829  1.5594235641 -0.9197914882
O   0.5266726635  0.9714327079  1.1231210451
C   1.3505075631 -0.5558438030 -0.1941004130
H   0.7790927012 -0.2468173948  1.0624738232
H   1.0696435808 -1.3018363280 -0.9490822700
H   2.2998139612 -0.7198963110  0.3350808195
7
Iter 62  Energy = -29.6073194212
C   0.8781759530  0.7839073837 -0.1637780433
H   0.6974201759  1.5595005263 -0.9197556337
O   0.5266122815  0.9713717200  1.1231040715
C   1.3505201260 -0.5558433168 -0.1941126668
H   0.7790640206 -0.2468405032  1.0624482687
H   1.0695719488 -1.3019247408 -0.9489706784
H   2.2998771170 -0.7198044036  0.3350039280
7
Iter 63  Energy = -29.6073198384
C   0.8781730349  0.7839107677 -0.1637938204
H   0.6975073169  1.5595768178 -0.9197199351
O   0.5265517903  0.9713113916  1.1230871303
C   1.3505325990 -0.5558431863 -0.1941247194
H   0.7790359792 -0.2468632244  1.0624233136
H   1.0695010170 -1.3020122500 -0.9488600211
H   2.2999398849 -0.7197136515  0.3349272988
7
Iter 64  Energy = -29.6073203003
C   0.8781699821  0.7839137894 -0.1638092953
H   0.6975939588  1.5596526395 -0.9196845549
O   0.5264912175  0.9712517270  1.1230701086
C   1.3505448475 -0.5558428769 -0.1941364609
H   0.7790085682 -0.2468855711  1.0623988850
H   1.0694307365 -1.3020989853 -0.9487503752
H   2.3000023116 -0.7196240573  0.3348509386
7
Iter 65  Energy = -29.6073208070
C   0.8781666678  0.7839169528 -0.1638247477
H   0.6976801437  1.5597278266 -0.9196493676
O   0.5264305651  0.9711926816  1.1230531285
C   1.3505570066 -0.5558428625 -0.1941480243
H   0.7789817569 -0.2469075365  1.0623750451
H   1.0693611253 -1.3021848250 -0.9486416432
H   2.3000643564 -0.7195355715  0.3347748551
7
Iter 66  Energy = -29.6073212093
C   0.8781632208  0.7839197909 -0.1638399203
H   0.6977658382  1.5598025374 -0.9196145073
O   0.5263698606  0.9711342512  1.1230360956
C   1.3505689643 -0.5558426823 -0.1941592897
H   0.7789555357 -0.2469291206  1.0623517252
H   1.0692921421 -1.3022699120 -0.9485339057
H   2.3001260599 -0.7194481999  0.3346990483
7
Iter 67  Energy = -29.6073216414
C   0.8781595356  0.7839227711 -0.1638550450
H   0.6978510779  1.5598766099 -0.9195798313
O   0.5263090994  0.9710764396  1.1230190783
C   1.3505808201 -0.5558427648 -0.1941703776
H   0.7789298910 -0.2469503630  1.0623289657
H   1.0692238026 -1.3023541355 -0.9484270730
H   2.3001873948 -0.7193618934  0.3346235292
7
Iter 68  Energy = -29.6073220885
C   0.8781557319  0.7839254405 -0.1638699208
H   0.6979358270  1.5599502011 -0.9195454689
O   0.5262483044  0.9710192247  1.1230020292
C   1.3505924935 -0.5558427079 -0.1941811611
H   0.7789048144 -0.2469712459  1.0623066720
H   1.0691560735 -1.3024375921 -0.9483211900
H   2.3002483763 -0.7192766571  0.3345482845
7
Iter 69  Energy = -29.6073224461
C   0.8781517063  0.7839282645 -0.1638847748
H   0.6980201287  1.5600231508 -0.9195112923
O   0.5261874714  0.9709625998  1.1229850375
C   1.3506040620 -0.5558429001 -0.1941917850
H   0.7788802796 -0.2469917934  1.0622849161
H   1.0690889714 -1.3025202096 -0.9482161900
H   2.3003090020 -0.7191924485  0.3344733352
7
Iter 70  Energy = -29.6073228633
C   0.8781475584  0.7839308046 -0.1638993570
H   0.6981039450  1.5600956183 -0.9194774302
O   0.5261266256  0.9709065672  1.1229680100
C   1.3506154737 -0.5558429659 -0.1942021247
H   0.7788562864 -0.2470120046  1.0622636078
H   1.0690224531 -1.3026020837 -0.9481121292
H   2.3003692788 -0.7191092719  0.3343986731
7
Iter 71  Energy = -29.6073232806
C   0.8781432130  0.7839334689 -0.1639138841
H   0.6981873096  1.5601674552 -0.9194437588
O   0.5260657730  0.9708510945  1.1229509994
C   1.3506267675 -0.5558432323 -0.1942122741
H   0.7788328177 -0.2470319029  1.0622427853
H   1.0689565351 -1.3026831301 -0.9480089283
H   2.3004292056 -0.7190270882  0.3343243122
7
Iter 72  Energy = -29.6073236680
C   0.8781387684  0.7839358626 -0.1639281616
H   0.6982701918  1.5602388146 -0.9194104023
O   0.5260049270  0.9707961784  1.1229339636
C   1.3506378579 -0.5558433827 -0.1942221935
H   0.7788098591 -0.2470514749  1.0622224121
H   1.0688911957 -1.3027634303 -0.9479066269
H   2.3004888215 -0.7189459027  0.3342502587
7
Iter 73  Energy = -29.6073240703
C   0.8781341181  0.7839384067 -0.1639424095
H   0.6983526301  1.5603095511 -0.9193772460
O   0.5259440902  0.9707418028  1.1229169925
C   1.3506489044 -0.5558437566 -0.1942319115
H   0.7787873929 -0.2470707386  1.0622025110
H   1.0688264289 -1.3028429317 -0.9478051832
H   2.3005480570 -0.7188656695  0.3341764974
7
Iter 74  Energy = -29.6073244727
C   0.8781293874  0.7839406578 -0.1639564015
H   0.6984345857  1.5603798084 -0.9193443848
O   0.5258832789  0.9706879776  1.1228999855
C   1.3506598123 -0.5558440010 -0.1942413666
H   0.7787654115 -0.2470896887  1.0621830179
H   1.0687622099 -1.3029217037 -0.9477046240
H   2.3006069356 -0.7187863863  0.3341030246
7
Iter 75  Energy = -29.6073248303
C   0.8781244919  0.7839430164 -0.1639703380
H   0.6985160929  1.5604494638 -0.9193117373
O   0.5258224863  0.9706346876  1.1228830499
C   1.3506706026 -0.5558444340 -0.1942506789
H   0.7787439026 -0.2471083468  1.0621639749
H   1.0686985578 -1.3029996941 -0.9476048927
H   2.3006654866 -0.7187080292  0.3340298745
7
Iter 76  Energy = -29.6073252177
C   0.8781195055  0.7839451553 -0.1639840446
H   0.6985971279  1.5605186192 -0.9192793714
O   0.5257617411  0.9705819289  1.1228660853
C   1.3506812379 -0.5558447654 -0.1942597656
H   0.7787228521 -0.2471267163  1.0621453343
H   1.0686354399 -1.3030769636 -0.9475060218
H   2.3007237165 -0.7186305946  0.3339570370
7
Iter 77  Energy = -29.6073256201
C   0.8781143578  0.7839473935 -0.1639976763
H   0.6986777197  1.5605871865 -0.9192472333
O   0.5257010411  0.9705296752  1.1228491836
C   1.3506918197 -0.5558452686 -0.1942686582
H   0.7787022513 -0.2471448117  1.0621271092
H   1.0685728614 -1.3031534706 -0.9474079660
H   2.3007815698 -0.7185540401  0.3338844950
7
Iter 78  Energy = -29.6073259032
C   0.8781091557  0.7839493752 -0.1640111042
H   0.6987578327  1.5606552833 -0.9192153917
O   0.5256403889  0.9704779362  1.1228322997
C   1.3507022194 -0.5558456772 -0.1942773930
H   0.7786820815 -0.2471626068  1.0621092959
H   1.0685108086 -1.3032292609 -0.9473107422
H   2.3008391340 -0.7184783860  0.3338122892
7
Iter 79  Energy = -29.6073263204
C   0.8781037918  0.7839514695 -0.1640244650
H   0.6988375057  1.5607227796 -0.9191837414
O   0.5255798028  0.9704267089  1.1228154437
C   1.3507125604 -0.5558462433 -0.1942859373
H   0.7786623415 -0.2471801636  1.0620918806
H   1.0684492801 -1.3033042977 -0.9472143136
H   2.3008963384 -0.7184035882  0.3337403878
7
Iter 80  Energy = -29.6073266333
C   0.8780983620  0.7839533842 -0.1640376271
H   0.6989167153  1.5607897793 -0.9191523732
O   0.5255192893  0.9703759603  1.1227986100
C   1.3507227548 -0.5558467184 -0.1942942552
H   0.7786430195 -0.2471974356  1.0620748153
H   1.0683882531 -1.3033786586 -0.9471187184
H   2.3009532263 -0.7183296470  0.3336688050
7
Iter 81  Energy = -29.6073269910
C   0.8780928166  0.7839553551 -0.1640507320
H   0.6989954765  1.5608562235 -0.9191212369
O   0.5254588424  0.9703257039  1.1227818573
C   1.3507328486 -0.5558473479 -0.1943024642
H   0.7786240962 -0.2472144557  1.0620581733
H   1.0683277399 -1.3034522781 -0.9470239044
H   2.3010098004 -0.7182565365  0.3335975625
7
Iter 82  Energy = -29.6073272890
C   0.8780871975  0.7839571691 -0.1640636321
H   0.6990737788  1.5609221702 -0.9190903726
O   0.5253984899  0.9702759248  1.1227651056
C   1.3507428581 -0.5558478816 -0.1943104354
H   0.7786055649 -0.2472312271  1.0620418748
H   1.0682677100 -1.3035252381 -0.9469299022
H   2.3010660217 -0.7181842522  0.3335266173
7
Iter 83  Energy = -29.6073276466
C   0.8780814679  0.7839590302 -0.1640764524
H   0.6991516374  1.5609875623 -0.9190597311
O   0.5253382186  0.9702266205  1.1227484304
C   1.3507527365 -0.5558485570 -0.1943182751
H   0.7785874269 -0.2472477532  1.0620259141
H   1.0682081839 -1.3035974622 -0.9468366458
H   2.3011219496 -0.7181127762  0.3334560156
7
Iter 84  Energy = -29.6073279297
C   0.8780756837  0.7839607496 -0.1640890990
H   0.6992290380  1.5610524631 -0.9190293546
O   0.5252780401  0.9701777973  1.1227317916
C   1.3507625330 -0.5558491925 -0.1943259138
H   0.7785696660 -0.2472640378  1.0620102941
H   1.0681491335 -1.3036690248 -0.9467441824
H   2.3011775265 -0.7180420894  0.3333857204
7
Iter 85  Energy = -29.6073282725
C   0.8780697826  0.7839625102 -0.1641016236
H   0.6993059950  1.5611168229 -0.9189992041
O   0.5252179839  0.9701294048  1.1227151597
C   1.3507722430 -0.5558499130 -0.1943334223
H   0.7785522588 -0.2472800827  1.0619950500
H   1.0680905672 -1.3037398845 -0.9466524631
H   2.3012327898 -0.7179721931  0.3333157585
7
Iter 86  Energy = -29.6073286152
C   0.8780638470  0.7839641193 -0.1641140022
H   0.6993825053  1.5611806803 -0.9189693159
O   0.5251580315  0.9700814539  1.1226985941
C   1.3507818314 -0.5558505594 -0.1943407546
H   0.7785352076 -0.2472958766  1.0619801305
H   1.0680324613 -1.3038100941 -0.9465615225
H   2.3012877367 -0.7179030593  0.3332461251
7
Iter 87  Energy = -29.6073289579
C   0.8780578004  0.7839657858 -0.1641263034
H   0.6994585804  1.5612439875 -0.9189396295
O   0.5250981949  0.9700339532  1.1226820849
C   1.3507913569 -0.5558513102 -0.1943479366
H   0.7785185038 -0.2473114461  1.0619655373
H   1.0679748184 -1.3038796233 -0.9464713178
H   2.3013423656 -0.7178346826  0.3331768213
7
Iter 88  Energy = -29.6073292708
C   0.8780517172  0.7839672969 -0.1641383929
H   0.6995341973  1.5613068407 -0.9189102332
O   0.5250384886  0.9699868839  1.1226655960
C   1.3508007686 -0.5558520065 -0.1943549542
H   0.7785021364 -0.2473267886  1.0619512576
H   1.0679176346 -1.3039485101 -0.9463818589
H   2.3013966774 -0.7177670523  0.3331078419
7
Iter 89  Energy = -29.6073295540
C   0.8780455571  0.7839688175 -0.1641504033
H   0.6996093788  1.5613691560 -0.9188810349
O   0.5249789002  0.9699402760  1.1226491660
C   1.3508100908 -0.5558527783 -0.1943618420
H   0.7784861021 -0.2473419346  1.0619372892
H   1.0678609063 -1.3040167208 -0.9462931137
H   2.3014506844 -0.7177001517  0.3330391959
7
Iter 90  Energy = -29.6073298818
C   0.8780393566  0.7839702567 -0.1641623137
H   0.6996841172  1.5614309825 -0.9188520908
O   0.5249194533  0.9698940258  1.1226328139
C   1.3508193579 -0.5558535272 -0.1943685741
H   0.7784703680 -0.2473567947  1.0619236653
H   1.0678046213 -1.3040843057 -0.9462051113
H   2.3015043457 -0.7176339722  0.3329708678
7
Iter 91  Energy = -29.6073301202
C   0.8780330896  0.7839716679 -0.1641741041
H   0.6997584198  1.5614922983 -0.9188233731
O   0.5248601477  0.9698481999  1.1226164996
C   1.3508285215 -0.5558543044 -0.1943751657
H   0.7784549545 -0.2473714637  1.0619103323
H   1.0677487856 -1.3041512268 -0.9461178017
H   2.3015577011 -0.7175685054  0.3329028703
7
Iter 92  Energy = -29.6073304033
C   0.8780267751  0.7839730027 -0.1641857526
H   0.6998322855  1.5615531188 -0.9187948907
O   0.5248009842  0.9698027811  1.1226002438
C   1.3508376089 -0.5558550721 -0.1943816225
H   0.7784398463 -0.2473858999  1.0618972880
H   1.0676933812 -1.3042175284 -0.9460312132
H   2.3016107387 -0.7175037356  0.3328352055
7
Iter 93  Energy = -29.6073307759
C   0.8780204255  0.7839742850 -0.1641973142
H   0.6999057096  1.5616134637 -0.9187666454
O   0.5247419830  0.9697576725  1.1225840532
C   1.3508466137 -0.5558558615 -0.1943879946
H   0.7784249978 -0.2474000272  1.0618846128
H   1.0676384107 -1.3042832092 -0.9459453374
H   2.3016634796 -0.7174396573  0.3327678842
7
Iter 94  Energy = -29.6073309696
C   0.8780140249  0.7839755562 -0.1642087477
H   0.6999787065  1.5616733010 -0.9187386243
O   0.5246831273  0.9697129613  1.1225679211
C   1.3508555131 -0.5558566780 -0.1943942432
H   0.7784104443 -0.2474139520  1.0618721902
H   1.0675838655 -1.3043482634 -0.9458601344
H   2.3017159381 -0.7173762594  0.3327008968
7
Iter 95  Energy = -29.6073312974
C   0.8780075708  0.7839767953 -0.1642200418
H   0.7000512705  1.5617326559 -0.9187108336
O   0.5246244267  0.9696686569  1.1225518370
C   1.3508643583 -0.5558574590 -0.1944003022
H   0.7783961796 -0.2474276971  1.0618600066
H   1.0675297230 -1.3044127484 -0.9457756422
H   2.3017680910 -0.7173135378  0.3326342337
7
Iter 96  Energy = -29.6073315656
C   0.8780010546  0.7839780708 -0.1642312175
H   0.7001234109  1.5617915131 -0.9186832633
O   0.5245658846  0.9696247299  1.1225358231
C   1.3508731073 -0.5558583182 -0.1944062372
H   0.7783822003 -0.2474412460  1.0618480450
H   1.0674760036 -1.3044766107 -0.9456917964
H   2.3018199585 -0.7172514744  0.3325679040
7
Iter 97  Energy = -29.6073318189
C   0.8779945199  0.7839792687 -0.1642422717
H   0.7001951183  1.5618498945 -0.9186559095
O   0.5245075041  0.9695811799  1.1225198536
C   1.3508818046 -0.5558591615 -0.1944120183
H   0.7783684890 -0.2474545923  1.0618363337
H   1.0674226827 -1.3045398746 -0.9456086209
H   2.3018715018 -0.7171900509  0.3325018900
7
Iter 98  Energy = -29.6073320872
C   0.8779879492  0.7839804502 -0.1642532343
H   0.7002664023  1.5619077941 -0.9186287744
O   0.5244492827  0.9695379941  1.1225039702
C   1.3508904274 -0.5558600289 -0.1944177202
H   0.7783550227 -0.2474677264  1.0618248988
H   1.0673697645 -1.3046025467 -0.9455260982
H   2.3019227715 -0.7171292726  0.3324362144
7
Iter 99  Energy = -29.6073323703
C   0.8779813411  0.7839816159 -0.1642640422
H   0.7003372573  1.5619652363 -0.9186018749
O   0.5243912398  0.9694951640  1.1224881185
C   1.3508989949 -0.5558608882 -0.1944232666
H   0.7783418096 -0.2474806806  1.0618137017
H   1.0673172318 -1.3046646597 -0.9454442431
H   2.3019737452 -0.7170691245  0.3323708643
7
Iter 100  Energy = -29.6073326385
C   0.8779747056  0.7839827375 -0.1642747476
H   0.7004076902  1.5620222092 -0.9185751893
O   0.5243333633  0.9694527140  1.1224723461
C   1.3509075066 -0.5558617476 -0.1944286927
H   0.7783288475 -0.2474934579  1.0618027292
H   1.0672650913 -1.3047261939 -0.9453630242
H   2.3020244157 -0.7170095984  0.3323058362
7
Iter 101  Energy = -29.6073329216
C   0.8779680518  0.7839838159 -0.1642852919
H   0.7004776990  1.5620787290 -0.9185487408
O   0.5242756641  0.9694106316  1.1224566159
C   1.3509158804 -0.5558626007 -0.1944340153
H   0.7783161392 -0.2475060791  1.0617919525
H   1.0672133430 -1.3047871458 -0.9452824203
H   2.3020748431 -0.7169506891  0.3322411569
7
Iter 102  Energy = -29.6073331451
C   0.8779613666  0.7839849052 -0.1642957715
H   0.7005472914  1.5621347804 -0.9185225012
O   0.5242181318  0.9693689174  1.1224409917
C   1.3509242312 -0.5558634937 -0.1944392221
H   0.7783036609 -0.2475185224  1.0617814221
H   1.0671619757 -1.3048475463 -0.9452024600
H   2.3021249622 -0.7168923785  0.3321767967
7
Iter 103  Energy = -29.6073334134
C   0.8779546677  0.7839859360 -0.1643061292
H   0.7006164600  1.5621903956 -0.9184964893
O   0.5241607751  0.9693275829  1.1224254343
C   1.3509325237 -0.5558643696 -0.1944442940
H   0.7782914204 -0.2475308295  1.0617710911
H   1.0671109843 -1.3049073859 -0.9451231140
H   2.3021747885 -0.7168346682  0.3321127571
7
Iter 104  Energy = -29.6073336071
C   0.8779479421  0.7839869639 -0.1643163868
H   0.7006852172  1.5622455368 -0.9184706697
O   0.5241036086  0.9692865783  1.1224099284
C   1.3509407790 -0.5558652323 -0.1944492540
H   0.7782793897 -0.2475429557  1.0617609877
H   1.0670603529 -1.3049666873 -0.9450443921
H   2.3022243299 -0.7167775420  0.3320490406
7
Iter 105  Energy = -29.6073338455
C   0.8779411988  0.7839879698 -0.1643265382
H   0.7007535619  1.5623002261 -0.9184450601
O   0.5240466277  0.9692459094  1.1223944986
C   1.3509489632 -0.5558661042 -0.1944541372
H   0.7782675784 -0.2475549089  1.0617510914
H   1.0670100964 -1.3050254343 -0.9449662598
H   2.3022735931 -0.7167209970  0.3319856568
7
Iter 106  Energy = -29.6073341137
C   0.8779344422  0.7839889346 -0.1643365876
H   0.7008214979  1.5623544718 -0.9184196758
O   0.5239898312  0.9692055825  1.1223791624
C   1.3509570932 -0.5558669399 -0.1944589110
H   0.7782559744 -0.2475667058  1.0617413988
H   1.0669601924 -1.3050836558 -0.9448887395
H   2.3023225882 -0.7166650272  0.3319226061
7
Iter 107  Energy = -29.6073343372
C   0.8779276648  0.7839898815 -0.1643465014
H   0.7008890200  1.5624082758 -0.9183944933
O   0.5239332307  0.9691656034  1.1223638658
C   1.3509652043 -0.5558677921 -0.1944635898
H   0.7782445723 -0.2475783502  1.0617319158
H   1.0669106477 -1.3051413421 -0.9448118110
H   2.3023712797 -0.7166096157  0.3318598696
7
Iter 108  Energy = -29.6073345757
C   0.8779208727  0.7839908379 -0.1643562957
H   0.7009561425  1.5624616184 -0.9183695105
O   0.5238768293  0.9691259504  1.1223486240
C   1.3509732027 -0.5558686283 -0.1944681824
H   0.7782333820 -0.2475898597  1.0617226070
H   1.0668614641 -1.3051985006 -0.9447354591
H   2.3024197268 -0.7165547591  0.3317974731
7
Iter 109  Energy = -29.6073347843
C   0.8779140775  0.7839917635 -0.1643660109
H   0.7010228529  1.5625145314 -0.9183447328
O   0.5238206089  0.9690866520  1.1223334827
C   1.3509811752 -0.5558694729 -0.1944726851
H   0.7782223834 -0.2476012217  1.0617134943
H   1.0668126240 -1.3052551413 -0.9446596942
H   2.3024678981 -0.7165004523  0.3317354032
7
Iter 110  Energy = -29.6073350525
C   0.8779072610  0.7839926837 -0.1643755836
H   0.7010891615  1.5625670168 -0.9183201737
O   0.5237645984  0.9690476670  1.1223183951
C   1.3509891205 -0.5558703248 -0.1944770855
H   0.7782115778 -0.2476124379  1.0617045638
H   1.0667641285 -1.3053112701 -0.9445845083
H   2.3025157726 -0.7164466760  0.3316736493
7
Iter 111  Energy = -29.6073352313
C   0.8779004577  0.7839935570 -0.1643850923
H   0.7011550669  1.5626190769 -0.9182958199
O   0.5237087746  0.9690090136  1.1223034263
C   1.3509969960 -0.5558711477 -0.1944814076
H   0.7782009586 -0.2476235104  1.0616958191
H   1.0667159832 -1.3053668925 -0.9445098902
H   2.3025633834 -0.7163934384  0.3316122237
7
Iter 112  Energy = -29.6073354846
C   0.8778936311  0.7839944451 -0.1643944650
H   0.7012205717  1.5626707090 -0.9182716713
O   0.5236531656  0.9689706678  1.1222884960
C   1.3510048460 -0.5558719910 -0.1944856386
H   0.7781905169 -0.2476344374  1.0616872661
H   1.0666681773 -1.3054220148 -0.9444358455
H   2.3026107115 -0.7163407210  0.3315511165
7
Iter 113  Energy = -29.6073356932
C   0.8778868108  0.7839953028 -0.1644037494
H   0.7012856763  1.5627219220 -0.9182477178
O   0.5235977577  0.9689326494  1.1222736471
C   1.3510126267 -0.5558728224 -0.1944897871
H   0.7781802580 -0.2476452400  1.0616788806
H   1.0666207088 -1.3054766330 -0.9443623558
H   2.3026577820 -0.7162885205  0.3314903412
7
Iter 114  Energy = -29.6073359317
C   0.8778799966  0.7839961156 -0.1644129168
H   0.7013503802  1.5627727270 -0.9182239709
O   0.5235425651  0.9688949336  1.1222588576
C   1.3510203621 -0.5558736332 -0.1944938234
H   0.7781701742 -0.2476559099  1.0616706498
H   1.0665735707 -1.3055307513 -0.9442894166
H   2.3027045711 -0.7162368230  0.3314298797
7
Iter 115  Energy = -29.6073360658
C   0.8778731804  0.7839969385 -0.1644220084
H   0.7014146906  1.5628231020 -0.9182004070
O   0.5234875781  0.9688575282  1.1222441522
C   1.3510280471 -0.5558744439 -0.1944977891
H   0.7781602591 -0.2476664425  1.0616625991
H   1.0665267652 -1.3055843932 -0.9442170355
H   2.3027510986 -0.7161856307  0.3313697467
7
Iter 116  Energy = -29.6073363042
C   0.8778663757  0.7839977099 -0.1644310127
H   0.7014786075  1.5628730719 -0.9181770389
O   0.5234328052  0.9688204109  1.1222295272
C   1.3510356538 -0.5558752183 -0.1945016641
H   0.7781505115 -0.2476768334  1.0616546993
H   1.0664802889 -1.3056375440 -0.9441451942
H   2.3027973760 -0.7161349387  0.3313099406
7
Iter 117  Energy = -29.6073365128
C   0.8778595653  0.7839985014 -0.1644399335
H   0.7015421330  1.5629226365 -0.9181538594
O   0.5233782456  0.9687836050  1.1222149783
C   1.3510432464 -0.5558760293 -0.1945054628
H   0.7781409212 -0.2476871122  1.0616469805
H   1.0664341376 -1.3056902181 -0.9440738927
H   2.3028433692 -0.7160847249  0.3312504492
7
Iter 118  Energy = -29.6073367214
C   0.8778527686  0.7839992344 -0.1644487309
H   0.7016052618  1.5629718113 -0.9181308720
O   0.5233239074  0.9687470915  1.1222004775
C   1.3510507891 -0.5558768026 -0.1945091847
H   0.7781314864 -0.2476972480  1.0616394283
H   1.0663883032 -1.3057424318 -0.9440031434
H   2.3028891020 -0.7160349959  0.3311912841
7
Iter 119  Energy = -29.6073368704
C   0.8778459666  0.7840000089 -0.1644574820
H   0.7016680076  1.5630205700 -0.9181080664
O   0.5232697787  0.9687108667  1.1221860930
C   1.3510582764 -0.5558776247 -0.1945128294
H   0.7781222112 -0.2477072539  1.0616320161
H   1.0663427951 -1.3057941647 -0.9439329134
H   2.3029345830 -0.7159857438  0.3311324430
7
Iter 120  Energy = -29.6073371089
C   0.8778391974  0.7840007288 -0.1644661647
H   0.7017303620  1.5630689430 -0.9180854441
O   0.5232158852  0.9686748329  1.1221717820
C   1.3510657637 -0.5558784227 -0.1945164463
H   0.7781130462 -0.2477170184  1.0616248564
H   1.0662976079 -1.3058454533 -0.9438632340
H   2.3029797565 -0.7159369518  0.3310739117
7
Iter 121  Energy = -29.6073372877
C   0.8778324553  0.7840013372 -0.1644747086
H   0.7017923279  1.5631169474 -0.9180630305
O   0.5231622277  0.9686390682  1.1221575079
C   1.3510731489 -0.5558791172 -0.1945199598
H   0.7781040367 -0.2477266666  1.0616178216
H   1.0662527280 -1.3058962853 -0.9437940786
H   2.3030246944 -0.7158886255  0.3310157099
7
Iter 122  Energy = -29.6073375410
C   0.8778256925  0.7840020262 -0.1644831556
H   0.7018539151  1.5631645471 -0.9180407929
O   0.5231088008  0.9686035820  1.1221432929
C   1.3510805077 -0.5558799051 -0.1945234296
H   0.7780951746 -0.2477361993  1.0616109388
H   1.0662081723 -1.3059466457 -0.9437254180
H   2.3030693558 -0.7158407469  0.3309578255
7
Iter 123  Energy = -29.6073376751
C   0.8778189608  0.7840026331 -0.1644914831
H   0.7019151154  1.5632117798 -0.9180187498
O   0.5230556059  0.9685683730  1.1221291135
C   1.3510877728 -0.5558805950 -0.1945268020
H   0.7780864608 -0.2477456335  1.0616041993
H   1.0661639199 -1.3059965733 -0.9436572862
H   2.3031137831 -0.7157933261  0.3309002707
7
Iter 124  Energy = -29.6073377943
C   0.8778122371  0.7840032897 -0.1644998099
H   0.7019759412  1.5632586114 -0.9179968693
O   0.5230026273  0.9685334408  1.1221150577
C   1.3510950107 -0.5558813367 -0.1945301220
H   0.7780778828 -0.2477549570  1.0615976294
H   1.0661199789 -1.3060460456 -0.9435896574
H   2.3031579405 -0.7157463440  0.3308430337
7
Iter 125  Energy = -29.6073380178
C   0.8778055261  0.7840038734 -0.1645079915
H   0.7020363851  1.5633050827 -0.9179751708
O   0.5229498830  0.9684988009  1.1221010311
C   1.3511022369 -0.5558820375 -0.1945333360
H   0.7780694452 -0.2477641725  1.0615911815
H   1.0660763284 -1.3060950969 -0.9435225525
H   2.3032018134 -0.7156997903  0.3307861011
7
Iter 126  Energy = -29.6073382115
C   0.8777988193  0.7840045117 -0.1645161257
H   0.7020964582  1.5633511606 -0.9179536407
O   0.5228973687  0.9684644308  1.1220870804
C   1.3511093880 -0.5558827749 -0.1945364902
H   0.7780611481 -0.2477733103  1.0615848704
H   1.0660329886 -1.3061436895 -0.9434559244
H   2.3032454470 -0.7156536695  0.3307294926
7
Iter 127  Energy = -29.6073383755
C   0.8777921450  0.7840050791 -0.1645241692
H   0.7021561487  1.5633968972 -0.9179322995
O   0.5228450804  0.9684303263  1.1220732079
C   1.3511165145 -0.5558834844 -0.1945395605
H   0.7780529820 -0.2477823267  1.0615786931
H   1.0659899428 -1.3061918596 -0.9433897994
H   2.3032888039 -0.7156079726  0.3306731910
7
Iter 128  Energy = -29.6073384947
C   0.8777854892  0.7840056401 -0.1645321331
H   0.7022154680  1.5634422573 -0.9179111233
O   0.5227930224  0.9683964915  1.1220594059
C   1.3511235454 -0.5558841934 -0.1945425940
H   0.7780449417 -0.2477912334  1.0615726441
H   1.0659471967 -1.3062396031 -0.9433241618
H   2.3033319537 -0.7155626990  0.3306172272
7
Iter 129  Energy = -29.6073387331
C   0.8777788281  0.7840062035 -0.1645399663
H   0.7022744185  1.5634872529 -0.9178901196
O   0.5227412128  0.9683629252  1.1220456189
C   1.3511305310 -0.5558849038 -0.1945455540
H   0.7780370341 -0.2478000640  1.0615667111
H   1.0659047456 -1.3062869146 -0.9432589978
H   2.3033748474 -0.7155178394  0.3305615746
7
Iter 130  Energy = -29.6073389268
C   0.8777721915  0.7840067573 -0.1645477737
H   0.7023330030  1.5635318810 -0.9178692790
O   0.5226896255  0.9683296150  1.1220319529
C   1.3511374949 -0.5558856127 -0.1945484078
H   0.7780292516 -0.2478087783  1.0615608814
H   1.0658625810 -1.3063338159 -0.9431943278
H   2.3034174701 -0.7154733860  0.3305062215
7
Iter 131  Energy = -29.6073390758
C   0.8777655813  0.7840072884 -0.1645555106
H   0.7023912179  1.5635761625 -0.9178486131
O   0.5226382686  0.9682965795  1.1220183603
C   1.3511444188 -0.5558863053 -0.1945512097
H   0.7780215868 -0.2478174164  1.0615552003
H   1.0658207047 -1.3063803127 -0.9431301417
H   2.3034598395 -0.7154293355  0.3304511831
7
Iter 132  Energy = -29.6073392695
C   0.8777589823  0.7840078165 -0.1645631473
H   0.7024490710  1.5636200848 -0.9178281168
O   0.5225871519  0.9682637939  1.1220048295
C   1.3511512944 -0.5558870068 -0.1945539550
H   0.7780140438 -0.2478259508  1.0615496231
H   1.0657791158 -1.3064263969 -0.9430664234
H   2.3035019576 -0.7153856801  0.3303964577
7
Iter 133  Energy = -29.6073394185
C   0.8777523965  0.7840083501 -0.1645706960
H   0.7025065600  1.5636636542 -0.9178077803
O   0.5225362766  0.9682312596  1.1219913451
C   1.3511580926 -0.5558877236 -0.1945566672
H   0.7780066118 -0.2478343884  1.0615441749
H   1.0657378192 -1.3064720651 -0.9430031636
H   2.3035438606 -0.7153424264  0.3303420547
7
Iter 134  Energy = -29.6073395824
C   0.8777458366  0.7840088555 -0.1645781772
H   0.7025636845  1.5637068957 -0.9177876262
O   0.5224856303  0.9681989895  1.1219779597
C   1.3511648707 -0.5558884241 -0.1945592852
H   0.7779992966 -0.2478427521  1.0615388208
H   1.0656967948 -1.3065173436 -0.9429403766
H   2.3035855042 -0.7152995597  0.3302879526
7
Iter 135  Energy = -29.6073397315
C   0.8777392994  0.7840093285 -0.1645855811
H   0.7026204497  1.5637497953 -0.9177676345
O   0.5224352198  0.9681669686  1.1219646488
C   1.3511716409 -0.5558891111 -0.1945618057
H   0.7779920912 -0.2478510144  1.0615335646
H   1.0656560441 -1.3065622347 -0.9428780609
H   2.3036268725 -0.7152570713  0.3302341383
7
Iter 136  Energy = -29.6073398507
C   0.8777327849  0.7840097981 -0.1645929247
H   0.7026768605  1.5637923433 -0.9177477951
O   0.5223850486  0.9681351849  1.1219514045
C   1.3511783321 -0.5558897820 -0.1945643003
H   0.7779849932 -0.2478591840  1.0615284314
H   1.0656155788 -1.3066067307 -0.9428161927
H   2.3036680194 -0.7152149695  0.3301806456
7
Iter 137  Energy = -29.6073400444
C   0.8777262811  0.7840102699 -0.1646001844
H   0.7027329162  1.5638345516 -0.9177281093
O   0.5223351239  0.9681036394  1.1219382028
C   1.3511850090 -0.5558904840 -0.1945667510
H   0.7779779921 -0.2478672597  1.0615234274
H   1.0655753880 -1.3066508200 -0.9427547686
H   2.3037089080 -0.7151732366  0.3301274513
7
Iter 138  Energy = -29.6073401934
C   0.8777198093  0.7840107198 -0.1646073978
H   0.7027886170  1.5638764320 -0.9177085863
O   0.5222854275  0.9680723413  1.1219251075
C   1.3511916269 -0.5558911562 -0.1945691086
H   0.7779710990 -0.2478752500  1.0615185019
H   1.0655354640 -1.3066945479 -0.9426938139
H   2.3037495750 -0.7151318787  0.3300745671
7
Iter 139  Energy = -29.6073403126
C   0.8777133563  0.7840111706 -0.1646145316
H   0.7028439674  1.5639179820 -0.9176892265
O   0.5222359708  0.9680412851  1.1219120818
C   1.3511981915 -0.5558918376 -0.1945714229
H   0.7779643082 -0.2478831645  1.0615136719
H   1.0654958171 -1.3067378859 -0.9426332871
H   2.3037900080 -0.7150908886  0.3300219863
7
Iter 140  Energy = -29.6073404616
C   0.8777069249  0.7840116016 -0.1646215811
H   0.7028989665  1.5639592039 -0.9176700165
O   0.5221867531  0.9680104729  1.1218991078
C   1.3512047289 -0.5558925197 -0.1945736867
H   0.7779576167 -0.2478909906  1.0615089490
H   1.0654564405 -1.3067808462 -0.9425732005
H   2.3038301884 -0.7150502608  0.3299696996
7
Iter 141  Energy = -29.6073406553
C   0.8777005198  0.7840120430 -0.1646285776
H   0.7029536173  1.5640001010 -0.9176509607
O   0.5221377778  0.9679798866  1.1218862179
C   1.3512112132 -0.5558931913 -0.1945758917
H   0.7779510155 -0.2478987306  1.0615043294
H   1.0654173251 -1.3068234585 -0.9425135708
H   2.3038701502 -0.7150099887  0.3299177261
7
Iter 142  Energy = -29.6073407596
C   0.8776941363  0.7840124502 -0.1646354905
H   0.7030079262  1.5640406667 -0.9176320571
O   0.5220890392  0.9679495432  1.1218733970
C   1.3512176764 -0.5558938595 -0.1945780435
H   0.7779445146 -0.2479063884  1.0614997880
H   1.0653784774 -1.3068656857 -0.9424543607
H   2.3039098485 -0.7149700659  0.3298660387
7
Iter 143  Energy = -29.6073409385
C   0.8776877766  0.7840128657 -0.1646423437
H   0.7030618868  1.5640809230 -0.9176133095
O   0.5220405424  0.9679194071  1.1218606548
C   1.3512240817 -0.5558945504 -0.1945801661
H   0.7779380998 -0.2479139378  1.0614953507
H   1.0653398981 -1.3069075461 -0.9423955770
H   2.3039493332 -0.7149304996  0.3298146625
7
Iter 144  Energy = -29.6073410875
C   0.8776814511  0.7840132441 -0.1646491321
H   0.7031155063  1.5641208610 -0.9175947102
O   0.5219922801  0.9678895129  1.1218479928
C   1.3512304620 -0.5558951987 -0.1945822136
H   0.7779317725 -0.2479214106  1.0614910023
H   1.0653015670 -1.3069490731 -0.9423372463
H   2.3039885790 -0.7148912738  0.3297635772
7
Iter 145  Energy = -29.6073412067
C   0.8776751722  0.7840135563 -0.1646558572
H   0.7031687799  1.5641605060 -0.9175762740
O   0.5219442673  0.9678597737  1.1218354128
C   1.3512368050 -0.5558958222 -0.1945842311
H   0.7779255181 -0.2479287242  1.0614867728
H   1.0652635030 -1.3069902394 -0.9422793350
H   2.3040275713 -0.7148523891  0.3297127824
7
Iter 146  Energy = -29.6073413110
C   0.8776688970  0.7840139299 -0.1646625412
H   0.7032217191  1.5641998150 -0.9175579561
O   0.5218964936  0.9678302576  1.1218228960
C   1.3512431091 -0.5558965152 -0.1945862495
H   0.7779193414 -0.2479359403  1.0614826633
H   1.0652256969 -1.3070310427 -0.9422218432
H   2.3040663599 -0.7148138427  0.3296623028
7
Iter 147  Energy = -29.6073414600
C   0.8776626552  0.7840142640 -0.1646691545
H   0.7032743254  1.5642388104 -0.9175397745
O   0.5218489539  0.9678010044  1.1218104600
C   1.3512493610 -0.5558971568 -0.1945882046
H   0.7779132594 -0.2479431138  1.0614786034
H   1.0651881484 -1.3070715171 -0.9421647684
H   2.3041049134 -0.7147756291  0.3296121103
7
Iter 148  Energy = -29.6073415792
C   0.8776564295  0.7840145930 -0.1646756926
H   0.7033265985  1.5642774925 -0.9175217357
O   0.5218016454  0.9677720075  1.1217980923
C   1.3512555740 -0.5558977812 -0.1945901127
H   0.7779072650 -0.2479502451  1.0614746088
H   1.0651508448 -1.3071116471 -0.9421081044
H   2.3041432591 -0.7147377571  0.3295622167
7
Iter 149  Energy = -29.6073416984
C   0.8776502475  0.7840148887 -0.1646821703
H   0.7033785358  1.5643158783 -0.9175038503
O   0.5217545719  0.9677432398  1.1217858116
C   1.3512617628 -0.5558983726 -0.1945919667
H   0.7779013463 -0.2479573124  1.0614707003
H   1.0651137929 -1.3071514519 -0.9420518508
H   2.3041813594 -0.7147002074  0.3295125996
7
Iter 150  Energy = -29.6073418176
C   0.8776440779  0.7840152288 -0.1646885869
H   0.7034301445  1.5643539534 -0.9174860931
O   0.5217077388  0.9677146917  1.1217736006
C   1.3512679139 -0.5558989950 -0.1945937765
H   0.7778955031 -0.2479643040  1.0614668553
H   1.0650769937 -1.3071909289 -0.9419959975
H   2.3042192446 -0.7146629843  0.3294632721
7
Iter 151  Energy = -29.6073419517
C   0.8776379469  0.7840154945 -0.1646948859
H   0.7034814210  1.5643917433 -0.9174684849
O   0.5216611517  0.9676863555  1.1217614268
C   1.3512739975 -0.5558995541 -0.1945955648
H   0.7778897305 -0.2479712144  1.0614630898
H   1.0650404462 -1.3072300743 -0.9419405421
H   2.3042569223 -0.7146260894  0.3294142364
7
Iter 152  Energy = -29.6073421156
C   0.8776318389  0.7840157948 -0.1647011601
H   0.7035323704  1.5644292294 -0.9174509997
O   0.5216148043  0.9676582245  1.1217493341
C   1.3512800682 -0.5559001453 -0.1945973113
H   0.7778840266 -0.2479780434  1.0614594150
H   1.0650041469 -1.3072688924 -0.9418854801
H   2.3042943605 -0.7145895071  0.3293654774
7
Iter 153  Energy = -29.6073422498
C   0.8776257616  0.7840160799 -0.1647073967
H   0.7035829971  1.5644664109 -0.9174336330
O   0.5215686916  0.9676303034  1.1217373277
C   1.3512861088 -0.5559007088 -0.1945990044
H   0.7778783928 -0.2479847869  1.0614558048
H   1.0649680869 -1.3073074004 -0.9418308264
H   2.3043315767 -0.7145532375  0.3293170033
7
Iter 154  Energy = -29.6073423988
C   0.8776197049  0.7840163655 -0.1647135485
H   0.7036332959  1.5645033231 -0.9174164183
O   0.5215228185  0.9676025999  1.1217253830
C   1.3512921127 -0.5559012892 -0.1946006736
H   0.7778728280 -0.2479914741  1.0614522668
H   1.0649322717 -1.3073455831 -0.9417765505
H   2.3043685842 -0.7145172827  0.3292688149
7
Iter 155  Energy = -29.6073425180
C   0.8776136807  0.7840166354 -0.1647196330
H   0.7036832745  1.5645399402 -0.9173993364
O   0.5214771876  0.9675751047  1.1217134934
C   1.3512980722 -0.5559018501 -0.1946023080
H   0.7778673292 -0.2479981015  1.0614488060
H   1.0648966986 -1.3073834362 -0.9417226525
H   2.3044053736 -0.7144816346  0.3292209052
7
Iter 156  Energy = -29.6073426074
C   0.8776076819  0.7840169028 -0.1647256697
H   0.7037329328  1.5645762745 -0.9173823867
O   0.5214317970  0.9675478056  1.1217016807
C   1.3513040263 -0.5559024019 -0.1946038939
H   0.7778618916 -0.2480046443  1.0614454297
H   1.0648613578 -1.3074209919 -0.9416691581
H   2.3044419296 -0.7144462870  0.3291732733
7
Iter 157  Energy = -29.6073426670
C   0.8776017041  0.7840171841 -0.1647316493
H   0.7037822738  1.5646123243 -0.9173655686
O   0.5213866411  0.9675207242  1.1216899501
C   1.3513099326 -0.5559029645 -0.1946054420
H   0.7778565262 -0.2480111323  1.0614420950
H   1.0648262597 -1.3074582349 -0.9416160307
H   2.3044782799 -0.7144112434  0.3291259208
7
Iter 158  Energy = -29.6073428160
C   0.8775957745  0.7840174109 -0.1647375688
H   0.7038312971  1.5646481018 -0.9173488824
O   0.5213417140  0.9674938583  1.1216783016
C   1.3513157978 -0.5559035094 -0.1946069798
H   0.7778512213 -0.2480175500  1.0614388309
H   1.0647913969 -1.3074951637 -0.9415632754
H   2.3045144159 -0.7143764905  0.3290788497
7
Iter 159  Energy = -29.6073428905
C   0.8775898637  0.7840176839 -0.1647434483
H   0.7038800096  1.5646835759 -0.9173322952
O   0.5212970305  0.9674671884  1.1216666922
C   1.3513216258 -0.5559040410 -0.1946084686
H   0.7778459753 -0.2480239093  1.0614356495
H   1.0647567654 -1.3075318059 -0.9415109102
H   2.3045503469 -0.7143420347  0.3290320558
7
Iter 160  Energy = -29.6073430395
C   0.8775839770  0.7840179232 -0.1647492409
H   0.7039284065  1.5647187965 -0.9173158577
O   0.5212525884  0.9674407136  1.1216551541
C   1.3513274501 -0.5559045740 -0.1946099012
H   0.7778407914 -0.2480301953  1.0614325117
H   1.0647223648 -1.3075681417 -0.9414589123
H   2.3045860386 -0.7143078652  0.3289855227
7
Iter 161  Energy = -29.6073431438
C   0.8775781208  0.7840181732 -0.1647550038
H   0.7039764943  1.5647537387 -0.9172995411
O   0.5212083766  0.9674144282  1.1216437060
C   1.3513332209 -0.5559051226 -0.1946113239
H   0.7778356665 -0.2480364014  1.0614294412
H   1.0646881971 -1.3076041734 -0.9414072789
H   2.3046215408 -0.7142739859  0.3289392764
7
Iter 162  Energy = -29.6073432928
C   0.8775722992  0.7840183890 -0.1647606699
H   0.7040242700  1.5647884201 -0.9172833569
O   0.5211644006  0.9673883627  1.1216323041
C   1.3513389438 -0.5559056527 -0.1946127134
H   0.7778306049 -0.2480425630  1.0614264176
H   1.0646542578 -1.3076399108 -0.9413560109
H   2.3046568402 -0.7142403878  0.3288933042
7
Iter 163  Energy = -29.6073434120
C   0.8775665033  0.7840186102 -0.1647662933
H   0.7040717413  1.5648228269 -0.9172672905
O   0.5211206644  0.9673624875  1.1216209632
C   1.3513446180 -0.5559061706 -0.1946140720
H   0.7778256000 -0.2480486749  1.0614234590
H   1.0646205487 -1.3076753484 -0.9413050947
H   2.3046919411 -0.7142070740  0.3288476053
7
Iter 164  Energy = -29.6073434418
C   0.8775607373  0.7840188300 -0.1647718764
H   0.7041189017  1.5648569861 -0.9172513580
O   0.5210771635  0.9673367974  1.1216097013
C   1.3513503291 -0.5559067022 -0.1946153723
H   0.7778206465 -0.2480547201  1.0614205790
H   1.0645870648 -1.3077105019 -0.9412545444
H   2.3047267738 -0.7141740335  0.3288021488
7
Iter 165  Energy = -29.6073435313
C   0.8775549981  0.7840190647 -0.1647774275
H   0.7041657617  1.5648908662 -0.9172355257
O   0.5210338972  0.9673112888  1.1215985095
C   1.3513559845 -0.5559072319 -0.1946166607
H   0.7778157440 -0.2480606831  1.0614177655
H   1.0645538062 -1.3077453762 -0.9412043587
H   2.3047614254 -0.7141412728  0.3287569757
7
Iter 166  Energy = -29.6073437250
C   0.8775493038  0.7840192667 -0.1647829258
H   0.7042123141  1.5649245089 -0.9172198352
O   0.5209908661  0.9672859644  1.1215873891
C   1.3513615777 -0.5559077244 -0.1946178797
H   0.7778109041 -0.2480666026  1.0614149871
H   1.0645207660 -1.3077799722 -0.9411545314
H   2.3047958853 -0.7141087841  0.3287120733
7
Iter 167  Energy = -29.6073437697
C   0.8775436400  0.7840194740 -0.1647883545
H   0.7042585675  1.5649578877 -0.9172042652
O   0.5209480657  0.9672608381  1.1215763353
C   1.3513671398 -0.5559082555 -0.1946191177
H   0.7778061142 -0.2480724637  1.0614122761
H   1.0644879601 -1.3078142637 -0.9411050278
H   2.3048301292 -0.7140765596  0.3286674333
7
Iter 168  Energy = -29.6073439038
C   0.8775379882  0.7840196854 -0.1647937273
H   0.7043045269  1.5649910038 -0.9171888071
O   0.5209055068  0.9672358868  1.1215653331
C   1.3513726947 -0.5559087556 -0.1946202872
H   0.7778013752 -0.2480782577  1.0614096173
H   1.0644553576 -1.3078483021 -0.9410559038
H   2.3048641671 -0.7140446033  0.3286230561
7
Iter 169  Energy = -29.6073439783
C   0.8775323766  0.7840198891 -0.1647990618
H   0.7043501846  1.5650238806 -0.9171734732
O   0.5208631736  0.9672111298  1.1215544113
C   1.3513781946 -0.5559092795 -0.1946214565
H   0.7777966895 -0.2480840035  1.0614070159
H   1.0644229846 -1.3078820472 -0.9410071039
H   2.3048980129 -0.7140129128  0.3285789494
7
Iter 170  Energy = -29.6073440826
C   0.8775267931  0.7840200968 -0.1648043497
H   0.7043955509  1.5650564968 -0.9171582521
O   0.5208210771  0.9671865564  1.1215435464
C   1.3513836695 -0.5559097738 -0.1946225715
H   0.7777920561 -0.2480897085  1.0614044669
H   1.0643908187 -1.3079155314 -0.9409586627
H   2.3049316513 -0.7139814791  0.3285351047
7
Iter 171  Energy = -29.6073442167
C   0.8775212367  0.7840202858 -0.1648095736
H   0.7044406226  1.5650888763 -0.9171431503
O   0.5207792136  0.9671621630  1.1215327374
C   1.3513891095 -0.5559102847 -0.1946236561
H   0.7777874758 -0.2480953519  1.0614019551
H   1.0643588702 -1.3079487311 -0.9409105494
H   2.3049650886 -0.7139503008  0.3284915186
7
Iter 172  Energy = -29.6073442614
C   0.8775157168  0.7840204651 -0.1648147718
H   0.7044854042  1.5651210020 -0.9171281621
O   0.5207375784  0.9671379415  1.1215220136
C   1.3513945331 -0.5559107524 -0.1946246965
H   0.7777829365 -0.2481009328  1.0613995035
H   1.0643271270 -1.3079816853 -0.9408627946
H   2.3049983209 -0.7139193816  0.3284481887
7
Iter 1  Energy = -29.6072649425
C   0.8773921451  0.7831182387 -0.1629029006
H   0.6911018484  1.5542102621 -0.9219984127
O   0.5295155708  0.9762543365  1.1235407622
C   1.3489756426 -0.5563266627 -0.1924074787
H   0.7827561667 -0.2432776735  1.0661503080
H   1.0762358481 -1.2945743958 -0.9580920696
H   2.2952644011 -0.7290374516  0.3396490436
