7
Image 0  Energy = -29.6075593746
C   0.8613385953  0.7718102108 -0.1718765902
H   0.6612420558  1.5335522151 -0.9375784864
O   0.5522144788  0.9888425132  1.1202820987
C   1.3421671900 -0.5678817375 -0.1813062071
H   0.8249916890 -0.2459457550  1.0724829935
H   1.0212188824 -1.3464360282 -0.8849097224
H   2.3232943747 -0.7019884075  0.2958787863
7
Image 1  Energy = -29.6088791704
C   0.8603197417  0.7734025591 -0.1690063955
H   0.6608547305  1.5332998527 -0.9369747299
O   0.5521021180  0.9909901603  1.1186125844
C   1.3423360173 -0.5691072959 -0.1791754314
H   0.8360181371 -0.2857679136  1.0408377511
H   1.0187605202 -1.3455219206 -0.8824667165
H   2.3270254334 -0.7012845736  0.2913795747
7
Image 2  Energy = -29.6110389298
C   0.8591073389  0.7752827128 -0.1654600288
H   0.6604097286  1.5329911937 -0.9360541947
O   0.5521579563  0.9930004015  1.1163325622
C   1.3425680033 -0.5703949290 -0.1769359718
H   0.8458618013 -0.3264337951  1.0098867207
H   1.0160731070 -1.3444944348 -0.8798446149
H   2.3311101715 -0.7003036139  0.2860325418
7
Image 3  Energy = -29.6143125957
C   0.8579490888  0.7770377888 -0.1620200524
H   0.6600946708  1.5326139625 -0.9350358675
O   0.5522078925  0.9951268934  1.1140529130
C   1.3427007695 -0.5715326878 -0.1747519626
H   0.8554465491 -0.3691315377  0.9820902292
H   1.0140971079 -1.3435226943 -0.8782207383
H   2.3352432675 -0.6993081147  0.2803568903
7
Image 4  Energy = -29.6188816047
C   0.8568636856  0.7787336483 -0.1588766888
H   0.6599005339  1.5323010623 -0.9341669193
O   0.5522275434  0.9973267940  1.1119153796
C   1.3426926568 -0.5726152618 -0.1724940927
H   0.8652156649 -0.4132900164  0.9560228722
H   1.0129606494 -1.3423074161 -0.8773592445
H   2.3395227937 -0.6982766207  0.2742616261
7
Image 5  Energy = -29.6244921452
C   0.8557788202  0.7804364718 -0.1557130189
H   0.6598232901  1.5320368885 -0.9335454607
O   0.5522551618  0.9995398307  1.1097621549
C   1.3425990929 -0.5737564279 -0.1701324795
H   0.8745256851 -0.4575211212  0.9303972275
H   1.0124996922 -1.3407629595 -0.8770252599
H   2.3443543778 -0.6971436222  0.2672702523
7
Image 6  Energy = -29.6311933464
C   0.8547207950  0.7820566792 -0.1525455634
H   0.6599006010  1.5317134196 -0.9331009747
O   0.5522464824  1.0019106703  1.1076569435
C   1.3424852894 -0.5749340566 -0.1678990628
H   0.8833369517 -0.5030133659  0.9071093298
H   1.0127763379 -1.3391149346 -0.8775633141
H   2.3492900423 -0.6958796097  0.2597107152
7
Image 7  Energy = -29.6386638945
C   0.8536727556  0.7835864134 -0.1493176023
H   0.6601650676  1.5312267431 -0.9326808866
O   0.5521848527  1.0045232600  1.1055943809
C   1.3424536991 -0.5762117095 -0.1659713605
H   0.8909768250 -0.5502852912  0.8877131881
H   1.0137747140 -1.3373281144 -0.8790849743
H   2.3542300048 -0.6943786155  0.2515121685
7
Image 8  Energy = -29.6459792620
C   0.8525269005  0.7851531595 -0.1456908495
H   0.6606697973  1.5306000371 -0.9322991143
O   0.5521374789  1.0073204830  1.1033128072
C   1.3425561513 -0.5777000744 -0.1642701115
H   0.8964329851 -0.5991616386  0.8723374437
H   1.0155150956 -1.3350999889 -0.8816803020
H   2.3597134431 -0.6924350637  0.2418275190
7
Image 9  Energy = -29.6528874552
C   0.8512735946  0.7867578098 -0.1416544987
H   0.6614769289  1.5297967492 -0.9320073767
O   0.5521253203  1.0102044237  1.1008015663
C   1.3427630102 -0.5794219767 -0.1626911108
H   0.8996519186 -0.6479753886  0.8601059965
H   1.0180199497 -1.3323241164 -0.8854496444
H   2.3658446339 -0.6899707674  0.2304843462
7
Image 10  Energy = -29.6593914992
C   0.8499300778  0.7882786413 -0.1372122916
H   0.6626192060  1.5287540599 -0.9317268666
O   0.5521227607  1.0132456844  1.0981218606
C   1.3430297652 -0.5813782548 -0.1611653095
H   0.9013855028 -0.6964424994  0.8492337677
H   1.0213664414 -1.3289201980 -0.8905505877
H   2.3724932465 -0.6869471889  0.2175963215
7
Image 11  Energy = -29.6654533511
C   0.8485018558  0.7896152671 -0.1323507050
H   0.6641291092  1.5273865774 -0.9313155699
O   0.5521119264  1.0165005586  1.0953050380
C   1.3433445591 -0.5836036441 -0.1596562063
H   0.9020268955 -0.7440155289  0.8387767624
H   1.0256873180 -1.3246432615 -0.8972128587
H   2.3794602966 -0.6833548670  0.2031018315
7
Image 12  Energy = -29.6711642957
C   0.8470267867  0.7907175223 -0.1272488419
H   0.6659603314  1.5256994307 -0.9306724532
O   0.5520520258  1.0200219761  1.0924877095
C   1.3437052545 -0.5860900405 -0.1582071110
H   0.9023030734 -0.7909407969  0.8285245938
H   1.0309317873 -1.3193993311 -0.9053577073
H   2.3863377077 -0.6793855252  0.1875134002
7
Image 13  Energy = -29.6765133059
C   0.8454912522  0.7915676340 -0.1218849001
H   0.6681434198  1.5236203592 -0.9298154366
O   0.5519185624  1.0238923875  1.0896882821
C   1.3441305339 -0.5889017674 -0.1568409124
H   0.9025241556 -0.8376456401  0.8183770343
H   1.0371426971 -1.3129332940 -0.9151611888
H   2.3930704017 -0.6751249837  0.1708456174
7
Image 14  Energy = -29.6811721689
C   0.8438786667  0.7920851910 -0.1161924647
H   0.6707859581  1.5209950071 -0.9288340199
O   0.5517083392  1.0280792656  1.0869145563
C   1.3446277860 -0.5921367217 -0.1555450908
H   0.9026942825 -0.8816555503  0.8077653338
H   1.0443915953 -1.3049144105 -0.9269309257
H   2.3996354516 -0.6705832547  0.1529999842
7
Image 15  Energy = -29.6852844125
C   0.8421463415  0.7921668606 -0.1100205639
H   0.6740885278  1.5176088126 -0.9278118699
O   0.5513717106  1.0327968126  1.0841858803
C   1.3452414445 -0.5959779093 -0.1543410094
H   0.9030102742 -0.9234541388  0.7960017110
H   1.0529465207 -1.2947164832 -0.9412506997
H   2.4061346249 -0.6656764170  0.1334808625
7
Image 16  Energy = -29.6888639844
C   0.8404046616  0.7917388116 -0.1037631471
H   0.6779927471  1.5134165546 -0.9268719311
O   0.5508579324  1.0380055865  1.0817709025
C   1.3459656247 -0.6002950177 -0.1533905155
H   0.9037981434 -0.9626795922  0.7839285544
H   1.0624361447 -1.2824324566 -0.9575303522
H   2.4122318033 -0.6606750297  0.1133370744
7
Image 17  Energy = -29.6920054025
C   0.8387121352  0.7907161294 -0.0975590990
H   0.6824919903  1.5083123104 -0.9260256169
O   0.5501180906  1.0437933276  1.0798012560
C   1.3467974062 -0.6050658717 -0.1527832016
H   0.9053247221 -0.9998856900  0.7716404243
H   1.0726740605 -1.2679949473 -0.9756093613
H   2.4179671840 -0.6556317811  0.0929580337
7
Image 18  Energy = -29.6947853482
C   0.8371416269  0.7889646944 -0.0915141153
H   0.6875423541  1.5022417888 -0.9253817155
O   0.5491079072  1.0502363190  1.0784001141
C   1.3477389841 -0.6101929571 -0.1526403851
H   0.9077852623 -1.0355251935  0.7590085641
H   1.0833399261 -1.2515738399 -0.9950452455
H   2.4233181749 -0.6506443316  0.0728888548
7
Image 19  Energy = -29.6972489125
C   0.8357451561  0.7864314087 -0.0856914732
H   0.6929997184  1.4952279882 -0.9251413873
O   0.5478203619  1.0573030314  1.0776272378
C   1.3488076891 -0.6155197453 -0.1530819120
H   0.9111969253 -1.0695084574  0.7459020640
H   1.0939152671 -1.2338108592 -1.0150726119
H   2.4282152860 -0.6459155908  0.0539294643
7
Image 20  Energy = -29.6994782454
C   0.8344499136  0.7829845498 -0.0797221370
H   0.6990081522  1.4867974319 -0.9253045482
O   0.5462164402  1.0652254837  1.0773987993
C   1.3501185125 -0.6211786206 -0.1542878028
H   0.9153301862 -1.1018531804  0.7317727459
H   1.1044662024 -1.2146229340 -1.0358632139
H   2.4327944166 -0.6415730176  0.0358773112
7
Image 21  Energy = -29.7014960265
C   0.8332113618  0.7784345760 -0.0732882543
H   0.7056453364  1.4764985446 -0.9256868124
O   0.5442412382  1.0742091864  1.0776701586
C   1.3518283081 -0.6272177715 -0.1565396993
H   0.9197126994 -1.1319464351  0.7164723098
H   1.1148713194 -1.1941666469 -1.0572039265
H   2.4371047318 -0.6380506810  0.0187604548
7
Image 22  Energy = -29.7033200330
C   0.8320638846  0.7727917940 -0.0663471104
H   0.7126453347  1.4642884909 -0.9260354800
O   0.5418747802  1.0842363187  1.0784280305
C   1.3540329015 -0.6334511207 -0.1600136698
H   0.9240409966 -1.1601766541  0.7001425787
H   1.1244585333 -1.1734878321 -1.0783107474
H   2.4411532885 -0.6359281853  0.0032021806
7
Image 23  Energy = -29.7050139672
C   0.8310391556  0.7661659716 -0.0588267654
H   0.7197486791  1.4501911991 -0.9264094395
O   0.5390974446  1.0953649335  1.0796158457
C   1.3567288617 -0.6398499096 -0.1646622478
H   0.9286871264 -1.1884234588  0.6822096920
H   1.1329266268 -1.1531371510 -1.0990582931
H   2.4451037347 -0.6353711224 -0.0108150338
7
Image 24  Energy = -29.7065340942
C   0.8301080505  0.7589112610 -0.0507704809
H   0.7264448651  1.4351604618 -0.9263997187
O   0.5359990529  1.1073123527  1.0810319464
C   1.3598506698 -0.6464186317 -0.1702215453
H   0.9336690346 -1.2164736570  0.6627800096
H   1.1403442053 -1.1338273693 -1.1191584713
H   2.4490820726 -0.6365139118 -0.0235245071
7
Image 25  Energy = -29.7078216738
C   0.8292140781  0.7513141086 -0.0421650562
H   0.7323269825  1.4203887313 -0.9253417371
O   0.5326678100  1.1198666141  1.0824712349
C   1.3633573683 -0.6532444618 -0.1764732707
H   0.9387066768 -1.2443155539  0.6421900709
H   1.1471102615 -1.1159157742 -1.1385711096
H   2.4531378526 -0.6392136953 -0.0354687897
7
Image 26  Energy = -29.7088296181
C   0.8283686642  0.7436939665 -0.0332755098
H   0.7369903724  1.4066614900 -0.9229268785
O   0.5292924829  1.1326512061  1.0837287102
C   1.3669593475 -0.6602410245 -0.1828808211
H   0.9444794172 -1.2725899312  0.6203343824
H   1.1534068463 -1.0991312073 -1.1574390623
H   2.4571343155 -0.6427470858 -0.0466867802
7
Image 27  Energy = -29.7095099753
C   0.8275735228  0.7361560251 -0.0243577452
H   0.7400891580  1.3934304564 -0.9193587444
O   0.5260890518  1.1454113147  1.0846465053
C   1.3702428264 -0.6674960956 -0.1888174580
H   0.9520053687 -1.2987358139  0.5980691973
H   1.1600508588 -1.0816121956 -1.1784763567
H   2.4610720027 -0.6471624214 -0.0570187246
7
Image 28  Energy = -29.7098713881
C   0.8266278810  0.7285267590 -0.0146645041
H   0.7420547713  1.3793650787 -0.9153709334
O   0.5227572671  1.1584924604  1.0854675179
C   1.3743830561 -0.6748368998 -0.1955014485
H   0.9565331395 -1.3252149763  0.5743420497
H   1.1653602725 -1.0641834165 -1.1987941695
H   2.4641292539 -0.6533668844 -0.0657241120
7
Image 29  Energy = -29.7099845177
C   0.8260159267  0.7245753429 -0.0086332700
H   0.7418454670  1.3709928456 -0.9123453912
O   0.5205533535  1.1659568108  1.0860284044
C   1.3779005092 -0.6788659078 -0.2005836927
H   0.9538966064 -1.3436688152  0.5599707702
H   1.1666412605 -1.0568519824 -1.2023335471
H   2.4660679173 -0.6573135592 -0.0710786712
7
Image 30  Energy = -29.6076040930
C   0.8620696111  0.7706078776 -0.1737602414
H   0.6614565670  1.5337668591 -0.9376421844
O   0.5525680552  0.9863925186  1.1211604717
C   1.3421049552 -0.5668731327 -0.1831633211
H   0.8123621428 -0.2041501376  1.1016245011
H   1.0232844588 -1.3468987762 -0.8864847196
H   2.3200635949 -0.7023507877  0.2990654337
7
Image 31  Energy = -29.6097123689
C   0.8626550204  0.7694799002 -0.1750931808
H   0.6617684943  1.5336722701 -0.9374398385
O   0.5529559103  0.9841609643  1.1217315325
C   1.3422402434 -0.5660592820 -0.1852798695
H   0.7980542946 -0.1642877434  1.1321963468
H   1.0251450888 -1.3472319653 -0.8876726095
H   2.3174550065 -0.7026222549  0.3015156820
7
Image 32  Energy = -29.6135284370
C   0.8631983448  0.7681786703 -0.1761204107
H   0.6622378142  1.5333110262 -0.9371529396
O   0.5532780036  0.9823116009  1.1222343062
C   1.3425792730 -0.5653238250 -0.1878309279
H   0.7825261648 -0.1270855605  1.1655598272
H   1.0269752928 -1.3474635553 -0.8886781380
H   2.3150574033 -0.7031368658  0.3035280805
7
Image 33  Energy = -29.6179893976
C   0.8637917935  0.7663892518 -0.1769626700
H   0.6629282353  1.5326682703 -0.9366657128
O   0.5534892950  0.9809162062  1.1227928702
C   1.3430496120 -0.5644713065 -0.1908997524
H   0.7666313333 -0.0923710894  1.2017027742
H   1.0290399640 -1.3474035767 -0.8896762708
H   2.3121677871 -0.7039571604  0.3056336322
7
Image 34  Energy = -29.6224776423
C   0.8644976623  0.7639123184 -0.1777050233
H   0.6638617979  1.5316706703 -0.9359241055
O   0.5535548145  0.9800197912  1.1235156292
C   1.3435878308 -0.5633996742 -0.1945032884
H   0.7513672025 -0.0597912969  1.2398118087
H   1.0314950336 -1.3470059616 -0.8910215317
H   2.3081792311 -0.7049640286  0.3084408503
7
Image 35  Energy = -29.6269874042
C   0.8653085227  0.7608748279 -0.1784765814
H   0.6649707036  1.5304271050 -0.9350612260
O   0.5534559726  0.9796274417  1.1244599936
C   1.3441949695 -0.5621996088 -0.1985781778
H   0.7370984987 -0.0297824539  1.2800434886
H   1.0343438700 -1.3464542723 -0.8930404363
H   2.3031626750 -0.7061593882  0.3121246987
7
Image 36  Energy = -29.6315431958
C   0.8661536753  0.7574198832 -0.1791732661
H   0.6661634288  1.5290699787 -0.9342666646
O   0.5532033354  0.9798346175  1.1255227148
C   1.3448697469 -0.5609970607 -0.2031529269
H   0.7243865039 -0.0041361451  1.3230224897
H   1.0377472009 -1.3458763448 -0.8960095634
H   2.2971775707 -0.7074757050  0.3172648404
7
Image 37  Energy = -29.6360269105
C   0.8670140910  0.7534970938 -0.1797358976
H   0.6674330915  1.5274016732 -0.9334438421
O   0.5528157548  0.9806454604  1.1266725948
C   1.3455986092 -0.5597414879 -0.2082330781
H   0.7130406459  0.0173536543  1.3685451162
H   1.0418244720 -1.3451093556 -0.8999965909
H   2.2903908831 -0.7091521964  0.3238929034
7
Image 38  Energy = -29.6402306771
C   0.8678767056  0.7490088492 -0.1801305972
H   0.6687634639  1.5251180550 -0.9322338494
O   0.5522970415  0.9819900936  1.1279832323
C   1.3464086931 -0.5583940332 -0.2137282149
H   0.7027836689  0.0370021413  1.4140876956
H   1.0465611192 -1.3439044890 -0.9050168205
H   2.2828825204 -0.7116393929  0.3315393658
7
Image 39  Energy = -29.6441223389
C   0.8687228383  0.7438321533 -0.1802477186
H   0.6700904011  1.5219596399 -0.9302894634
O   0.5516248833  0.9839174501  1.1295235571
C   1.3474144104 -0.5570120075 -0.2197336814
H   0.6930121015  0.0566656132  1.4586964016
H   1.0519897645 -1.3421135655 -0.9112894714
H   2.2745009617 -0.7153104852  0.3397654633
7
Image 40  Energy = -29.6477774298
C   0.8694909958  0.7380447095 -0.1799671522
H   0.6712823635  1.5177479241 -0.9274666507
O   0.5508069226  0.9864696064  1.1312503002
C   1.3487119179 -0.5557212322 -0.2262519695
H   0.6833087958  0.0766938119  1.5022888890
H   1.0580872584 -1.3397602268 -0.9192152672
H   2.2652836825 -0.7204072773  0.3481955821
7
Image 41  Energy = -29.6512054271
C   0.8701077510  0.7318607739 -0.1791670844
H   0.6721715261  1.5125332664 -0.9241014807
O   0.5499031170  0.9895024419  1.1330931409
C   1.3503280206 -0.5546379169 -0.2331591080
H   0.6731617574  0.0981616548  1.5440443946
H   1.0647981140 -1.3367586080 -0.9290122129
H   2.2555699517 -0.7270221722  0.3563918862
7
Image 42  Energy = -29.6543296790
C   0.8705158103  0.7249560746 -0.1775241233
H   0.6726394923  1.5060315023 -0.9205835567
O   0.5488607795  0.9932953150  1.1351227571
C   1.3523265149 -0.5537918215 -0.2406725711
H   0.6635662026  0.1211787313  1.5822674622
H   1.0728731166 -1.3326070655 -0.9417163888
H   2.2444910920 -0.7356976658  0.3650912551
7
Image 43  Energy = -29.6571319020
C   0.8706037099  0.7173290811 -0.1749203669
H   0.6723023152  1.4979866433 -0.9171829067
O   0.5476654090  0.9980817409  1.1373354140
C   1.3547363214 -0.5533308380 -0.2487502489
H   0.6560733008  0.1439355134  1.6156860543
H   1.0831781907 -1.3265424641 -0.9585056910
H   2.2312274958 -0.7470570492  0.3751665118
7
Image 44  Energy = -29.6596684372
C   0.8702760454  0.7094191951 -0.1715365384
H   0.6706389137  1.4885572498 -0.9140701893
O   0.5463792386  1.0037184598  1.1396942059
C   1.3575454975 -0.5534930901 -0.2570503360
H   0.6511861355  0.1657316065  1.6435069826
H   1.0960518147 -1.3178745742 -0.9796699095
H   2.2157499155 -0.7613736816  0.3865377622
7
Image 45  Energy = -29.6619549608
C   0.8695351398  0.7018807743 -0.1676689990
H   0.6675306942  1.4783146288 -0.9114561298
O   0.5451402245  1.0097428802  1.1419394014
C   1.3605872980 -0.5543081341 -0.2650059161
H   0.6485289823  0.1853205067  1.6662996761
H   1.1108481460 -1.3067275212 -1.0036630384
H   2.1989680290 -0.7779503291  0.3981985326
7
Image 46  Energy = -29.6640218264
C   0.8684620924  0.6949275638 -0.1635089462
H   0.6631935749  1.4676322037 -0.9093555476
O   0.5440024487  1.0158240850  1.1439782803
C   1.3637579455 -0.5556060970 -0.2723992695
H   0.6474618549  0.2030036609  1.6845240085
H   1.1266711955 -1.2936364872 -1.0290634901
H   2.1816137118 -0.7962455917  0.4094381487
7
Image 47  Energy = -29.6659305459
C   0.8671660412  0.6883565799 -0.1591762202
H   0.6578508256  1.4567039687 -0.9076791218
O   0.5429287941  1.0219540849  1.1458415471
C   1.3670550891 -0.5572102305 -0.2793146155
H   0.6474361994  0.2190518344  1.6998187202
H   1.1430004609 -1.2787511863 -1.0552330882
H   2.1638494493 -0.8161349449  0.4198348171
7
Image 48  Energy = -29.6677056915
C   0.8657751733  0.6820377668 -0.1548317814
H   0.6517790725  1.4456882178 -0.9062915965
O   0.5419210708  1.0280187449  1.1475590340
C   1.3703825951 -0.5589172696 -0.2858087746
H   0.6478193473  0.2341386430  1.7136440777
H   1.1595914301 -1.2624831916 -1.0814358355
H   2.1458651776 -0.8370993926  0.4291786940
7
Image 49  Energy = -29.6693568742
C   0.8643334974  0.6759085553 -0.1505407100
H   0.6452352168  1.4346181566 -0.9050686802
O   0.5409920829  1.0339409067  1.1491444357
C   1.3736822807 -0.5606177054 -0.2919262221
H   0.6483074064  0.2488371232  1.7266608966
H   1.1764503786 -1.2451227159 -1.1072820588
H   2.1276673433 -0.8587898887  0.4373828242
7
Image 50  Energy = -29.6708802795
C   0.8628465481  0.6699592326 -0.1463366012
H   0.6384610261  1.4235557686 -0.9039387645
O   0.5401521249  1.0396798319  1.1505841281
C   1.3769060806 -0.5622589204 -0.2976558632
H   0.6489432546  0.2631154385  1.7390042652
H   1.1935860360 -1.2268631307 -1.1324610178
H   2.1093059760 -0.8809078619  0.4444139452
7
Image 51  Energy = -29.6722802734
C   0.8612989162  0.6641617097 -0.1422115108
H   0.6315495245  1.4124911871 -0.9029327498
O   0.5394053065  1.0452363529  1.1518840229
C   1.3800380014 -0.5638232354 -0.3030091627
H   0.6499321011  0.2769655140  1.7504560060
H   1.2111233526 -1.2076312596 -1.1569126772
H   2.0906668546 -0.9033978353  0.4504088675
7
Image 52  Energy = -29.6735645449
C   0.8596508287  0.6584544511 -0.1381086390
H   0.6245276477  1.4012623804 -0.9020484585
O   0.5387528731  1.0506623653  1.1530328165
C   1.3830879862 -0.5652889490 -0.3080068016
H   0.6515796776  0.2902408962  1.7607552817
H   1.2293152072 -1.1872142618 -1.1806963572
H   2.0715000645 -0.9265130691  0.4554343898
7
Image 53  Energy = -29.6747181630
C   0.8578937414  0.6529043213 -0.1340654771
H   0.6175311746  1.3900277762 -0.9013094058
O   0.5382115294  1.0558924903  1.1540055126
C   1.3860178086 -0.5666238979 -0.3125956204
H   0.6539905880  0.3027271391  1.7697759699
H   1.2480900506 -1.1659163562 -1.2034076432
H   2.0519289622 -0.9500356236  0.4594460608
7
Image 54  Energy = -29.6757440037
C   0.8560116640  0.6475272731 -0.1300932907
H   0.6106034892  1.3789309713 -0.9007003744
O   0.5377881350  1.0609103774  1.1548073157
C   1.3888253761 -0.5678377420 -0.3168068363
H   0.6571695991  0.3145633343  1.7777525426
H   1.2675876169 -1.1439689999 -1.2249419238
H   2.0318722499 -0.9738322029  0.4625135152
7
Image 55  Energy = -29.6766601718
C   0.8539856056  0.6422286143 -0.1261895876
H   0.6036493857  1.3679850868 -0.9000384116
O   0.5374766634  1.0657745223  1.1554697881
C   1.3915307377 -0.5689216925 -0.3207274451
H   0.6611939475  0.3260999683  1.7850905994
H   1.2882752179 -1.1213945499 -1.2454922661
H   2.0109636345 -0.9981485789  0.4647471556
7
Image 56  Energy = -29.6774442858
C   0.8518669795  0.6371761085 -0.1225095095
H   0.5968473913  1.3577431069 -0.8992003326
O   0.5372804316  1.0703396558  1.1559992775
C   1.3940627561 -0.5698759529 -0.3242873383
H   0.6659960752  0.3371592222  1.7918596831
H   1.3096930855 -1.0991910358 -1.2643035965
H   1.9897343025 -1.0220531569  0.4661119335
7
Image 57  Energy = -29.6781194127
C   0.8495926839  0.6323027789 -0.1190305674
H   0.5900149878  1.3481724873 -0.8981519242
O   0.5371906195  1.0746999818  1.1564423752
C   1.3964889180 -0.5707849258 -0.3275821886
H   0.6717596607  0.3480687176  1.7984740329
H   1.3324032883 -1.0771588313 -1.2817292373
H   1.9677087719 -1.0457316045  0.4666445235
7
Image 58  Energy = -29.6786905295
C   0.8471355933  0.6275940946 -0.1157738085
H   0.5831041992  1.3392006816 -0.8969699796
O   0.5372044181  1.0788802906  1.1567955117
C   1.3988009594 -0.5717005259 -0.3305586688
H   0.6787552394  0.3588114189  1.8054007264
H   1.3566931995 -1.0553503740 -1.2979725861
H   1.9448434035 -1.0686422850  0.4658291078
7
Image 59  Energy = -29.6791451043
C   0.8445702299  0.6231619196 -0.1128331182
H   0.5762439477  1.3308780227 -0.8958394250
O   0.5373251896  1.0827592505  1.1570309119
C   1.4009090208 -0.5725776468 -0.3330200728
H   0.6870094493  0.3687960290  1.8126156194
H   1.3823760014 -1.0340565796 -1.3135563711
H   1.9212997943 -1.0898918712  0.4636176003
7
Image 60  Energy = -29.6795429653
C   0.8420041304  0.6192852250 -0.1103550082
H   0.5694521614  1.3231195620 -0.8947979307
O   0.5376051489  1.0860021283  1.1573523716
C   1.4028400603 -0.5730256136 -0.3354081645
H   0.6958110192  0.3788374923  1.8168919404
H   1.4083237850 -1.0131876119 -1.3271889328
H   1.8964681614 -1.1129780502  0.4657617295
7
Image 61  Energy = -29.6798577821
C   0.8395002266  0.6158709803 -0.1082504668
H   0.5627287529  1.3158751396 -0.8938035494
O   0.5380123498  1.0886383774  1.1577690207
C   1.4044456402 -0.5733036641 -0.3375228241
H   0.7050281840  0.3894119920  1.8191841194
H   1.4357304834 -0.9922509396 -1.3396499918
H   1.8708177910 -1.1350953224  0.4684563251
7
Image 62  Energy = -29.6800968415
C   0.8365844659  0.6123325484 -0.1062303546
H   0.5547936397  1.3083507988 -0.8930540284
O   0.5385295564  1.0913545867  1.1583873995
C   1.4062284585 -0.5737293943 -0.3397691092
H   0.7166461316  0.4015607632  1.8218818797
H   1.4636235235 -0.9724488507 -1.3491262585
H   1.8445423374 -1.1553835766  0.4673825419
7
Image 63  Energy = -29.6803030288
C   0.8332690949  0.6088402788 -0.1044106009
H   0.5457493249  1.3010325768 -0.8923872353
O   0.5391629436  1.0939653314  1.1586938113
C   1.4081108494 -0.5740099325 -0.3420193165
H   0.7325005280  0.4132434815  1.8276612641
H   1.4904374701 -0.9539440712 -1.3522731745
H   1.8179464070 -1.1747274901  0.4643698923
7
Image 64  Energy = -29.6804457521
C   0.8299871522  0.6060534543 -0.1032390110
H   0.5363924310  1.2946724699 -0.8919759565
O   0.5398897504  1.0957804193  1.1586386333
C   1.4094678524 -0.5740103982 -0.3432211538
H   0.7518508451  0.4236975004  1.8326998447
H   1.5180749159 -0.9359964063 -1.3552439350
H   1.7917166653 -1.1923549663  0.4631594098
