7
Image 0  Energy = -29.6075593746
C   0.8613385953  0.7718102108 -0.1718765902
H   0.6612420558  1.5335522151 -0.9375784864
O   0.5522144788  0.9888425132  1.1202820987
C   1.3421671900 -0.5678817375 -0.1813062071
H   0.8249916890 -0.2459457550  1.0724829935
H   1.0212188824 -1.3464360282 -0.8849097224
H   2.3232943747 -0.7019884075  0.2958787863
7
Image 1  Energy = -29.6088791704
C   0.8603197417  0.7734025591 -0.1690063955
H   0.6608547305  1.5332998527 -0.9369747299
O   0.5521021180  0.9909901603  1.1186125844
C   1.3423360173 -0.5691072959 -0.1791754314
H   0.8360181371 -0.2857679136  1.0408377511
H   1.0187605202 -1.3455219206 -0.8824667165
H   2.3270254334 -0.7012845736  0.2913795747
7
Image 2  Energy = -29.6110389298
C   0.8591073389  0.7752827128 -0.1654600288
H   0.6604097286  1.5329911937 -0.9360541947
O   0.5521579563  0.9930004015  1.1163325622
C   1.3425680033 -0.5703949290 -0.1769359718
H   0.8458618013 -0.3264337951  1.0098867207
H   1.0160731070 -1.3444944348 -0.8798446149
H   2.3311101715 -0.7003036139  0.2860325418
7
Image 3  Energy = -29.6143125957
C   0.8579490888  0.7770377888 -0.1620200524
H   0.6600946708  1.5326139625 -0.9350358675
O   0.5522078925  0.9951268934  1.1140529130
C   1.3427007695 -0.5715326878 -0.1747519626
H   0.8554465491 -0.3691315377  0.9820902292
H   1.0140971079 -1.3435226943 -0.8782207383
H   2.3352432675 -0.6993081147  0.2803568903
7
Image 4  Energy = -29.6188816047
C   0.8568636856  0.7787336483 -0.1588766888
H   0.6599005339  1.5323010623 -0.9341669193
O   0.5522275434  0.9973267940  1.1119153796
C   1.3426926568 -0.5726152618 -0.1724940927
H   0.8652156649 -0.4132900164  0.9560228722
H   1.0129606494 -1.3423074161 -0.8773592445
H   2.3395227937 -0.6982766207  0.2742616261
7
Image 5  Energy = -29.6244921452
C   0.8557788202  0.7804364718 -0.1557130189
H   0.6598232901  1.5320368885 -0.9335454607
O   0.5522551618  0.9995398307  1.1097621549
C   1.3425990929 -0.5737564279 -0.1701324795
H   0.8745256851 -0.4575211212  0.9303972275
H   1.0124996922 -1.3407629595 -0.8770252599
H   2.3443543778 -0.6971436222  0.2672702523
7
Image 6  Energy = -29.6311933464
C   0.8547207950  0.7820566792 -0.1525455634
H   0.6599006010  1.5317134196 -0.9331009747
O   0.5522464824  1.0019106703  1.1076569435
C   1.3424852894 -0.5749340566 -0.1678990628
H   0.8833369517 -0.5030133659  0.9071093298
H   1.0127763379 -1.3391149346 -0.8775633141
H   2.3492900423 -0.6958796097  0.2597107152
7
Image 7  Energy = -29.6386638945
C   0.8536727556  0.7835864134 -0.1493176023
H   0.6601650676  1.5312267431 -0.9326808866
O   0.5521848527  1.0045232600  1.1055943809
C   1.3424536991 -0.5762117095 -0.1659713605
H   0.8909768250 -0.5502852912  0.8877131881
H   1.0137747140 -1.3373281144 -0.8790849743
H   2.3542300048 -0.6943786155  0.2515121685
7
Image 8  Energy = -29.6459792620
C   0.8525269005  0.7851531595 -0.1456908495
H   0.6606697973  1.5306000371 -0.9322991143
O   0.5521374789  1.0073204830  1.1033128072
C   1.3425561513 -0.5777000744 -0.1642701115
H   0.8964329851 -0.5991616386  0.8723374437
H   1.0155150956 -1.3350999889 -0.8816803020
H   2.3597134431 -0.6924350637  0.2418275190
7
Image 9  Energy = -29.6528874552
C   0.8512735946  0.7867578098 -0.1416544987
H   0.6614769289  1.5297967492 -0.9320073767
O   0.5521253203  1.0102044237  1.1008015663
C   1.3427630102 -0.5794219767 -0.1626911108
H   0.8996519186 -0.6479753886  0.8601059965
H   1.0180199497 -1.3323241164 -0.8854496444
H   2.3658446339 -0.6899707674  0.2304843462
7
Image 10  Energy = -29.6593914992
C   0.8499300778  0.7882786413 -0.1372122916
H   0.6626192060  1.5287540599 -0.9317268666
O   0.5521227607  1.0132456844  1.0981218606
C   1.3430297652 -0.5813782548 -0.1611653095
H   0.9013855028 -0.6964424994  0.8492337677
H   1.0213664414 -1.3289201980 -0.8905505877
H   2.3724932465 -0.6869471889  0.2175963215
7
Image 11  Energy = -29.6654533511
C   0.8485018558  0.7896152671 -0.1323507050
H   0.6641291092  1.5273865774 -0.9313155699
O   0.5521119264  1.0165005586  1.0953050380
C   1.3433445591 -0.5836036441 -0.1596562063
H   0.9020268955 -0.7440155289  0.8387767624
H   1.0256873180 -1.3246432615 -0.8972128587
H   2.3794602966 -0.6833548670  0.2031018315
7
Image 12  Energy = -29.6711642957
C   0.8470267867  0.7907175223 -0.1272488419
H   0.6659603314  1.5256994307 -0.9306724532
O   0.5520520258  1.0200219761  1.0924877095
C   1.3437052545 -0.5860900405 -0.1582071110
H   0.9023030734 -0.7909407969  0.8285245938
H   1.0309317873 -1.3193993311 -0.9053577073
H   2.3863377077 -0.6793855252  0.1875134002
7
Image 13  Energy = -29.6765133059
C   0.8454912522  0.7915676340 -0.1218849001
H   0.6681434198  1.5236203592 -0.9298154366
O   0.5519185624  1.0238923875  1.0896882821
C   1.3441305339 -0.5889017674 -0.1568409124
H   0.9025241556 -0.8376456401  0.8183770343
H   1.0371426971 -1.3129332940 -0.9151611888
H   2.3930704017 -0.6751249837  0.1708456174
7
Image 14  Energy = -29.6811721689
C   0.8438786667  0.7920851910 -0.1161924647
H   0.6707859581  1.5209950071 -0.9288340199
O   0.5517083392  1.0280792656  1.0869145563
C   1.3446277860 -0.5921367217 -0.1555450908
H   0.9026942825 -0.8816555503  0.8077653338
H   1.0443915953 -1.3049144105 -0.9269309257
H   2.3996354516 -0.6705832547  0.1529999842
7
Image 15  Energy = -29.6852844125
C   0.8421463415  0.7921668606 -0.1100205639
H   0.6740885278  1.5176088126 -0.9278118699
O   0.5513717106  1.0327968126  1.0841858803
C   1.3452414445 -0.5959779093 -0.1543410094
H   0.9030102742 -0.9234541388  0.7960017110
H   1.0529465207 -1.2947164832 -0.9412506997
H   2.4061346249 -0.6656764170  0.1334808625
7
Image 16  Energy = -29.6888639844
C   0.8404046616  0.7917388116 -0.1037631471
H   0.6779927471  1.5134165546 -0.9268719311
O   0.5508579324  1.0380055865  1.0817709025
C   1.3459656247 -0.6002950177 -0.1533905155
H   0.9037981434 -0.9626795922  0.7839285544
H   1.0624361447 -1.2824324566 -0.9575303522
H   2.4122318033 -0.6606750297  0.1133370744
7
Image 17  Energy = -29.6920054025
C   0.8387121352  0.7907161294 -0.0975590990
H   0.6824919903  1.5083123104 -0.9260256169
O   0.5501180906  1.0437933276  1.0798012560
C   1.3467974062 -0.6050658717 -0.1527832016
H   0.9053247221 -0.9998856900  0.7716404243
H   1.0726740605 -1.2679949473 -0.9756093613
H   2.4179671840 -0.6556317811  0.0929580337
7
Image 18  Energy = -29.6947853482
C   0.8371416269  0.7889646944 -0.0915141153
H   0.6875423541  1.5022417888 -0.9253817155
O   0.5491079072  1.0502363190  1.0784001141
C   1.3477389841 -0.6101929571 -0.1526403851
H   0.9077852623 -1.0355251935  0.7590085641
H   1.0833399261 -1.2515738399 -0.9950452455
H   2.4233181749 -0.6506443316  0.0728888548
7
Image 19  Energy = -29.6972489125
C   0.8357451561  0.7864314087 -0.0856914732
H   0.6929997184  1.4952279882 -0.9251413873
O   0.5478203619  1.0573030314  1.0776272378
C   1.3488076891 -0.6155197453 -0.1530819120
H   0.9111969253 -1.0695084574  0.7459020640
H   1.0939152671 -1.2338108592 -1.0150726119
H   2.4282152860 -0.6459155908  0.0539294643
7
Image 20  Energy = -29.6994782454
C   0.8344499136  0.7829845498 -0.0797221370
H   0.6990081522  1.4867974319 -0.9253045482
O   0.5462164402  1.0652254837  1.0773987993
C   1.3501185125 -0.6211786206 -0.1542878028
H   0.9153301862 -1.1018531804  0.7317727459
H   1.1044662024 -1.2146229340 -1.0358632139
H   2.4327944166 -0.6415730176  0.0358773112
7
Image 21  Energy = -29.7014960265
C   0.8332113618  0.7784345760 -0.0732882543
H   0.7056453364  1.4764985446 -0.9256868124
O   0.5442412382  1.0742091864  1.0776701586
C   1.3518283081 -0.6272177715 -0.1565396993
H   0.9197126994 -1.1319464351  0.7164723098
H   1.1148713194 -1.1941666469 -1.0572039265
H   2.4371047318 -0.6380506810  0.0187604548
7
Image 22  Energy = -29.7033200330
C   0.8320638846  0.7727917940 -0.0663471104
H   0.7126453347  1.4642884909 -0.9260354800
O   0.5418747802  1.0842363187  1.0784280305
C   1.3540329015 -0.6334511207 -0.1600136698
H   0.9240409966 -1.1601766541  0.7001425787
H   1.1244585333 -1.1734878321 -1.0783107474
H   2.4411532885 -0.6359281853  0.0032021806
7
Image 23  Energy = -29.7050139672
C   0.8310391556  0.7661659716 -0.0588267654
H   0.7197486791  1.4501911991 -0.9264094395
O   0.5390974446  1.0953649335  1.0796158457
C   1.3567288617 -0.6398499096 -0.1646622478
H   0.9286871264 -1.1884234588  0.6822096920
H   1.1329266268 -1.1531371510 -1.0990582931
H   2.4451037347 -0.6353711224 -0.0108150338
7
Image 24  Energy = -29.7065340942
C   0.8301080505  0.7589112610 -0.0507704809
H   0.7264448651  1.4351604618 -0.9263997187
O   0.5359990529  1.1073123527  1.0810319464
C   1.3598506698 -0.6464186317 -0.1702215453
H   0.9336690346 -1.2164736570  0.6627800096
H   1.1403442053 -1.1338273693 -1.1191584713
H   2.4490820726 -0.6365139118 -0.0235245071
7
Image 25  Energy = -29.7078216738
C   0.8292140781  0.7513141086 -0.0421650562
H   0.7323269825  1.4203887313 -0.9253417371
O   0.5326678100  1.1198666141  1.0824712349
C   1.3633573683 -0.6532444618 -0.1764732707
H   0.9387066768 -1.2443155539  0.6421900709
H   1.1471102615 -1.1159157742 -1.1385711096
H   2.4531378526 -0.6392136953 -0.0354687897
7
Image 26  Energy = -29.7088296181
C   0.8283686642  0.7436939665 -0.0332755098
H   0.7369903724  1.4066614900 -0.9229268785
O   0.5292924829  1.1326512061  1.0837287102
C   1.3669593475 -0.6602410245 -0.1828808211
H   0.9444794172 -1.2725899312  0.6203343824
H   1.1534068463 -1.0991312073 -1.1574390623
H   2.4571343155 -0.6427470858 -0.0466867802
7
Image 27  Energy = -29.7095099753
C   0.8275735228  0.7361560251 -0.0243577452
H   0.7400891580  1.3934304564 -0.9193587444
O   0.5260890518  1.1454113147  1.0846465053
C   1.3702428264 -0.6674960956 -0.1888174580
H   0.9520053687 -1.2987358139  0.5980691973
H   1.1600508588 -1.0816121956 -1.1784763567
H   2.4610720027 -0.6471624214 -0.0570187246
7
Image 28  Energy = -29.7098713881
C   0.8266278810  0.7285267590 -0.0146645041
H   0.7420547713  1.3793650787 -0.9153709334
O   0.5227572671  1.1584924604  1.0854675179
C   1.3743830561 -0.6748368998 -0.1955014485
H   0.9565331395 -1.3252149763  0.5743420497
H   1.1653602725 -1.0641834165 -1.1987941695
H   2.4641292539 -0.6533668844 -0.0657241120
7
Image 29  Energy = -29.7099845177
C   0.8260159267  0.7245753429 -0.0086332700
H   0.7418454670  1.3709928456 -0.9123453912
O   0.5205533535  1.1659568108  1.0860284044
C   1.3779005092 -0.6788659078 -0.2005836927
H   0.9538966064 -1.3436688152  0.5599707702
H   1.1666412605 -1.0568519824 -1.2023335471
H   2.4660679173 -0.6573135592 -0.0710786712
