7
Image 0  Energy = -29.6076040930
C   0.8620696111  0.7706078776 -0.1737602414
H   0.6614565670  1.5337668591 -0.9376421844
O   0.5525680552  0.9863925186  1.1211604717
C   1.3421049552 -0.5668731327 -0.1831633211
H   0.8123621428 -0.2041501376  1.1016245011
H   1.0232844588 -1.3468987762 -0.8864847196
H   2.3200635949 -0.7023507877  0.2990654337
7
Image 1  Energy = -29.6097123689
C   0.8626550204  0.7694799002 -0.1750931808
H   0.6617684943  1.5336722701 -0.9374398385
O   0.5529559103  0.9841609643  1.1217315325
C   1.3422402434 -0.5660592820 -0.1852798695
H   0.7980542946 -0.1642877434  1.1321963468
H   1.0251450888 -1.3472319653 -0.8876726095
H   2.3174550065 -0.7026222549  0.3015156820
7
Image 2  Energy = -29.6135284370
C   0.8631983448  0.7681786703 -0.1761204107
H   0.6622378142  1.5333110262 -0.9371529396
O   0.5532780036  0.9823116009  1.1222343062
C   1.3425792730 -0.5653238250 -0.1878309279
H   0.7825261648 -0.1270855605  1.1655598272
H   1.0269752928 -1.3474635553 -0.8886781380
H   2.3150574033 -0.7031368658  0.3035280805
7
Image 3  Energy = -29.6179893976
C   0.8637917935  0.7663892518 -0.1769626700
H   0.6629282353  1.5326682703 -0.9366657128
O   0.5534892950  0.9809162062  1.1227928702
C   1.3430496120 -0.5644713065 -0.1908997524
H   0.7666313333 -0.0923710894  1.2017027742
H   1.0290399640 -1.3474035767 -0.8896762708
H   2.3121677871 -0.7039571604  0.3056336322
7
Image 4  Energy = -29.6224776423
C   0.8644976623  0.7639123184 -0.1777050233
H   0.6638617979  1.5316706703 -0.9359241055
O   0.5535548145  0.9800197912  1.1235156292
C   1.3435878308 -0.5633996742 -0.1945032884
H   0.7513672025 -0.0597912969  1.2398118087
H   1.0314950336 -1.3470059616 -0.8910215317
H   2.3081792311 -0.7049640286  0.3084408503
7
Image 5  Energy = -29.6269874042
C   0.8653085227  0.7608748279 -0.1784765814
H   0.6649707036  1.5304271050 -0.9350612260
O   0.5534559726  0.9796274417  1.1244599936
C   1.3441949695 -0.5621996088 -0.1985781778
H   0.7370984987 -0.0297824539  1.2800434886
H   1.0343438700 -1.3464542723 -0.8930404363
H   2.3031626750 -0.7061593882  0.3121246987
7
Image 6  Energy = -29.6315431958
C   0.8661536753  0.7574198832 -0.1791732661
H   0.6661634288  1.5290699787 -0.9342666646
O   0.5532033354  0.9798346175  1.1255227148
C   1.3448697469 -0.5609970607 -0.2031529269
H   0.7243865039 -0.0041361451  1.3230224897
H   1.0377472009 -1.3458763448 -0.8960095634
H   2.2971775707 -0.7074757050  0.3172648404
7
Image 7  Energy = -29.6360269105
C   0.8670140910  0.7534970938 -0.1797358976
H   0.6674330915  1.5274016732 -0.9334438421
O   0.5528157548  0.9806454604  1.1266725948
C   1.3455986092 -0.5597414879 -0.2082330781
H   0.7130406459  0.0173536543  1.3685451162
H   1.0418244720 -1.3451093556 -0.8999965909
H   2.2903908831 -0.7091521964  0.3238929034
7
Image 8  Energy = -29.6402306771
C   0.8678767056  0.7490088492 -0.1801305972
H   0.6687634639  1.5251180550 -0.9322338494
O   0.5522970415  0.9819900936  1.1279832323
C   1.3464086931 -0.5583940332 -0.2137282149
H   0.7027836689  0.0370021413  1.4140876956
H   1.0465611192 -1.3439044890 -0.9050168205
H   2.2828825204 -0.7116393929  0.3315393658
7
Image 9  Energy = -29.6441223389
C   0.8687228383  0.7438321533 -0.1802477186
H   0.6700904011  1.5219596399 -0.9302894634
O   0.5516248833  0.9839174501  1.1295235571
C   1.3474144104 -0.5570120075 -0.2197336814
H   0.6930121015  0.0566656132  1.4586964016
H   1.0519897645 -1.3421135655 -0.9112894714
H   2.2745009617 -0.7153104852  0.3397654633
7
Image 10  Energy = -29.6477774298
C   0.8694909958  0.7380447095 -0.1799671522
H   0.6712823635  1.5177479241 -0.9274666507
O   0.5508069226  0.9864696064  1.1312503002
C   1.3487119179 -0.5557212322 -0.2262519695
H   0.6833087958  0.0766938119  1.5022888890
H   1.0580872584 -1.3397602268 -0.9192152672
H   2.2652836825 -0.7204072773  0.3481955821
7
Image 11  Energy = -29.6512054271
C   0.8701077510  0.7318607739 -0.1791670844
H   0.6721715261  1.5125332664 -0.9241014807
O   0.5499031170  0.9895024419  1.1330931409
C   1.3503280206 -0.5546379169 -0.2331591080
H   0.6731617574  0.0981616548  1.5440443946
H   1.0647981140 -1.3367586080 -0.9290122129
H   2.2555699517 -0.7270221722  0.3563918862
7
Image 12  Energy = -29.6543296790
C   0.8705158103  0.7249560746 -0.1775241233
H   0.6726394923  1.5060315023 -0.9205835567
O   0.5488607795  0.9932953150  1.1351227571
C   1.3523265149 -0.5537918215 -0.2406725711
H   0.6635662026  0.1211787313  1.5822674622
H   1.0728731166 -1.3326070655 -0.9417163888
H   2.2444910920 -0.7356976658  0.3650912551
7
Image 13  Energy = -29.6571319020
C   0.8706037099  0.7173290811 -0.1749203669
H   0.6723023152  1.4979866433 -0.9171829067
O   0.5476654090  0.9980817409  1.1373354140
C   1.3547363214 -0.5533308380 -0.2487502489
H   0.6560733008  0.1439355134  1.6156860543
H   1.0831781907 -1.3265424641 -0.9585056910
H   2.2312274958 -0.7470570492  0.3751665118
7
Image 14  Energy = -29.6596684372
C   0.8702760454  0.7094191951 -0.1715365384
H   0.6706389137  1.4885572498 -0.9140701893
O   0.5463792386  1.0037184598  1.1396942059
C   1.3575454975 -0.5534930901 -0.2570503360
H   0.6511861355  0.1657316065  1.6435069826
H   1.0960518147 -1.3178745742 -0.9796699095
H   2.2157499155 -0.7613736816  0.3865377622
7
Image 15  Energy = -29.6619549608
C   0.8695351398  0.7018807743 -0.1676689990
H   0.6675306942  1.4783146288 -0.9114561298
O   0.5451402245  1.0097428802  1.1419394014
C   1.3605872980 -0.5543081341 -0.2650059161
H   0.6485289823  0.1853205067  1.6662996761
H   1.1108481460 -1.3067275212 -1.0036630384
H   2.1989680290 -0.7779503291  0.3981985326
7
Image 16  Energy = -29.6640218264
C   0.8684620924  0.6949275638 -0.1635089462
H   0.6631935749  1.4676322037 -0.9093555476
O   0.5440024487  1.0158240850  1.1439782803
C   1.3637579455 -0.5556060970 -0.2723992695
H   0.6474618549  0.2030036609  1.6845240085
H   1.1266711955 -1.2936364872 -1.0290634901
H   2.1816137118 -0.7962455917  0.4094381487
7
Image 17  Energy = -29.6659305459
C   0.8671660412  0.6883565799 -0.1591762202
H   0.6578508256  1.4567039687 -0.9076791218
O   0.5429287941  1.0219540849  1.1458415471
C   1.3670550891 -0.5572102305 -0.2793146155
H   0.6474361994  0.2190518344  1.6998187202
H   1.1430004609 -1.2787511863 -1.0552330882
H   2.1638494493 -0.8161349449  0.4198348171
7
Image 18  Energy = -29.6677056915
C   0.8657751733  0.6820377668 -0.1548317814
H   0.6517790725  1.4456882178 -0.9062915965
O   0.5419210708  1.0280187449  1.1475590340
C   1.3703825951 -0.5589172696 -0.2858087746
H   0.6478193473  0.2341386430  1.7136440777
H   1.1595914301 -1.2624831916 -1.0814358355
H   2.1458651776 -0.8370993926  0.4291786940
7
Image 19  Energy = -29.6693568742
C   0.8643334974  0.6759085553 -0.1505407100
H   0.6452352168  1.4346181566 -0.9050686802
O   0.5409920829  1.0339409067  1.1491444357
C   1.3736822807 -0.5606177054 -0.2919262221
H   0.6483074064  0.2488371232  1.7266608966
H   1.1764503786 -1.2451227159 -1.1072820588
H   2.1276673433 -0.8587898887  0.4373828242
7
Image 20  Energy = -29.6708802795
C   0.8628465481  0.6699592326 -0.1463366012
H   0.6384610261  1.4235557686 -0.9039387645
O   0.5401521249  1.0396798319  1.1505841281
C   1.3769060806 -0.5622589204 -0.2976558632
H   0.6489432546  0.2631154385  1.7390042652
H   1.1935860360 -1.2268631307 -1.1324610178
H   2.1093059760 -0.8809078619  0.4444139452
7
Image 21  Energy = -29.6722802734
C   0.8612989162  0.6641617097 -0.1422115108
H   0.6315495245  1.4124911871 -0.9029327498
O   0.5394053065  1.0452363529  1.1518840229
C   1.3800380014 -0.5638232354 -0.3030091627
H   0.6499321011  0.2769655140  1.7504560060
H   1.2111233526 -1.2076312596 -1.1569126772
H   2.0906668546 -0.9033978353  0.4504088675
7
Image 22  Energy = -29.6735645449
C   0.8596508287  0.6584544511 -0.1381086390
H   0.6245276477  1.4012623804 -0.9020484585
O   0.5387528731  1.0506623653  1.1530328165
C   1.3830879862 -0.5652889490 -0.3080068016
H   0.6515796776  0.2902408962  1.7607552817
H   1.2293152072 -1.1872142618 -1.1806963572
H   2.0715000645 -0.9265130691  0.4554343898
7
Image 23  Energy = -29.6747181630
C   0.8578937414  0.6529043213 -0.1340654771
H   0.6175311746  1.3900277762 -0.9013094058
O   0.5382115294  1.0558924903  1.1540055126
C   1.3860178086 -0.5666238979 -0.3125956204
H   0.6539905880  0.3027271391  1.7697759699
H   1.2480900506 -1.1659163562 -1.2034076432
H   2.0519289622 -0.9500356236  0.4594460608
7
Image 24  Energy = -29.6757440037
C   0.8560116640  0.6475272731 -0.1300932907
H   0.6106034892  1.3789309713 -0.9007003744
O   0.5377881350  1.0609103774  1.1548073157
C   1.3888253761 -0.5678377420 -0.3168068363
H   0.6571695991  0.3145633343  1.7777525426
H   1.2675876169 -1.1439689999 -1.2249419238
H   2.0318722499 -0.9738322029  0.4625135152
7
Image 25  Energy = -29.6766601718
C   0.8539856056  0.6422286143 -0.1261895876
H   0.6036493857  1.3679850868 -0.9000384116
O   0.5374766634  1.0657745223  1.1554697881
C   1.3915307377 -0.5689216925 -0.3207274451
H   0.6611939475  0.3260999683  1.7850905994
H   1.2882752179 -1.1213945499 -1.2454922661
H   2.0109636345 -0.9981485789  0.4647471556
7
Image 26  Energy = -29.6774442858
C   0.8518669795  0.6371761085 -0.1225095095
H   0.5968473913  1.3577431069 -0.8992003326
O   0.5372804316  1.0703396558  1.1559992775
C   1.3940627561 -0.5698759529 -0.3242873383
H   0.6659960752  0.3371592222  1.7918596831
H   1.3096930855 -1.0991910358 -1.2643035965
H   1.9897343025 -1.0220531569  0.4661119335
7
Image 27  Energy = -29.6781194127
C   0.8495926839  0.6323027789 -0.1190305674
H   0.5900149878  1.3481724873 -0.8981519242
O   0.5371906195  1.0746999818  1.1564423752
C   1.3964889180 -0.5707849258 -0.3275821886
H   0.6717596607  0.3480687176  1.7984740329
H   1.3324032883 -1.0771588313 -1.2817292373
H   1.9677087719 -1.0457316045  0.4666445235
7
Image 28  Energy = -29.6786905295
C   0.8471355933  0.6275940946 -0.1157738085
H   0.5831041992  1.3392006816 -0.8969699796
O   0.5372044181  1.0788802906  1.1567955117
C   1.3988009594 -0.5717005259 -0.3305586688
H   0.6787552394  0.3588114189  1.8054007264
H   1.3566931995 -1.0553503740 -1.2979725861
H   1.9448434035 -1.0686422850  0.4658291078
7
Image 29  Energy = -29.6791451043
C   0.8445702299  0.6231619196 -0.1128331182
H   0.5762439477  1.3308780227 -0.8958394250
O   0.5373251896  1.0827592505  1.1570309119
C   1.4009090208 -0.5725776468 -0.3330200728
H   0.6870094493  0.3687960290  1.8126156194
H   1.3823760014 -1.0340565796 -1.3135563711
H   1.9212997943 -1.0898918712  0.4636176003
7
Image 30  Energy = -29.6795429653
C   0.8420041304  0.6192852250 -0.1103550082
H   0.5694521614  1.3231195620 -0.8947979307
O   0.5376051489  1.0860021283  1.1573523716
C   1.4028400603 -0.5730256136 -0.3354081645
H   0.6958110192  0.3788374923  1.8168919404
H   1.4083237850 -1.0131876119 -1.3271889328
H   1.8964681614 -1.1129780502  0.4657617295
7
Image 31  Energy = -29.6798577821
C   0.8395002266  0.6158709803 -0.1082504668
H   0.5627287529  1.3158751396 -0.8938035494
O   0.5380123498  1.0886383774  1.1577690207
C   1.4044456402 -0.5733036641 -0.3375228241
H   0.7050281840  0.3894119920  1.8191841194
H   1.4357304834 -0.9922509396 -1.3396499918
H   1.8708177910 -1.1350953224  0.4684563251
7
Image 32  Energy = -29.6800968415
C   0.8365844659  0.6123325484 -0.1062303546
H   0.5547936397  1.3083507988 -0.8930540284
O   0.5385295564  1.0913545867  1.1583873995
C   1.4062284585 -0.5737293943 -0.3397691092
H   0.7166461316  0.4015607632  1.8218818797
H   1.4636235235 -0.9724488507 -1.3491262585
H   1.8445423374 -1.1553835766  0.4673825419
7
Image 33  Energy = -29.6803030288
C   0.8332690949  0.6088402788 -0.1044106009
H   0.5457493249  1.3010325768 -0.8923872353
O   0.5391629436  1.0939653314  1.1586938113
C   1.4081108494 -0.5740099325 -0.3420193165
H   0.7325005280  0.4132434815  1.8276612641
H   1.4904374701 -0.9539440712 -1.3522731745
H   1.8179464070 -1.1747274901  0.4643698923
7
Image 34  Energy = -29.6804457521
C   0.8299871522  0.6060534543 -0.1032390110
H   0.5363924310  1.2946724699 -0.8919759565
O   0.5398897504  1.0957804193  1.1586386333
C   1.4094678524 -0.5740103982 -0.3432211538
H   0.7518508451  0.4236975004  1.8326998447
H   1.5180749159 -0.9359964063 -1.3552439350
H   1.7917166653 -1.1923549663  0.4631594098
