22
Iteration 1  Energy = -72.4165073113
C  -0.8698228280 -1.1412324191  0.1596857503
C   1.2138746779  0.0865889777  0.0351825708
C  -0.8072891825  1.8063876768  0.7738936474
C   1.9317890732 -0.5236695544  1.2376972454
C   2.1785543964  0.5244311146 -1.0565024624
N   0.2414690448 -0.8984574528 -0.5597843664
N  -2.0082952818 -1.6002020075 -0.4234235137
O  -1.6068503858  1.4916095045 -0.2776647278
H  -2.0539600917  0.6296016384 -0.1756222536
H   0.0169779394 -0.6801151550 -1.5297328270
H  -0.8941705807 -0.8714832494  1.2090991973
H   0.5745774869  1.0033542467  0.4039139576
H  -2.6894061140 -1.9473617900  0.2497092330
H  -1.8853747215 -2.2485515018 -1.2025142261
H  -0.4115132462  2.8161699541  0.7226993646
H  -1.0197759949  1.4053999692  1.7698907869
H   2.6103798327  0.2077312386  1.6816942240
H   1.6507459337  1.0090877286 -1.8819920916
H   2.5196514316 -1.3952589904  0.9344644755
H   1.2273552126 -0.8353895104  2.0111029084
H   2.9130604717  1.2292291353 -0.6633551117
H   2.7118712715 -0.3454466803 -1.4511132589
22
Iteration 2  Energy = -72.4209621028
C  -0.8755878082 -1.1573832967  0.1717810977
C   1.2223067238  0.0832639535  0.0327718339
C  -0.8120116738  1.8084548599  0.7664444345
C   1.9373004477 -0.5205525554  1.2468479014
C   2.1848189383  0.5246503028 -1.0636699484
N   0.2357444360 -0.8985694886 -0.5530027699
N  -2.0074044781 -1.6117049111 -0.4240691361
O  -1.6091290434  1.5142452260 -0.2838563394
H  -2.1149800491  0.6824909195 -0.1876932822
H   0.0198647619 -0.7317823665 -1.5341278174
H  -0.8974465325 -0.9224200617  1.2318658644
H   0.5814620127  1.0004614248  0.3984388315
H  -2.7228092774 -1.9177026785  0.2322349975
H  -1.8867929076 -2.2532620869 -1.2077244314
H  -0.3896962840  2.8072322010  0.7305904875
H  -1.0146894196  1.3752905449  1.7509896952
H   2.6151663448  0.2152366685  1.6838733617
H   1.6506016373  1.0059350936 -1.8863097481
H   2.5292400883 -1.3917814800  0.9518966648
H   1.2377768946 -0.8275134192  2.0259932191
H   2.9159148822  1.2330239125 -0.6717681806
H   2.7223321548 -0.3407685287 -1.4615720433
22
Iteration 3  Energy = -72.4241165594
C  -0.8773101839 -1.1842425643  0.1828258215
C   1.2287519159  0.0813667188  0.0316979300
C  -0.8137953601  1.8207782604  0.7571850177
C   1.9439655503 -0.5171122715  1.2526125023
C   2.1883715988  0.5247169197 -1.0705318311
N   0.2281260829 -0.8959292961 -0.5428886958
N  -2.0082903100 -1.6218867996 -0.4230937709
O  -1.6119819324  1.5339779498 -0.2901745599
H  -2.1360820865  0.7157635288 -0.1809140246
H   0.0203192692 -0.7637408866 -1.5293593779
H  -0.8922963865 -1.0019751754  1.2571845031
H   0.5936809655  0.9954230702  0.3928830252
H  -2.7483475013 -1.9026238556  0.2138705215
H  -1.8996075704 -2.2392187296 -1.2278085209
H  -0.3668418543  2.8080997266  0.7236214512
H  -1.0041701004  1.3717632441  1.7356725727
H   2.6235848609  0.2216287715  1.6820749287
H   1.6484823746  1.0049697766 -1.8899306252
H   2.5350892164 -1.3912366669  0.9650944675
H   1.2455681751 -0.8150858664  2.0360544155
H   2.9174517580  1.2364204441 -0.6806929893
H   2.7287603368 -0.3370653338 -1.4717409125
22
Iteration 4  Energy = -72.4263912515
C  -0.8774457890 -1.2155424216  0.1900017553
C   1.2342162802  0.0808427709  0.0309328795
C  -0.8171308811  1.8309485265  0.7495528724
C   1.9511339352 -0.5106450084  1.2567796864
C   2.1899809928  0.5243302192 -1.0775064274
N   0.2230378694 -0.8956228636 -0.5317630644
N  -2.0059516506 -1.6374272023 -0.4271613071
O  -1.6189901369  1.5525271746 -0.2957846222
H  -2.1556419613  0.7434058270 -0.1794553972
H   0.0218944622 -0.7904466842 -1.5224996691
H  -0.8951439298 -1.0599719717  1.2693940376
H   0.6041252174  0.9928161391  0.3863478369
H  -2.7673734429 -1.9046373120  0.1879251381
H  -1.9090210065 -2.2112031425 -1.2651751340
H  -0.3508235327  2.8086281283  0.7161981563
H  -0.9940716157  1.3664881426  1.7218490872
H   2.6331520103  0.2304814229  1.6785074403
H   1.6441997411  1.0016012008 -1.8946885461
H   2.5394056128 -1.3891291391  0.9772868680
H   1.2519223990 -0.7979238913  2.0434103581
H   2.9167356429  1.2405108143 -0.6913746075
H   2.7332429832 -0.3346642034 -1.4801857582
22
Iteration 5  Energy = -72.4282068686
C  -0.8819234555 -1.2405086648  0.1948523485
C   1.2376724596  0.0789646947  0.0331574920
C  -0.8126554605  1.8450580406  0.7513161831
C   1.9572303568 -0.5110953543  1.2587867271
C   2.1892832872  0.5201843856 -1.0810690349
N   0.2158775717 -0.8944891577 -0.5205087649
N  -2.0072163326 -1.6441322753 -0.4322371779
O  -1.6211009115  1.5755314193 -0.2919435890
H  -2.1673742531  0.7732053358 -0.1704193921
H   0.0160697343 -0.7994979546 -1.5124815474
H  -0.9070881756 -1.1375071594  1.2828567744
H   0.6135711057  0.9919966841  0.3861499223
H  -2.7850072634 -1.9095055320  0.1611585525
H  -1.9238875130 -2.1539062303 -1.3129118217
H  -0.3316534673  2.8151926505  0.7194642602
H  -0.9806662706  1.3685855968  1.7180273222
H   2.6454131800  0.2281358823  1.6739312411
H   1.6392409639  0.9973956323 -1.8954334682
H   2.5382026720 -1.3952835159  0.9825875554
H   1.2585980814 -0.7879684387  2.0493218664
H   2.9172034489  1.2371719170 -0.6986914769
H   2.7311741951 -0.3383121345 -1.4864430586
22
Iteration 6  Energy = -72.4297658280
C  -0.8823431565 -1.2672550918  0.1953179334
C   1.2390626430  0.0819312850  0.0352712238
C  -0.8138889930  1.8572352207  0.7484681502
C   1.9648233984 -0.5028955815  1.2596471008
C   2.1860051258  0.5214929179 -1.0845253757
N   0.2134873323 -0.8949864814 -0.5113721596
N  -1.9998948402 -1.6595096908 -0.4401712237
O  -1.6272226764  1.5862360250 -0.2920165600
H  -2.1836240924  0.7939770537 -0.1545723164
H   0.0123515970 -0.8012120878 -1.5038281797
H  -0.9190325932 -1.2219944992  1.2882648494
H   0.6130655661  0.9936789967  0.3861021291
H  -2.7901463796 -1.9312933382  0.1320861887
H  -1.9311963353 -2.0855978415 -1.3660480462
H  -0.3253517244  2.8236433676  0.7100542985
H  -0.9801356150  1.3867060737  1.7172877731
H   2.6574186878  0.2370003171  1.6662221068
H   1.6316296388  0.9953508823 -1.8979128445
H   2.5407941608 -1.3910737605  0.9864968909
H   1.2694206432 -0.7707166914  2.0557529044
H   2.9136931124  1.2413629982 -0.7071749117
H   2.7281537515 -0.3367807052 -1.4899247767
22
Iteration 7  Energy = -72.4310153798
C  -0.8842614917 -1.2898532608  0.1944978012
C   1.2385564793  0.0829231117  0.0382176339
C  -0.8119263436  1.8661113579  0.7477997772
C   1.9743769561 -0.4945010750  1.2598184448
C   2.1795763572  0.5209881195 -1.0885759510
N   0.2126972280 -0.8988447648 -0.5029455776
N  -1.9911137386 -1.6806326280 -0.4482240899
O  -1.6323577325  1.5949303482 -0.2910440135
H  -2.2202681838  0.8321465826 -0.1202069709
H   0.0144683190 -0.8058324924 -1.4970368498
H  -0.9332446714 -1.2567278749  1.2846662141
H   0.6111870416  0.9935125789  0.3879489953
H  -2.7920961152 -1.9587737427  0.1040551398
H  -1.9428104915 -2.0013716029 -1.4173787826
H  -0.3134213125  2.8274748991  0.7034315947
H  -0.9773720565  1.3972072390  1.7167724110
H   2.6730839677  0.2466030281  1.6536156375
H   1.6196843443  0.9908525441 -1.9005327224
H   2.5443103817 -1.3872922501  0.9894297510
H   1.2849272154 -0.7517277560  2.0643980231
H   2.9078119938  1.2438598219 -0.7180931731
H   2.7213147787 -0.3375276053 -1.4940968736
22
Iteration 8  Energy = -72.4319513516
C  -0.8885387424 -1.3081150638  0.1922400604
C   1.2355014646  0.0839612647  0.0415807208
C  -0.8081079218  1.8797860869  0.7429789212
C   1.9809715151 -0.4840219380  1.2612004250
C   2.1703634016  0.5190102637 -1.0925599262
N   0.2115256697 -0.9039637259 -0.4958780881
N  -1.9838290637 -1.7052415550 -0.4601626503
O  -1.6361733952  1.6050018555 -0.2924095107
H  -2.2428049223  0.8630861451 -0.0994488759
H   0.0135590992 -0.8081994724 -1.4909033600
H  -0.9435794437 -1.2859785457  1.2815088591
H   0.6074548898  0.9944143101  0.3887749047
H  -2.7944169998 -1.9902349112  0.0735166298
H  -1.9518052713 -1.9255541835 -1.4556014276
H  -0.2975536957  2.8343010729  0.6864310527
H  -0.9753511571  1.4226775545  1.7170896096
H   2.6862245962  0.2585751172  1.6402603696
H   1.6047904947  0.9848373132 -1.9029276013
H   2.5444294593 -1.3821927302  0.9953721374
H   1.2965497217 -0.7288359945  2.0740684483
H   2.9001909909  1.2442636377 -0.7300532383
H   2.7099593562 -0.3410010546 -1.4978351896
22
Iteration 9  Energy = -72.4326128439
C  -0.8909467833 -1.3284064578  0.1921083975
C   1.2309849507  0.0844954989  0.0442098349
C  -0.7989755977  1.8987049977  0.7347611691
C   1.9835691429 -0.4731042041  1.2636641833
C   2.1606839602  0.5152802142 -1.0964041193
N   0.2084948875 -0.9086821476 -0.4893820001
N  -1.9779376824 -1.7304504950 -0.4687737552
O  -1.6363981287  1.6194293119 -0.2947170551
H  -2.2435654281  0.8824509901 -0.0884635884
H   0.0114743019 -0.8138459065 -1.4854489087
H  -0.9443961002 -1.3267773634  1.2819274796
H   0.6023617377  0.9971172411  0.3880632920
H  -2.7916687763 -2.0257207859  0.0541214530
H  -1.9604344991 -1.8754905354 -1.4756936604
H  -0.2821781779  2.8490262658  0.6663505192
H  -0.9648128119  1.4508881439  1.7133455446
H   2.6947802541  0.2711142026  1.6280937584
H   1.5912036185  0.9785187425 -1.9055182066
H   2.5411645658 -1.3767907614  1.0044693975
H   1.3035583223 -0.7043122148  2.0842558248
H   2.8927090938  1.2417106920 -0.7408662026
H   2.6976331157 -0.3466588672 -1.5012205741
22
Iteration 10  Energy = -72.4332925157
C  -0.8848831781 -1.3544766222  0.1943662669
C   1.2287160239  0.0857324298  0.0425520428
C  -0.7941392812  1.9183289547  0.7240688734
C   1.9845542843 -0.4652954651  1.2624983980
C   2.1565046194  0.5115778235 -1.1023557863
N   0.2063691073 -0.9096603415 -0.4870065201
N  -1.9768257973 -1.7387498355 -0.4700320817
O  -1.6365742619  1.6344904904 -0.3015913069
H  -2.2483811395  0.9043532322 -0.0835856392
H  -0.0004331254 -0.7977693537 -1.4796723836
H  -0.9138492979 -1.4281377468  1.2868250842
H   0.6029379094  1.0001895127  0.3805626905
H  -2.7836726647 -2.0580699011  0.0503703371
H  -1.9756029635 -1.8312115114 -1.4820416080
H  -0.2768546915  2.8680506879  0.6547266377
H  -0.9452134924  1.4550607215  1.6975713352
H   2.6999178776  0.2792929586  1.6178940200
H   1.5854061436  0.9732364962 -1.9112849188
H   2.5382217548 -1.3728851918  1.0086533157
H   1.3068169641 -0.6864154843  2.0876185421
H   2.8906140650  1.2382767215 -0.7516004665
H   2.6912443464 -0.3522200885 -1.5063246831
22
Iteration 11  Energy = -72.4334974960
C  -0.8834259319 -1.3666622481  0.1868796039
C   1.2313720049  0.0763967553  0.0338580831
C  -0.7885901595  1.9195995855  0.6988861125
C   1.9835342048 -0.4695030772  1.2583345535
C   2.1625940467  0.4934732439 -1.1116355913
N   0.2078155643 -0.9195282561 -0.4929357140
N  -1.9757294499 -1.7465004957 -0.4793532199
O  -1.6283913474  1.6339907178 -0.3279796280
H  -2.2523748337  0.9146161098 -0.1082373886
H   0.0013367732 -0.8073322579 -1.4856020183
H  -0.9113096091 -1.4463443586  1.2769775487
H   0.6077044884  0.9946257714  0.3642301605
H  -2.7816789720 -2.0711709102  0.0388269927
H  -1.9767617264 -1.8272982069 -1.4909244229
H  -0.2679182609  2.8673339650  0.6274974537
H  -0.9405666909  1.4582727760  1.6726932710
H   2.7010314228  0.2748585091  1.6098453947
H   1.5941736247  0.9524293080 -1.9240006723
H   2.5344308343 -1.3806119945  1.0112213428
H   1.3040101646 -0.6826118038  2.0839870960
H   2.8980965427  1.2200330798 -0.7635168833
H   2.6955931428 -0.3739764896 -1.5101057893
22
Iteration 12  Energy = -72.4341509418
C  -0.8776674959 -1.3924299515  0.1854806386
C   1.2297739690  0.0729376279  0.0335211241
C  -0.7790769035  1.9289476197  0.6929419242
C   1.9814506017 -0.4703343127  1.2590222972
C   2.1616498752  0.4857898094 -1.1133107370
N   0.2054702802 -0.9227594546 -0.4933894267
N  -1.9755997372 -1.7534028538 -0.4813964928
O  -1.6204477534  1.6543825351 -0.3372368792
H  -2.3042443751  0.9910548391 -0.1022079356
H  -0.0122980629 -0.7894184048 -1.4815617089
H  -0.8944654028 -1.5021911129  1.2741995184
H   0.6085859500  0.9938704977  0.3587805420
H  -2.7651421741 -2.1233768956  0.0345373199
H  -1.9875926733 -1.7962113157 -1.4956681248
H  -0.2444167777  2.8688649501  0.6254938083
H  -0.9299704439  1.4591152748  1.6623023263
H   2.7033860319  0.2723893387  1.6048887400
H   1.5931313667  0.9458884130 -1.9249524821
H   2.5273807879 -1.3854664073  1.0159355517
H   1.3025626387 -0.6748236748  2.0872907681
H   2.8999714581  1.2103859066 -0.7670533030
H   2.6910041949 -0.3838223189 -1.5119233122
22
Iteration 13  Energy = -72.4341619090
C  -0.8892088675 -1.3850242877  0.1854452732
C   1.2309986313  0.0655503111  0.0331162898
C  -0.7811073277  1.9436263585  0.6922385162
C   1.9777107416 -0.4852419256  1.2588867941
C   2.1682205799  0.4637605948 -1.1155617530
N   0.1962910021 -0.9215622161 -0.4929595655
N  -1.9919993789 -1.7321166809 -0.4811392953
O  -1.6115166923  1.6683741780 -0.3442730363
H  -2.3122525886  1.0262588193 -0.1087589664
H  -0.0213260729 -0.7858664857 -1.4807324066
H  -0.9076798748 -1.4967224341  1.2731580793
H   0.6230006875  0.9884297723  0.3554382811
H  -2.7815000148 -2.1012048678  0.0329142583
H  -2.0065625042 -1.7686070222 -1.4950168394
H  -0.2249660167  2.8702644298  0.6202613560
H  -0.9356407033  1.4734094619  1.6605250738
H   2.7103411538  0.2482143022  1.6023213609
H   1.6051522711  0.9297401913 -1.9277157087
H   2.5109002422 -1.4083615869  1.0173147185
H   1.2970439539 -0.6784655261  2.0884812830
H   2.9171670415  1.1788098539 -0.7719516643
H   2.6849981763 -0.4140641924 -1.5129165610
22
Iteration 14  Energy = -72.4345673398
C  -0.8809337841 -1.4129685034  0.1864190203
C   1.2237904735  0.0672824333  0.0362609276
C  -0.7629253854  1.9493457546  0.6933724704
C   1.9717080579 -0.4778312185  1.2630105386
C   2.1588725634  0.4681087278 -1.1126002651
N   0.1933992637 -0.9223630983 -0.4918296210
N  -1.9873402949 -1.7516466526 -0.4775063396
O  -1.6111752609  1.6888767092 -0.3358593327
H  -2.2924866105  1.0268822774 -0.1012075968
H  -0.0354681160 -0.7673026486 -1.4745718207
H  -0.8890887475 -1.5493379053  1.2717931998
H   0.6078972083  0.9942445098  0.3578175403
H  -2.7686153554 -2.1406351648  0.0347627426
H  -2.0164459595 -1.7511831951 -1.4924018693
H  -0.2142521842  2.8812301520  0.6257475654
H  -0.9217103786  1.4834112900  1.6633452387
H   2.7061233654  0.2566289148  1.6000293801
H   1.5939940920  0.9340523688 -1.9234563318
H   2.5029151657 -1.4030240509  1.0256816003
H   1.2927463614 -0.6641927635  2.0955178796
H   2.9069113990  1.1839082987 -0.7689846135
H   2.6762966172 -0.4085509307 -1.5114371917
22
Iteration 15  Energy = -72.4348616675
C  -0.8812331752 -1.4304040029  0.1804243397
C   1.2145270076  0.0643954698  0.0353160277
C  -0.7332137615  1.9537466185  0.6837780002
C   1.9585696070 -0.4757354749  1.2652106861
C   2.1503298113  0.4673392883 -1.1106045259
N   0.1870261946 -0.9244364527 -0.4959746109
N  -1.9883572315 -1.7663449058 -0.4823324082
O  -1.6039377890  1.7125193285 -0.3358976306
H  -2.2608406851  1.0264461193 -0.1042051829
H  -0.0468812688 -0.7574381123 -1.4753035668
H  -0.8822583167 -1.5822655674  1.2638904172
H   0.5909095882  0.9993958896  0.3561312587
H  -2.7676658224 -2.1602521135  0.0284403388
H  -2.0269681133 -1.7417027525 -1.4960807591
H  -0.1920774068  2.8912370735  0.6203565467
H  -0.9002305016  1.4974400598  1.6575180033
H   2.6934289933  0.2596029836  1.5990663128
H   1.5863815962  0.9330850685 -1.9221669405
H   2.4887969687 -1.4028553264  1.0334331118
H   1.2782107882 -0.6562029777  2.0978400611
H   2.8961564375  1.1842090935 -0.7645034142
H   2.6700985665 -0.4081378756 -1.5090415622
22
Iteration 16  Energy = -72.4349437431
C  -0.8683794190 -1.4446847042  0.1880739174
C   1.2127508077  0.0696862423  0.0316923710
C  -0.7376467250  1.9521667779  0.6719115223
C   1.9615229853 -0.4560974178  1.2646936305
C   2.1429666930  0.4750268641 -1.1174819239
N   0.1919965680 -0.9285725666 -0.4928284125
N  -1.9744507028 -1.7927685549 -0.4699007789
O  -1.6132080650  1.7037649810 -0.3417288784
H  -2.2553062073  1.0048176298 -0.1092000544
H  -0.0461225314 -0.7668147138 -1.4719175132
H  -0.8629287617 -1.5962781611  1.2715109892
H   0.5848097676  1.0028212284  0.3483601848
H  -2.7483699921 -2.1928531889  0.0442683369
H  -2.0190650022 -1.7650097329 -1.4829734994
H  -0.2032819323  2.8932044330  0.6047425961
H  -0.8965392015  1.4978057467  1.6475781184
H   2.6913669267  0.2870570529  1.5923679335
H   1.5735960005  0.9318983103 -1.9303784815
H   2.4980986317 -1.3812397064  1.0396952772
H   1.2830597318 -0.6346684055  2.0992693154
H   2.8827919832  1.2004370671 -0.7760559825
H   2.6699865090 -0.3976551536 -1.5126112463
22
Iteration 17  Energy = -72.4350954966
C  -0.8701368658 -1.4514389064  0.1861126893
C   1.2070153340  0.0690467972  0.0268219360
C  -0.7068103641  1.9640770142  0.6706187442
C   1.9538966543 -0.4554750163  1.2606286718
C   2.1340401404  0.4766934398 -1.1230330944
N   0.1828960702 -0.9232567830 -0.4966500665
N  -1.9765275798 -1.8031453716 -0.4681882527
O  -1.6019949022  1.7289668052 -0.3309790553
H  -2.2173354557  1.0047942293 -0.1036074051
H  -0.0589309123 -0.7574945905 -1.4739789284
H  -0.8569910485 -1.6116446714  1.2683153269
H   0.5818964426  1.0089909089  0.3461104544
H  -2.7461218516 -2.2100302095  0.0469874747
H  -2.0309667249 -1.7572324307 -1.4801850717
H  -0.1801036481  2.9103940134  0.6093434909
H  -0.8559532048  1.5037144569  1.6446457133
H   2.6852929216  0.2870810215  1.5859732666
H   1.5623511218  0.9339566267 -1.9340213729
H   2.4881436002 -1.3826009130  1.0386755852
H   1.2748046792 -0.6291783895  2.0957138822
H   2.8728085285  1.2032091814 -0.7816855263
H   2.6619636494 -0.3942783161 -1.5206684114
22
Iteration 18  Energy = -72.4351885990
C  -0.8702610552 -1.4615613367  0.1792406822
C   1.2013536815  0.0679734156  0.0263397028
C  -0.6835226002  1.9837867353  0.6669164139
C   1.9418283924 -0.4549617596  1.2637641516
C   2.1299498511  0.4788164015 -1.1202218355
N   0.1783731648 -0.9214911900 -0.5010424022
N  -1.9726317423 -1.8205904313 -0.4763058826
O  -1.6006730422  1.7326342233 -0.3128090818
H  -2.1907316985  0.9920929890 -0.0727973257
H  -0.0635302134 -0.7526218809 -1.4776318817
H  -0.8571544101 -1.6221879589  1.2613572124
H   0.5775240926  1.0134379080  0.3459949015
H  -2.7384407592 -2.2375339461  0.0365013990
H  -2.0301531083 -1.7639892374 -1.4873916202
H  -0.1513022442  2.9247851901  0.5691993954
H  -0.8305336697  1.5661401629  1.6620195593
H   2.6728206944  0.2875247180  1.5901129518
H   1.5587502153  0.9365175159 -1.9313288526
H   2.4754802167 -1.3836237777  1.0469057917
H   1.2587081481 -0.6243271118  2.0965365062
H   2.8664382661  1.2063566538 -0.7759301732
H   2.6603332333 -0.3903192194 -1.5185532854
22
Iteration 19  Energy = -72.4352798537
C  -0.8683507887 -1.4718017032  0.1744385400
C   1.1949695639  0.0688454965  0.0288073139
C  -0.6648852117  2.0051804625  0.6607713054
C   1.9314759569 -0.4530295944  1.2680764052
C   2.1248730709  0.4863545317 -1.1135958854
N   0.1759932551 -0.9204238360 -0.5039913571
N  -1.9717642321 -1.8271727931 -0.4804917589
O  -1.6070405212  1.7304121170 -0.2906045315
H  -2.1799405519  0.9851579539 -0.0254107061
H  -0.0705401646 -0.7403460237 -1.4773114842
H  -0.8503033133 -1.6466667805  1.2542107338
H   0.5688753800  1.0175312665  0.3498963276
H  -2.7357860973 -2.2469618344  0.0324434867
H  -2.0341767307 -1.7616037880 -1.4907971849
H  -0.1244161205  2.9355962722  0.5138232399
H  -0.8047355155  1.6395089180  1.6782125960
H   2.6634032017  0.2886889306  1.5941146705
H   1.5542879433  0.9464970585 -1.9237940175
H   2.4636687845 -1.3832852790  1.0545108916
H   1.2466279403 -0.6183226086  2.1003102251
H   2.8588379694  1.2142756366 -0.7645438210
H   2.6582526082 -0.3796828020 -1.5146653345
22
Iteration 20  Energy = -72.4353128151
C  -0.8689861560 -1.4709362643  0.1756072546
C   1.1946781635  0.0709335644  0.0294400814
C  -0.6552253144  2.0107736746  0.6841274613
C   1.9383740278 -0.4615047133  1.2598813197
C   2.1177792422  0.4962327292 -1.1156446236
N   0.1708339767 -0.9128412800 -0.5045212966
N  -1.9780006305 -1.8169557601 -0.4750081042
O  -1.6061896748  1.7384798651 -0.2585631263
H  -2.1770522191  0.9934519838  0.0100097054
H  -0.0826980956 -0.7229161858 -1.4741479280
H  -0.8419863875 -1.6629735186  1.2524966968
H   0.5717137002  1.0181427902  0.3623583779
H  -2.7388908543 -2.2409529218  0.0391175525
H  -2.0480432067 -1.7398200103 -1.4840093111
H  -0.1108777818  2.9360331985  0.5279058062
H  -0.7895396480  1.6540611978  1.7040477248
H   2.6742176892  0.2761742806  1.5863668683
H   1.5426303249  0.9645397330 -1.9179713716
H   2.4669493417 -1.3914685909  1.0361077689
H   1.2586238023 -0.6310319756  2.0954896457
H   2.8555788088  1.2197193119 -0.7654066011
H   2.6468121472 -0.3674196704 -1.5275819452
22
Iteration 21  Energy = -72.4354368524
C  -0.8647102120 -1.4902627979  0.1637561919
C   1.1897511366  0.0728335019  0.0326984762
C  -0.6447360362  2.0272671998  0.6845312668
C   1.9331051341 -0.4656189826  1.2599133219
C   2.1122503995  0.5083543264 -1.1088017480
N   0.1677215158 -0.9088659355 -0.5091825813
N  -1.9792635328 -1.8176314037 -0.4873382400
O  -1.6115471049  1.7364106142 -0.2378558131
H  -2.1729847690  0.9916100956  0.0511645453
H  -0.0927579629 -0.6998737161 -1.4731112839
H  -0.8263650659 -1.7233756244  1.2332237352
H   0.5646636623  1.0188796972  0.3714428330
H  -2.7338747166 -2.2602997446  0.0206974178
H  -2.0582461076 -1.7120211691 -1.4934588125
H  -0.0943332976  2.9427045776  0.4911228301
H  -0.7718605561  1.7090062307  1.7189420991
H   2.6713386840  0.2689552670  1.5880441988
H   1.5367982029  0.9839772123 -1.9065431842
H   2.4586709017 -1.3963641901  1.0327461919
H   1.2534360881 -0.6351519216  2.0956260840
H   2.8501242223  1.2288480915 -0.7524802730
H   2.6412591821 -0.3514064701 -1.5287207701
22
Iteration 22  Energy = -72.4355413989
C  -0.8615623789 -1.5027341058  0.1579405220
C   1.1854051082  0.0730102281  0.0331035400
C  -0.6234829431  2.0452651320  0.6668998140
C   1.9218318113 -0.4645981751  1.2638201475
C   2.1107659105  0.5096624681 -1.1046089730
N   0.1630586835 -0.9043116826 -0.5118712719
N  -1.9787054548 -1.8238924005 -0.4922030898
O  -1.6173090990  1.7333731840 -0.2210590388
H  -2.1643375034  0.9904799112  0.0991318177
H  -0.1030210194 -0.6835197575 -1.4714606563
H  -0.8134942569 -1.7564025386  1.2216964146
H   0.5615681904  1.0246819872  0.3680492643
H  -2.7228177005 -2.2922999903  0.0088573296
H  -2.0652496509 -1.6963851778 -1.4950179820
H  -0.0821489880  2.9590102576  0.4415948557
H  -0.7194387603  1.7440208321  1.7086616021
H   2.6636226455  0.2668240664  1.5908963290
H   1.5374100398  0.9857441183 -1.9035685711
H   2.4420337091 -1.3995919079  1.0419875504
H   1.2388978784 -0.6260482270  2.0985676149
H   2.8468708305  1.2304949284 -0.7451900327
H   2.6416171152 -0.3491333793 -1.5240850476
22
Iteration 23  Energy = -72.4355959968
C  -0.8601794389 -1.5061666853  0.1501214144
C   1.1825740881  0.0715723589  0.0233325510
C  -0.5956330914  2.0562951258  0.6539367034
C   1.9102923261 -0.4635151915  1.2590241596
C   2.1103901718  0.5066724606 -1.1111649785
N   0.1573058490 -0.8981395255 -0.5217161518
N  -1.9823356271 -1.8215861393 -0.4938121226
O  -1.6190494142  1.7351735305 -0.1991513653
H  -2.1520629762  0.9942701440  0.1466359286
H  -0.1154025815 -0.6678408313 -1.4770684890
H  -0.8001759059 -1.7731642366  1.2096446569
H   0.5610858417  1.0338696534  0.3560311472
H  -2.7208397283 -2.2973731854  0.0078245953
H  -2.0800631570 -1.6773762432 -1.4932468251
H  -0.0578102194  2.9634409613  0.3961074843
H  -0.6722889983  1.7847221610  1.7053241530
H   2.6580106236  0.2632758280  1.5829557942
H   1.5391610392  0.9829646196 -1.9115880319
H   2.4223091459 -1.4049252776  1.0453359505
H   1.2237517211 -0.6124674914  2.0933285168
H   2.8459389414  1.2274493227 -0.7501865615
H   2.6418766188 -0.3523870081 -1.5293976971
22
Iteration 24  Energy = -72.4356908874
C  -0.8547244041 -1.5185934782  0.1471514039
C   1.1722875448  0.0703360251  0.0237364324
C  -0.5777403447  2.0459188254  0.6420462207
C   1.8906567569 -0.4472868341  1.2683808016
C   2.0980438126  0.5220878321 -1.1011732020
N   0.1582134318 -0.9000098280 -0.5232752034
N  -1.9777229417 -1.8318922869 -0.4952838232
O  -1.6239983835  1.7276198215 -0.1934754787
H  -2.1439535999  0.9864415291  0.1668424549
H  -0.1147036683 -0.6695307729 -1.4785791045
H  -0.7878798344 -1.7956096177  1.2033413165
H   0.5314535399  1.0480518849  0.3580803368
H  -2.7127926091 -2.3142990946  0.0050461460
H  -2.0799690042 -1.6790188401 -1.4928185827
H  -0.0495734653  2.9540570017  0.3693863244
H  -0.6666675349  1.8184763328  1.7035704205
H   2.6306275463  0.2872145686  1.5928238237
H   1.5246486478  0.9912056785 -1.9042670676
H   2.4108724700 -1.3871580337  1.0678362195
H   1.1966870040 -0.5928525544  2.0971585621
H   2.8195787773  1.2540074854 -0.7334957706
H   2.6460132891 -0.3274934338 -1.5181007088
22
Iteration 25  Energy = -72.4358994440
C  -0.8546807184 -1.5239440582  0.1435997617
C   1.1675808155  0.0573936567  0.0155163730
C  -0.5412931980  2.0315425322  0.6358070449
C   1.8714898452 -0.4411813383  1.2692552309
C   2.0857310585  0.5272060352 -1.1001474315
N   0.1530264746 -0.8940059871 -0.5270111879
N  -1.9794854701 -1.8325135589 -0.4960355716
O  -1.6213412510  1.7296534262 -0.1844684851
H  -2.1290729284  0.9889060728  0.1874535715
H  -0.1184957644 -0.6679573742 -1.4843750489
H  -0.7803487127 -1.8074278098  1.1969793090
H   0.4995959670  1.0797329513  0.3641113830
H  -2.7119061791 -2.3195743761  0.0036602300
H  -2.0865840944 -1.6714272920 -1.4917369546
H  -0.0472862017  2.9600613453  0.3607022126
H  -0.6520196149  1.8563637151  1.7062323782
H   2.6041548502  0.3002577924  1.5951947551
H   1.5111326828  0.9948613391 -1.9037060563
H   2.4002032110 -1.3796416598  1.0829536307
H   1.1703897216 -0.5845086762  2.0929018351
H   2.8010886961  1.2632751239 -0.7277072147
H   2.6435471722 -0.3139784043 -1.5220839584
22
Iteration 26  Energy = -72.4362811522
C  -0.8514293338 -1.5289021211  0.1474501409
C   1.1683235148  0.0374874205  0.0099085055
C  -0.5120613454  2.0201097172  0.6316608049
C   1.8539589327 -0.4286401902  1.2821737142
C   2.0784464322  0.5371831947 -1.0943213863
N   0.1518252823 -0.8873412447 -0.5232809582
N  -1.9748657960 -1.8364907011 -0.4924128356
O  -1.6153026858  1.7273487923 -0.1780455600
H  -2.1235314756  0.9941807599  0.2051659104
H  -0.1129923213 -0.6743674309 -1.4862106090
H  -0.7709368022 -1.8177656962  1.1985931165
H   0.4777663665  1.0977232991  0.3671570517
H  -2.7059389910 -2.3279545096  0.0049604794
H  -2.0837868023 -1.6662713615 -1.4862662343
H  -0.0337807657  2.9533755228  0.3438048365
H  -0.6315098341  1.8812524333  1.7069717367
H   2.5762640125  0.3243532793  1.6078899907
H   1.5021981394  1.0050417391 -1.8977995577
H   2.3958993536 -1.3660442221  1.1234517766
H   1.1432876375 -0.5652748445  2.0999084653
H   2.7839431265  1.2798129579 -0.7130693428
H   2.6530901786 -0.2887950028 -1.5268918174
22
Iteration 27  Energy = -72.4394906835
C  -0.8554067215 -1.5306033914  0.1425957847
C   1.1704287630  0.0206996422  0.0010561017
C  -0.4940875425  2.0022877160  0.6382857364
C   1.8456918645 -0.4284382181  1.2766960914
C   2.0671246240  0.5455125171 -1.0927820622
N   0.1484227454 -0.8803622429 -0.5261906427
N  -1.9778061790 -1.8354852813 -0.4979834671
O  -1.6242701967  1.7282584459 -0.1722213484
H  -2.1245526916  0.9925805364  0.2117912085
H  -0.1162349389 -0.6687337347 -1.4910009670
H  -0.7712666901 -1.8230254678  1.1910714238
H   0.3908574346  1.1812245913  0.3957859648
H  -2.7085303593 -2.3294307634 -0.0024096736
H  -2.0875958559 -1.6597521865 -1.4906229412
H  -0.0631142362  2.9684408990  0.3641242537
H  -0.6547956517  1.9056136829  1.7182305469
H   2.5678757211  0.3251489711  1.6020051205
H   1.4860643416  1.0155201545 -1.8916037981
H   2.3905976187 -1.3648589806  1.1208657439
H   1.1328827060 -0.5676834616  2.0921020051
H   2.7714054245  1.2867902672 -0.7061037679
H   2.6457501624 -0.2733567972 -1.5344649719
22
Iteration 28  Energy = -72.4428501205
C  -0.8548465818 -1.5308000550  0.1419516797
C   1.1752386060  0.0077974727 -0.0049779661
C  -0.4914870964  2.0004100291  0.6422298292
C   1.8455157205 -0.4285688539  1.2753056776
C   2.0650926848  0.5490202888 -1.0931427160
N   0.1500377570 -0.8764732753 -0.5259330436
N  -1.9766971224 -1.8352696404 -0.4989133382
O  -1.6268815261  1.7288188995 -0.1712591877
H  -2.1257038491  0.9914598552  0.2121802596
H  -0.1137383093 -0.6668718681 -1.4918299235
H  -0.7696720426 -1.8241696281  1.1894087016
H   0.3511598137  1.2371027104  0.4214205641
H  -2.7073173840 -2.3300205901 -0.0037934474
H  -2.0867106395 -1.6584308056 -1.4912526519
H  -0.0790002668  2.9758387056  0.3724193760
H  -0.6684285234  1.9178105431  1.7210086349
H   2.5693537134  0.3255595145  1.6009726529
H   1.4817167213  1.0204087341 -1.8910526716
H   2.3928644961 -1.3660217926  1.1233108987
H   1.1320291287 -0.5697619385  2.0914887873
H   2.7698798852  1.2905620738 -0.7042384885
H   2.6468959547 -0.2660033503 -1.5411465197
22
Iteration 29  Energy = -72.4459914641
C  -0.8543528972 -1.5314570422  0.1421960611
C   1.1817579091 -0.0097572953 -0.0112405026
C  -0.4915660915  2.0037914055  0.6463128772
C   1.8455426297 -0.4299959218  1.2746463372
C   2.0622177858  0.5531066657 -1.0919262945
N   0.1515375373 -0.8727241368 -0.5245324729
N  -1.9755184631 -1.8351930044 -0.4993480660
O  -1.6288702280  1.7290937077 -0.1727306961
H  -2.1274826076  0.9919082614  0.2114256347
H  -0.1100910807 -0.6656201849 -1.4918880878
H  -0.7685118616 -1.8269052104  1.1884984619
H   0.3305600845  1.2773929267  0.4466190703
H  -2.7062706267 -2.3307759306 -0.0050300853
H  -2.0855217171 -1.6567661430 -1.4913252544
H  -0.0944751377  2.9857968903  0.3751092477
H  -0.6862861360  1.9394791976  1.7237480789
H   2.5696739614  0.3257831676  1.5986732309
H   1.4766021098  1.0264319979 -1.8882294027
H   2.3961533109 -1.3683500187  1.1282667240
H   1.1317535908 -0.5728506536  2.0915779074
H   2.7659582111  1.2945706130 -0.6985021868
H   2.6488567667 -0.2558265279 -1.5484996167
22
Iteration 30  Energy = -72.4486746863
C  -0.8537645629 -1.5311062298  0.1431645245
C   1.1897209243 -0.0292007556 -0.0188429207
C  -0.4943427809  2.0078910820  0.6534126129
C   1.8446803891 -0.4302429568  1.2737766804
C   2.0599474482  0.5560983847 -1.0912236623
N   0.1527142723 -0.8684779462 -0.5235910643
N  -1.9736962740 -1.8345194153 -0.4995527963
O  -1.6310027656  1.7296923453 -0.1752593563
H  -2.1301923720  0.9917603740  0.2072779091
H  -0.1057620430 -0.6638961056 -1.4925893411
H  -0.7671874154 -1.8277100783  1.1889468368
H   0.3347378318  1.2871874158  0.4604327681
H  -2.7047933559 -2.3306829745 -0.0061646966
H  -2.0831650279 -1.6551322399 -1.4913584635
H  -0.1141262599  2.9979407516  0.3853278083
H  -0.7074936502  1.9536787520  1.7279509440
H   2.5670445890  0.3295447667  1.5948210101
H   1.4710076095  1.0327353405 -1.8842391228
H   2.3999997335 -1.3692185791  1.1399216798
H   1.1288142915 -0.5715622672  2.0903974158
H   2.7609023215  1.2978404144 -0.6913609576
H   2.6532930027 -0.2429396856 -1.5596255079
22
Iteration 31  Energy = -72.4510539250
C  -0.8530474186 -1.5305569592  0.1444258671
C   1.1984698425 -0.0482149146 -0.0260705272
C  -0.4978016225  2.0127927025  0.6604498738
C   1.8439533990 -0.4309095000  1.2731467393
C   2.0579724722  0.5590145579 -1.0907447730
N   0.1529146585 -0.8649014041 -0.5232685996
N  -1.9716038306 -1.8339228051 -0.4996813057
O  -1.6329200974  1.7300177909 -0.1777010795
H  -2.1319481028  0.9911526397  0.2036017185
H  -0.1025228538 -0.6625030420 -1.4936630482
H  -0.7657789763 -1.8282169453  1.1897605027
H   0.3340054573  1.2984694123  0.4747218752
H  -2.7031691076 -2.3307247325 -0.0075097757
H  -2.0801968301 -1.6533080746 -1.4912771416
H  -0.1314284081  3.0088601790  0.3941787221
H  -0.7275256512  1.9672506930  1.7320683136
H   2.5632541601  0.3341707696  1.5905605263
H   1.4647494959  1.0400396423 -1.8789142763
H   2.4043361088 -1.3699676636  1.1545463408
H   1.1251643293 -0.5687433910  2.0888205107
H   2.7548615458  1.3013872203 -0.6832215598
H   2.6588219405 -0.2276429885 -1.5726695037
22
Iteration 32  Energy = -72.4532412366
C  -0.8535302391 -1.5304986105  0.1466035347
C   1.2074644417 -0.0668847425 -0.0322922991
C  -0.4973459566  2.0235077441  0.6596105932
C   1.8404309325 -0.4298039082  1.2747562283
C   2.0581379002  0.5565505782 -1.0903901590
N   0.1515010799 -0.8624102619 -0.5220939835
N  -1.9705680205 -1.8340763646 -0.4991730507
O  -1.6350497486  1.7295326496 -0.1775737048
H  -2.1291368519  0.9900398410  0.2090198907
H  -0.1012096616 -0.6622651376 -1.4937475603
H  -0.7657479912 -1.8290489249  1.1915664337
H   0.3334079759  1.3178913718  0.4824732738
H  -2.7029704298 -2.3311961290 -0.0084745733
H  -2.0785020200 -1.6508513267 -1.4902709552
H  -0.1427908275  3.0215306690  0.3850576672
H  -0.7329400778  1.9914537871  1.7304556973
H   2.5571956959  0.3403906035  1.5880456636
H   1.4619253867  1.0405416096 -1.8755472005
H   2.4045897149 -1.3697456868  1.1748386746
H   1.1168999697 -0.5603822414  2.0884697851
H   2.7513516020  1.3002698059 -0.6769978401
H   2.6660446176 -0.2193797638 -1.5826952199
22
Iteration 33  Energy = -72.4553852157
C  -0.8537341750 -1.5303121898  0.1486136188
C   1.2172419250 -0.0855054128 -0.0386448085
C  -0.4989180915  2.0341132560  0.6601222205
C   1.8372763202 -0.4292350586  1.2761120697
C   2.0584291630  0.5547688974 -1.0902217788
N   0.1500494610 -0.8600481830 -0.5215298283
N  -1.9693904716 -1.8340237812 -0.4985203619
O  -1.6367621220  1.7291721346 -0.1781386932
H  -2.1263406385  0.9888352910  0.2125160726
H  -0.1004443027 -0.6619067350 -1.4942329971
H  -0.7647555210 -1.8295941995  1.1931201520
H   0.3325151615  1.3370783244  0.4921121468
H  -2.7026096519 -2.3314513247 -0.0092463808
H  -2.0766875145 -1.6481882624 -1.4891101130
H  -0.1539355182  3.0333224663  0.3785779181
H  -0.7406440872  2.0124540008  1.7297605140
H   2.5515383646  0.3458008760  1.5855478603
H   1.4579832125  1.0424895173 -1.8706863230
H   2.4044973786 -1.3699515200  1.1960578064
H   1.1082080833 -0.5515088594  2.0870141771
H   2.7478808935  1.2995586721 -0.6706912412
H   2.6730789566 -0.2090216881 -1.5945596873
22
Iteration 34  Energy = -72.4573416189
C  -0.8528709379 -1.5293274494  0.1496415824
C   1.2274082216 -0.1029877524 -0.0458472516
C  -0.5048948437  2.0404494198  0.6675358061
C   1.8365140909 -0.4303691315  1.2752860926
C   2.0572961562  0.5571190157 -1.0907862704
N   0.1491481698 -0.8575198519 -0.5226506132
N  -1.9672302067 -1.8338103840 -0.4985465951
O  -1.6380312033  1.7290203952 -0.1795875809
H  -2.1259321958  0.9869593648  0.2097809521
H  -0.0992515141 -0.6610191212 -1.4960952653
H  -0.7625365033 -1.8285034600  1.1939783024
H   0.3291609951  1.3485101087  0.5086689571
H  -2.7008776697 -2.3320267339 -0.0106745670
H  -2.0735308286 -1.6464086894 -1.4888501190
H  -0.1662745308  3.0414074666  0.3853969964
H  -0.7579536747  2.0229770455  1.7343891348
H   2.5472535378  0.3499403865  1.5812537785
H   1.4497163209  1.0499482326 -1.8630777617
H   2.4070543804 -1.3708194817  1.2139291450
H   1.1019105589 -0.5452347426  2.0829294514
H   2.7420543154  1.3026243806 -0.6637093474
H   2.6783359748 -0.1917246731 -1.6103170362
22
Iteration 35  Energy = -72.4591451959
C  -0.8518580527 -1.5283004416  0.1504830533
C   1.2375830426 -0.1200088639 -0.0531722892
C  -0.5111668590  2.0471775832  0.6754838313
C   1.8357960660 -0.4318033006  1.2744174941
C   2.0564462830  0.5592330259 -1.0917203298
N   0.1482850535 -0.8550074839 -0.5241220036
N  -1.9651510304 -1.8336156962 -0.4984513366
O  -1.6389802082  1.7288490955 -0.1801638612
H  -2.1247912733  0.9847250982  0.2077839489
H  -0.0986432903 -0.6600648351 -1.4981842990
H  -0.7598992372 -1.8273654391  1.1946079986
H   0.3254115431  1.3630518262  0.5268800014
H  -2.6991058745 -2.3326940007 -0.0118656140
H  -2.0707652592 -1.6443746353 -1.4883757159
H  -0.1778100219  3.0492922275  0.3925668776
H  -0.7737706376  2.0320074499  1.7395551148
H   2.5434608570  0.3532985568  1.5771821423
H   1.4414131881  1.0573430351 -1.8553397577
H   2.4088865079 -1.3720670161  1.2314606958
H   1.0953267935 -0.5386304966  2.0785587433
H   2.7369537557  1.3052161691 -0.6574878302
H   2.6830490435 -0.1749111228 -1.6263288418
22
Iteration 36  Energy = -72.4608312325
C  -0.8518601689 -1.5279486160  0.1523606127
C   1.2470514700 -0.1374422856 -0.0587223317
C  -0.5139928324  2.0595831825  0.6746924930
C   1.8325943585 -0.4320498224  1.2766761734
C   2.0576391829  0.5568696393 -1.0917406735
N   0.1469751492 -0.8536449088 -0.5240454250
N  -1.9642380826 -1.8334367648 -0.4973905210
O  -1.6401630188  1.7284618754 -0.1810905303
H  -2.1206578958  0.9831385372  0.2111629507
H  -0.0982920157 -0.6601114864 -1.4986613901
H  -0.7586571712 -1.8274415250  1.1961810248
H   0.3260228624  1.3846636862  0.5373671742
H  -2.6991313392 -2.3323002222 -0.0119540696
H  -2.0694780898 -1.6414783317 -1.4867423109
H  -0.1862651942  3.0605159635  0.3825204305
H  -0.7789527207  2.0521883649  1.7377361634
H   2.5375758762  0.3574742084  1.5755912845
H   1.4367873893  1.0587497384 -1.8486904192
H   2.4069473766 -1.3725803966  1.2537367874
H   1.0850049285 -0.5285668214  2.0761737991
H   2.7342912839  1.3034682408 -0.6516144338
H   2.6888357282 -0.1651718842 -1.6377630213
22
Iteration 37  Energy = -72.4623967485
C  -0.8518498504 -1.5272154324  0.1546610406
C   1.2564497671 -0.1543936210 -0.0634543909
C  -0.5180732247  2.0720851510  0.6727286357
C   1.8294334715 -0.4321883886  1.2797109571
C   2.0594754662  0.5538887152 -1.0912340522
N   0.1463048107 -0.8528221269 -0.5235904340
N  -1.9632917057 -1.8330090985 -0.4958846654
O  -1.6416093281  1.7282472609 -0.1836128914
H  -2.1170519259  0.9817937117  0.2125154059
H  -0.0973835039 -0.6610958665 -1.4988978302
H  -0.7578696135 -1.8263867077  1.1984004617
H   0.3264539271  1.4056466014  0.5457325332
H  -2.6992139835 -2.3313294101 -0.0114128205
H  -2.0678638626 -1.6393738834 -1.4849008065
H  -0.1954456162  3.0716573459  0.3716714984
H  -0.7856823616  2.0719256888  1.7347581183
H   2.5317083344  0.3616220661  1.5748957397
H   1.4331056379  1.0587961112 -1.8420686614
H   2.4047439366 -1.3726190723  1.2766816165
H   1.0746363824 -0.5184235980  2.0741639602
H   2.7321951126  1.3013181267 -0.6456816450
H   2.6950912402 -0.1566208300 -1.6474710268
22
Iteration 38  Energy = -72.4638552145
C  -0.8503130438 -1.5260389950  0.1544116360
C   1.2658179403 -0.1694308276 -0.0708098825
C  -0.5262281831  2.0805031926  0.6818043208
C   1.8290542484 -0.4347046268  1.2782793657
C   2.0590085583  0.5558206898 -1.0929805651
N   0.1462360966 -0.8508527307 -0.5260828174
N  -1.9611000939 -1.8330532870 -0.4960977387
O  -1.6417780550  1.7277376344 -0.1836041347
H  -2.1145954156  0.9785027512  0.2103067727
H  -0.0962268004 -0.6610747533 -1.5018384635
H  -0.7547559178 -1.8246319889  1.1980749938
H   0.3252038223  1.4214714929  0.5633485753
H  -2.6969437203 -2.3321029098 -0.0122308278
H  -2.0658951913 -1.6378867419 -1.4847154899
H  -0.2092525444  3.0815090721  0.3803740099
H  -0.8028532384  2.0804137888  1.7413098541
H   2.5295584067  0.3622578539  1.5702174561
H   1.4252220890  1.0664017180 -1.8341501360
H   2.4043323554 -1.3750005264  1.2919605665
H   1.0684443104 -0.5116569840  2.0686002952
H   2.7289107060  1.3022352649 -0.6409719476
H   2.6970903934 -0.1413412970 -1.6631869786
22
Iteration 39  Energy = -72.4651375488
C  -0.8485633721 -1.5248729878  0.1543384779
C   1.2749905605 -0.1834612162 -0.0775976010
C  -0.5357254811  2.0886606748  0.6914477355
C   1.8289208052 -0.4378565925  1.2770909041
C   2.0585964886  0.5579075646 -1.0945133424
N   0.1465161300 -0.8493804503 -0.5285052286
N  -1.9586852153 -1.8335198683 -0.4959256495
O  -1.6424745628  1.7269834652 -0.1836154671
H  -2.1126721460  0.9746379546  0.2074808113
H  -0.0946952701 -0.6621441476 -1.5049185592
H  -0.7517009570 -1.8223205491  1.1981386254
H   0.3221924394  1.4365464683  0.5817879873
H  -2.6942555965 -2.3332592872 -0.0123369835
H  -2.0638688843 -1.6373590607 -1.4842419018
H  -0.2244333129  3.0912598570  0.3899411341
H  -0.8221518661  2.0888760022  1.7482248354
H   2.5284683182  0.3613544128  1.5659080893
H   1.4173833139  1.0739649900 -1.8257248083
H   2.4030499914 -1.3784426848  1.3063495423
H   1.0626722776 -0.5050627954  2.0632145839
H   2.7260734723  1.3030276508 -0.6364011241
H   2.6983628957 -0.1264674331 -1.6780846850
22
Iteration 40  Energy = -72.4661695437
C  -0.8463525463 -1.5223248928  0.1548380498
C   1.2848609740 -0.1966719088 -0.0839901340
C  -0.5471881971  2.0929641998  0.7011987557
C   1.8305990054 -0.4423528929  1.2754309310
C   2.0592035666  0.5607606623 -1.0952867985
N   0.1474661089 -0.8470775309 -0.5306779684
N  -1.9558368398 -1.8332851091 -0.4949394436
O  -1.6454641889  1.7278693391 -0.1845600395
H  -2.1151768995  0.9726310005  0.2015007646
H  -0.0937873590 -0.6609989372 -1.5072627260
H  -0.7481825446 -1.8179752850  1.1989760606
H   0.3151032058  1.4457966417  0.5992872554
H  -2.6904226070 -2.3346573798 -0.0115045240
H  -2.0612028076 -1.6374832203 -1.4832580948
H  -0.2383774991  3.0971008902  0.4026186142
H  -0.8433894561  2.0914608639  1.7551653033
H   2.5293462616  0.3586691015  1.5619886207
H   1.4106936748  1.0791222976 -1.8186080614
H   2.4036329989 -1.3831053253  1.3179691425
H   1.0593881257 -0.5013803343  2.0577435722
H   2.7216843322  1.3068663626 -0.6310610520
H   2.7034619665 -0.1104230000 -1.6890982006
22
Iteration 41  Energy = -72.4670482949
C  -0.8436813107 -1.5195086077  0.1557716099
C   1.2944801038 -0.2085615736 -0.0893949799
C  -0.5597832326  2.0974669252  0.7096093810
C   1.8332126559 -0.4482760006  1.2738919929
C   2.0607610490  0.5638599546 -1.0949849259
N   0.1487922197 -0.8444337787 -0.5323548427
N  -1.9529383164 -1.8325466279 -0.4930105863
O  -1.6496681848  1.7294141711 -0.1865551265
H  -2.1196467657  0.9720552981  0.1949758162
H  -0.0931976572 -0.6584636734 -1.5087298114
H  -0.7437855624 -1.8136739756  1.2001148279
H   0.3061120958  1.4530802348  0.6158839307
H  -2.6860584482 -2.3359963179 -0.0094648012
H  -2.0588074896 -1.6375075902 -1.4813887394
H  -0.2526542854  3.1027943228  0.4134324816
H  -0.8660259297  2.0956132465  1.7607014877
H   2.5326639671  0.3530431644  1.5586317504
H   1.4057165322  1.0819821027 -1.8126878371
H   2.4035646949 -1.3901250203  1.3273967334
H   1.0577461927 -0.4992282347  2.0529563141
H   2.7162789730  1.3125771908 -0.6245969282
H   2.7117292788 -0.0944465829 -1.6958102501
22
Iteration 42  Energy = -72.4679088668
C  -0.8407943068 -1.5177642967  0.1558967624
C   1.3029233730 -0.2191827055 -0.0947784487
C  -0.5726132341  2.1045835993  0.7186341278
C   1.8353513312 -0.4547902386  1.2719023832
C   2.0621375786  0.5667578106 -1.0949664541
N   0.1504253916 -0.8428612004 -0.5346300830
N  -1.9502110415 -1.8324123189 -0.4913967013
O  -1.6522084653  1.7299119296 -0.1884062207
H  -2.1216502984  0.9703852409  0.1894599998
H  -0.0913348205 -0.6587001895 -1.5114159648
H  -0.7391595407 -1.8105780152  1.2003845846
H   0.2975276727  1.4627968959  0.6352060482
H  -2.6819642361 -2.3372888835 -0.0072373994
H  -2.0572124030 -1.6377851041 -1.4797038083
H  -0.2684745356  3.1110339889  0.4231331495
H  -0.8906157892  2.1050325995  1.7664344030
H   2.5374243946  0.3451747009  1.5547012347
H   1.4012030568  1.0838454071 -1.8080954239
H   2.4007580998 -1.3991011524  1.3351226173
H   1.0561241121 -0.4964363186  2.0482173564
H   2.7104477463  1.3182753398 -0.6186051934
H   2.7200327602 -0.0795530268 -1.7012556218
22
Iteration 43  Energy = -72.4688649849
C  -0.8384805121 -1.5172220316  0.1552868534
C   1.3093009702 -0.2279381348 -0.0995721025
C  -0.5841031218  2.1166382564  0.7284140307
C   1.8351637341 -0.4582882944  1.2709431771
C   2.0630472347  0.5661874891 -1.0974056298
N   0.1524186790 -0.8434058833 -0.5370616111
N  -1.9479788405 -1.8332122791 -0.4908087210
O  -1.6519333683  1.7286753579 -0.1878921789
H  -2.1172930124  0.9657108942  0.1880962069
H  -0.0863989647 -0.6646164959 -1.5155614301
H  -0.7361411444 -1.8075854997  1.2002384563
H   0.2918037480  1.4798259376  0.6587886556
H  -2.6795491483 -2.3372432121 -0.0054947284
H  -2.0562788356 -1.6384373980 -1.4789195133
H  -0.2853776134  3.1236994465  0.4292912577
H  -0.9142110600  2.1239937146  1.7728148316
H   2.5401742569  0.3401891394  1.5512594536
H   1.3970028746  1.0915140352 -1.8001039603
H   2.3948968454 -1.4053942105  1.3442327667
H   1.0520180738 -0.4898615659  2.0442037320
H   2.7158220255  1.3117566981 -0.6176887665
H   2.7148654819 -0.0744568016 -1.7162946327
22
Iteration 44  Energy = -72.4698163346
C  -0.8362752776 -1.5168881485  0.1546250433
C   1.3151588027 -0.2360497631 -0.1039009277
C  -0.5957235436  2.1296104899  0.7370533793
C   1.8347923923 -0.4613910091  1.2701975594
C   2.0645921056  0.5641216968 -1.1002600527
N   0.1546367006 -0.8445515381 -0.5393661354
N  -1.9459115279 -1.8340476707 -0.4902894087
O  -1.6514163501  1.7273136100 -0.1877265561
H  -2.1123737362  0.9611025931  0.1870890832
H  -0.0818621593 -0.6700167596 -1.5191849367
H  -0.7335959976 -1.8048407963  1.2000617288
H   0.2855654626  1.4985268298  0.6834812157
H  -2.6775253866 -2.3366811794 -0.0036134381
H  -2.0554186073 -1.6393897825 -1.4782717422
H  -0.3013795998  3.1363395409  0.4326243921
H  -0.9379887260  2.1453836622  1.7776902201
H   2.5431503525  0.3350598193  1.5481253637
H   1.3944084600  1.0980547932 -1.7927327332
H   2.3883292110 -1.4114411227  1.3526161895
H   1.0481641077 -0.4828818999  2.0405174004
H   2.7232590669  1.3030904236 -0.6183677357
H   2.7086893885 -0.0728597344 -1.7310184578
22
Iteration 45  Energy = -72.4706919865
C  -0.8345033536 -1.5201149530  0.1538661784
C   1.3187515335 -0.2444020381 -0.1066107268
C  -0.6011576600  2.1482622739  0.7376555818
C   1.8320774172 -0.4657336068  1.2707870098
C   2.0650325607  0.5619503025 -1.1004592319
N   0.1557968084 -0.8474175052 -0.5409805988
N  -1.9460818633 -1.8341952710 -0.4888217694
O  -1.6490105464  1.7254477907 -0.1873717790
H  -2.1025561885  0.9575592355  0.1931138170
H  -0.0799204441 -0.6740169402 -1.5211737093
H  -0.7296713817 -1.8111127346  1.1981230846
H   0.2848976871  1.5214957248  0.6995068772
H  -2.6778918773 -2.3351493736 -0.0007716294
H  -2.0584294943 -1.6363098714 -1.4758380980
H  -0.3123260123  3.1525624817  0.4200205621
H  -0.9503855952  2.1782689734  1.7757214435
H   2.5463974025  0.3264221444  1.5458668315
H   1.3919210233  1.0989443651 -1.7877936046
H   2.3761292592 -1.4204772019  1.3622165307
H   1.0421459725 -0.4744011185  2.0383205954
H   2.7237282327  1.2991093563 -0.6157131710
H   2.7082165080 -0.0700513602 -1.7371090160
22
Iteration 46  Energy = -72.4714953379
C  -0.8328631995 -1.5226869303  0.1536273522
C   1.3217652395 -0.2517302931 -0.1086888402
C  -0.6075760588  2.1672427618  0.7379835889
C   1.8295973765 -0.4704635811  1.2712970493
C   2.0664142544  0.5587595262 -1.1005152463
N   0.1570546100 -0.8503385285 -0.5422735584
N  -1.9461929797 -1.8343528915 -0.4868921567
O  -1.6465210285  1.7237687319 -0.1877240533
H  -2.0928270662  0.9543815098  0.1982812568
H  -0.0781788440 -0.6777850410 -1.5226874355
H  -0.7265086820 -1.8152971893  1.1971023297
H   0.2821430069  1.5424486724  0.7150139615
H  -2.6784416490 -2.3328989922  0.0029041617
H  -2.0609796901 -1.6343036920 -1.4731657054
H  -0.3229731424  3.1684551176  0.4072847357
H  -0.9646626779  2.2110147944  1.7727144607
H   2.5512496476  0.3161136588  1.5432077615
H   1.3911903464  1.0960048763 -1.7856292561
H   2.3625699965 -1.4306803253  1.3709488120
H   1.0370263465 -0.4653313847  2.0364896456
H   2.7228883509  1.2962054143 -0.6130478544
H   2.7114391663 -0.0691202695 -1.7394895733
22
Iteration 47  Energy = -72.4722018913
C  -0.8307803365 -1.5247253814  0.1533872759
C   1.3245788844 -0.2575132315 -0.1106859938
C  -0.6155227163  2.1858915285  0.7390499101
C   1.8279455818 -0.4757095754  1.2711077820
C   2.0692525438  0.5554377841 -1.1005247384
N   0.1584763961 -0.8526488332 -0.5437856561
N  -1.9457327619 -1.8346732129 -0.4848180833
O  -1.6449868548  1.7221633195 -0.1876168336
H  -2.0839494297  0.9510672344  0.2034452163
H  -0.0770424803 -0.6802236443 -1.5240366502
H  -0.7229899459 -1.8178470539  1.1963359620
H   0.2769590307  1.5622183955  0.7301081650
H  -2.6782884293 -2.3306998330  0.0070177222
H  -2.0629952747 -1.6330254094 -1.4704512710
H  -0.3344831715  3.1839311504  0.3962316555
H  -0.9805829314  2.2417804547  1.7701208072
H   2.5589107223  0.3033387528  1.5396818435
H   1.3932044892  1.0878724105 -1.7885079852
H   2.3476449900 -1.4425237387  1.3775995973
H   1.0337207929 -0.4555764279  2.0347084528
H   2.7187851695  1.2972892741 -0.6101504913
H   2.7218245749 -0.0685922151 -1.7358404755
22
Iteration 48  Energy = -72.4728306011
C  -0.8281564503 -1.5267253390  0.1530973907
C   1.3271971112 -0.2619193351 -0.1125713086
C  -0.6246841077  2.2036234689  0.7412532658
C   1.8270971119 -0.4812680572  1.2703318598
C   2.0729315336  0.5519941378 -1.1007918673
N   0.1601422702 -0.8544628170 -0.5452579458
N  -1.9446864661 -1.8353209837 -0.4827451749
O  -1.6441580008  1.7206201259 -0.1869073881
H  -2.0763637932  0.9479182740  0.2085846820
H  -0.0765780750 -0.6808250722 -1.5248530696
H  -0.7188791635 -1.8201303808  1.1955509276
H   0.2705186442  1.5824587469  0.7458644458
H  -2.6773673417 -2.3290317471  0.0111856387
H  -2.0645006065 -1.6321533565 -1.4677425497
H  -0.3476230405  3.1990998751  0.3879571161
H  -0.9980008698  2.2696366154  1.7685638982
H   2.5693630079  0.2882149126  1.5351381201
H   1.3970215151  1.0784997467 -1.7933456990
H   2.3310657011 -1.4558617217  1.3824084581
H   1.0323430752 -0.4448084782  2.0331657691
H   2.7146077124  1.2990301507 -0.6077137984
H   2.7341414843 -0.0690570976 -1.7303300654
22
Iteration 49  Energy = -72.4734011368
C  -0.8254990355 -1.5287817491  0.1540369047
C   1.3296984605 -0.2658673475 -0.1132695626
C  -0.6330201235  2.2216413402  0.7408272548
C   1.8266184557 -0.4868424479  1.2705217800
C   2.0765312032  0.5477529732 -1.1008130808
N   0.1619475848 -0.8566050228 -0.5454694229
N  -1.9434479306 -1.8362934815 -0.4796581120
O  -1.6432720274  1.7190291830 -0.1872837751
H  -2.0689236985  0.9455488978  0.2138755917
H  -0.0763033844 -0.6811247228 -1.5241611283
H  -0.7150809475 -1.8221194857  1.1961348838
H   0.2658581752  1.6052367134  0.7578300689
H  -2.6763069034 -2.3276441637  0.0163188364
H  -2.0654501975 -1.6321291589 -1.4641691075
H  -0.3610208099  3.2146592467  0.3769504346
H  -1.0129241789  2.2970411599  1.7648850465
H   2.5821522512  0.2710032107  1.5309260256
H   1.4010760918  1.0722918733 -1.7952391158
H   2.3120926887 -1.4702917422  1.3878544922
H   1.0322083720 -0.4321017594  2.0330552477
H   2.7150253556  1.2964186306 -0.6060768150
H   2.7412758771 -0.0722108680 -1.7278287142
22
Iteration 50  Energy = -72.4739886002
C  -0.8221475070 -1.5311303991  0.1543264756
C   1.3322768737 -0.2686069681 -0.1135624619
C  -0.6436056844  2.2379998743  0.7429686783
C   1.8261751449 -0.4916363101  1.2711015400
C   2.0793104540  0.5437722042 -1.1018828934
N   0.1643260102 -0.8584606680 -0.5458182985
N  -1.9414528294 -1.8373998685 -0.4774875443
O  -1.6423183338  1.7173616877 -0.1879399148
H  -2.0635841259  0.9436379629  0.2174211312
H  -0.0756058786 -0.6798650158 -1.5232673341
H  -0.7103818737 -1.8250940059  1.1958783054
H   0.2594131217  1.6274426474  0.7726679159
H  -2.6742624016 -2.3271909794  0.0200773796
H  -2.0654506951 -1.6320854912 -1.4615107303
H  -0.3762600563  3.2292468737  0.3710281576
H  -1.0321715052  2.3208026713  1.7630978819
H   2.5953047586  0.2536122597  1.5274675486
H   1.4032197155  1.0770516405 -1.7892710072
H   2.2919195211 -1.4840653031  1.3932055016
H   1.0325065717 -0.4186081809  2.0332382197
H   2.7262228846  1.2848036212 -0.6067819269
H   2.7344457664 -0.0783913224 -1.7370544127
22
Iteration 51  Energy = -72.4744795040
C  -0.8202550373 -1.5343218240  0.1518940550
C   1.3333756925 -0.2704929471 -0.1149941195
C  -0.6527371481  2.2526216751  0.7499613778
C   1.8248241235 -0.4908591451  1.2712791539
C   2.0814943058  0.5367414338 -1.1068028755
N   0.1658371538 -0.8606251457 -0.5477039627
N  -1.9407434715 -1.8381189913 -0.4790040656
O  -1.6388662742  1.7162100530 -0.1855341049
H  -2.0547480152  0.9402132162  0.2211236237
H  -0.0748395343 -0.6791726950 -1.5241109357
H  -0.7074540865 -1.8306300342  1.1926528266
H   0.2564742006  1.6509532857  0.7874086619
H  -2.6741385880 -2.3265210000  0.0190510715
H  -2.0665456124 -1.6295046620 -1.4621000884
H  -0.3933019947  3.2449040740  0.3751486379
H  -1.0493774127  2.3363620867  1.7668740432
H   2.5900562449  0.2578571686  1.5288273710
H   1.4051507936  1.0858625730 -1.7820357206
H   2.2945855304 -1.4811197006  1.3955195131
H   1.0288155102 -0.4204356311  2.0309828683
H   2.7457527617  1.2639900955 -0.6144240469
H   2.7164827326 -0.0921408975 -1.7561798297
22
Iteration 52  Energy = -72.4748850540
C  -0.8183041608 -1.5378479539  0.1493260054
C   1.3343123549 -0.2721433211 -0.1167329131
C  -0.6619330211  2.2658521915  0.7579231841
C   1.8232165952 -0.4882118250  1.2713576033
C   2.0843905599  0.5285432266 -1.1123201562
N   0.1670835914 -0.8625642531 -0.5496866262
N  -1.9400190465 -1.8391609489 -0.4806131805
O  -1.6356491709  1.7154157865 -0.1825201794
H  -2.0452395091  0.9359211859  0.2239288174
H  -0.0740077720 -0.6794101133 -1.5253669276
H  -0.7042802965 -1.8367373388  1.1892453695
H   0.2547885399  1.6752406366  0.7984874519
H  -2.6738411276 -2.3266007026  0.0177586645
H  -2.0677812240 -1.6267913955 -1.4626419098
H  -0.4132557170  3.2612154483  0.3837450294
H  -1.0649182670  2.3454057477  1.7727365883
H   2.5814457185  0.2671623141  1.5306517809
H   1.4092158562  1.0906029984 -1.7783295783
H   2.3017013894 -1.4742707014  1.3978314140
H   1.0241880060 -0.4238619252  2.0283121124
H   2.7633106830  1.2441070653 -0.6234052243
H   2.7017436709 -0.1070645725 -1.7720938331
22
Iteration 53  Energy = -72.4752597884
C  -0.8158731693 -1.5414954708  0.1465223995
C   1.3352371870 -0.2736019460 -0.1188555427
C  -0.6703035801  2.2778391205  0.7675781274
C   1.8203194482 -0.4846574429  1.2714982209
C   2.0874808248  0.5204385525 -1.1179788769
N   0.1683161131 -0.8642333908 -0.5521037677
N  -1.9393546218 -1.8396350367 -0.4818231978
O  -1.6313746477  1.7152777612 -0.1787749649
H  -2.0366536620  0.9331936980  0.2270598411
H  -0.0732534370 -0.6797862719 -1.5271371047
H  -0.6999698060 -1.8435947827  1.1853304858
H   0.2527370232  1.6973289290  0.8128110797
H  -2.6730701032 -2.3268600896  0.0169268639
H  -2.0696022440 -1.6230819433 -1.4626085505
H  -0.4306916775  3.2757786438  0.3942347890
H  -1.0804978162  2.3537484861  1.7798828695
H   2.5750748368  0.2740962105  1.5310450074
H   1.4141650310  1.0956891704 -1.7748711707
H   2.3021485904 -1.4686465612  1.4022068927
H   1.0185626478 -0.4210683591  2.0255355805
H   2.7813106012  1.2236392075 -0.6325458209
H   2.6870037793 -0.1217987957 -1.7878283615
22
Iteration 54  Energy = -72.4755154328
C  -0.8140118055 -1.5449718653  0.1432864636
C   1.3355329358 -0.2744762849 -0.1214872979
C  -0.6771680745  2.2858437095  0.7787107591
C   1.8166785960 -0.4777918152  1.2715353337
C   2.0907080055  0.5118048324 -1.1244747439
N   0.1691921926 -0.8660710071 -0.5549183856
N  -1.9392579500 -1.8396177875 -0.4835497070
O  -1.6265419431  1.7156600299 -0.1749594385
H  -2.0292434982  0.9309460973  0.2283872085
H  -0.0721939424 -0.6818159041 -1.5298208940
H  -0.6962918824 -1.8507804039  1.1809032155
H   0.2508348393  1.7139042351  0.8286275234
H  -2.6727951132 -2.3270199710  0.0152921831
H  -2.0718503565 -1.6187494134 -1.4630517556
H  -0.4446367602  3.2866830270  0.4085701961
H  -1.0947362999  2.3564148725  1.7884669471
H   2.5621436751  0.2899161205  1.5323195939
H   1.4200385501  1.0980697525 -1.7744939863
H   2.3098979767 -1.4557965793  1.4066816125
H   1.0111313561 -0.4212907202  2.0219398960
H   2.7981506387  1.2040333822 -0.6432748349
H   2.6743215463 -0.1373490623 -1.8017175064
22
Iteration 55  Energy = -72.4758901672
C  -0.8115872103 -1.5482905328  0.1405669162
C   1.3361640000 -0.2757705244 -0.1241721738
C  -0.6854865039  2.2971575929  0.7888178736
C   1.8128817942 -0.4748161368  1.2709782367
C   2.0932053339  0.5047484925 -1.1300544158
N   0.1704932392 -0.8685048076 -0.5578922350
N  -1.9385077872 -1.8405397853 -0.4844250919
O  -1.6217038633  1.7147434665 -0.1706544990
H  -2.0213978550  0.9285678879  0.2329012015
H  -0.0710221747 -0.6846711984 -1.5326332605
H  -0.6922287114 -1.8562219359  1.1773432353
H   0.2470284206  1.7338255921  0.8494039716
H  -2.6714205084 -2.3282765617  0.0150057610
H  -2.0735392924 -1.6164295510 -1.4628608595
H  -0.4591128077  3.2986423265  0.4164719262
H  -1.1126055861  2.3685220950  1.7946196503
H   2.5619075138  0.2900066968  1.5294974408
H   1.4249394579  1.1041684338 -1.7707738145
H   2.2996641967 -1.4551718173  1.4122511821
H   1.0056910102 -0.4101506956  2.0190382385
H   2.8152575535  1.1839645195 -0.6521636111
H   2.6595796251 -0.1495871117 -1.8170728395
22
Iteration 56  Energy = -72.4762999491
C  -0.8095617769 -1.5504644891  0.1386687626
C   1.3366337169 -0.2769224075 -0.1260537767
C  -0.6939824267  2.3120590422  0.7950837976
C   1.8096740206 -0.4746812634  1.2704385063
C   2.0950471228  0.4993121653 -1.1339613161
N   0.1724989590 -0.8721235213 -0.5605820064
N  -1.9372516520 -1.8421265019 -0.4852693102
O  -1.6172269658  1.7129286816 -0.1669245678
H  -2.0108217572  0.9249713538  0.2392941457
H  -0.0679445684 -0.6911386022 -1.5359886164
H  -0.6900875689 -1.8573804324  1.1756537491
H   0.2444722008  1.7595369412  0.8662505082
H  -2.6701702632 -2.3289140441  0.0150768122
H  -2.0736583513 -1.6168601136 -1.4632639360
H  -0.4768541352  3.3137303814  0.4174604713
H  -1.1292720197  2.3858211138  1.7972655145
H   2.5685667415  0.2814152802  1.5255631382
H   1.4291016091  1.1101219322 -1.7664499213
H   2.2814578905 -1.4616246352  1.4175303760
H   1.0020697584 -0.3950696492  2.0169697956
H   2.8286352685  1.1673342702 -0.6581233951
H   2.6472791724 -0.1581584593 -1.8295627669
22
Iteration 57  Energy = -72.4766427950
C  -0.8077956916 -1.5518527431  0.1365407389
C   1.3369506917 -0.2775319379 -0.1281427294
C  -0.7034725332  2.3257728554  0.8025858454
C   1.8068675423 -0.4727724943  1.2696853126
C   2.0983365425  0.4917938311 -1.1389068753
N   0.1749718008 -0.8762185917 -0.5636121490
N  -1.9358941884 -1.8431618223 -0.4868761369
O  -1.6136182762  1.7118477119 -0.1626690641
H  -1.9991593481  0.9201603788  0.2441710481
H  -0.0631353784 -0.7005068833 -1.5404840647
H  -0.6887453442 -1.8571843269  1.1740215532
H   0.2411579888  1.7839276376  0.8805021376
H  -2.6694349316 -2.3281497079  0.0143153726
H  -2.0731358157 -1.6170139618 -1.4645698336
H  -0.4971162804  3.3290347265  0.4229160598
H  -1.1457812032  2.3977729458  1.8018549666
H   2.5708761216  0.2787489981  1.5224891193
H   1.4360062814  1.1121996459 -1.7659640448
H   2.2698784371 -1.4630927454  1.4219626829
H   0.9983583294 -0.3836675704  2.0142305129
H   2.8419895353  1.1501500266 -0.6654080242
H   2.6381020396 -0.1701148892 -1.8402486713
22
Iteration 58  Energy = -72.4769175724
C  -0.8061644290 -1.5521741995  0.1348634515
C   1.3379063723 -0.2781102398 -0.1300235665
C  -0.7146522779  2.3382279259  0.8100299654
C   1.8057196776 -0.4710138910  1.2687924432
C   2.1036249236  0.4822130430 -1.1442506217
N   0.1776752706 -0.8795956423 -0.5660973422
N  -1.9342317127 -1.8434961681 -0.4886087637
O  -1.6131012717  1.7120426415 -0.1582694920
H  -1.9890473594  0.9152125336  0.2476432949
H  -0.0579512515 -0.7091099181 -1.5444808809
H  -0.6879672185 -1.8556325015  1.1729812638
H   0.2358902049  1.8064316176  0.8911374067
H  -2.6688283164 -2.3262137238  0.0132430360
H  -2.0717488089 -1.6166993259 -1.4661272998
H  -0.5197856557  3.3439742649  0.4307202925
H  -1.1619487542  2.4055772072  1.8074472944
H   2.5723763105  0.2782888774  1.5198831936
H   1.4460422342  1.1106093486 -1.7684688499
H   2.2639215413 -1.4630797391  1.4250140453
H   0.9963378961 -0.3759689124  2.0116760290
H   2.8562365205  1.1321468600 -0.6733758934
H   2.6324113251 -0.1853779143 -1.8487622025
22
Iteration 59  Energy = -72.4771606402
C  -0.8043236296 -1.5519000165  0.1336482047
C   1.3392204277 -0.2786665766 -0.1323047460
C  -0.7264401344  2.3492121833  0.8185941259
C   1.8044967480 -0.4692212186  1.2676021373
C   2.1085471248  0.4733665968 -1.1499117296
N   0.1807236254 -0.8831617914 -0.5686397951
N  -1.9323000865 -1.8436772644 -0.4897429762
O  -1.6123430634  1.7129658414 -0.1546410296
H  -1.9791428393  0.9105132896  0.2486109930
H  -0.0526467608 -0.7179650545 -1.5484939999
H  -0.6870301379 -1.8525547197  1.1726302384
H   0.2299997347  1.8277898460  0.9026071288
H  -2.6683040100 -2.3230085888  0.0133085467
H  -2.0699183558 -1.6171252797 -1.4673153365
H  -0.5431087912  3.3582390958  0.4422151340
H  -1.1792080565  2.4093178441  1.8140852531
H   2.5774884513  0.2743998828  1.5158107804
H   1.4549728531  1.1090535232 -1.7711295752
H   2.2523153040 -1.4653542857  1.4288876348
H   0.9949178813 -0.3634035924  2.0090082231
H   2.8697376300  1.1153750087 -0.6819311803
H   2.6268767443 -0.1992344100 -1.8576219525
22
Iteration 60  Energy = -72.4773993568
C  -0.8022297098 -1.5508594486  0.1327979723
C   1.3411776198 -0.2793494508 -0.1349068899
C  -0.7393061249  2.3588844245  0.8273354403
C   1.8036227309 -0.4683106934  1.2660719914
C   2.1138920027  0.4651412310 -1.1555589293
N   0.1835843599 -0.8855765904 -0.5710451821
N  -1.9300276649 -1.8438335599 -0.4902953237
O  -1.6117052121  1.7137320054 -0.1521748023
H  -1.9725497834  0.9073929411  0.2486325684
H  -0.0485460478 -0.7240261115 -1.5518031503
H  -0.6856166517 -1.8482482530  1.1727183365
H   0.2201240264  1.8440783201  0.9214227000
H  -2.6671921375 -2.3198503815  0.0142091914
H  -2.0677008130 -1.6183776543 -1.4681230582
H  -0.5608442242  3.3685709234  0.4505868237
H  -1.2017755104  2.4179468985  1.8184783444
H   2.5862637839  0.2661816726  1.5107494697
H   1.4644392488  1.1089148491 -1.7729661097
H   2.2358476512 -1.4705130275  1.4329367679
H   0.9947073374 -0.3476154319  2.0062343754
H   2.8844636486  1.0981817447 -0.6905660063
H   2.6210297043 -0.2120561931 -1.8671810097
22
Iteration 61  Energy = -72.4776493386
C  -0.7992890585 -1.5496427605  0.1328376154
C   1.3437530904 -0.2799586361 -0.1373807170
C  -0.7525585617  2.3674828698  0.8349140014
C   1.8034778473 -0.4691192564  1.2643514272
C   2.1185299145  0.4593016164 -1.1603645582
N   0.1857429920 -0.8858097141 -0.5727147953
N  -1.9270998478 -1.8445990781 -0.4891935887
O  -1.6110112288  1.7134092424 -0.1509817329
H  -1.9709859712  0.9065597542  0.2495265553
H  -0.0476081599 -0.7242882565 -1.5531431144
H  -0.6823562230 -1.8442767314  1.1734033369
H   0.2063355138  1.8544182513  0.9465878157
H  -2.6641350643 -2.3191559519  0.0168547694
H  -2.0654464374 -1.6208815933 -1.4673347758
H  -0.5708800028  3.3744530743  0.4525009863
H  -1.2289848809  2.4340378119  1.8190300546
H   2.5996282783  0.2519028088  1.5049544692
H   1.4731399122  1.1159451328 -1.7688029567
H   2.2141136739 -1.4795525776  1.4367882323
H   0.9965958501 -0.3292385839  2.0037684440
H   2.9018734535  1.0788057037 -0.6981810858
H   2.6098182487 -0.2206346921 -1.8806814133
22
Iteration 62  Energy = -72.4779081420
C  -0.7954463151 -1.5492045782  0.1318186453
C   1.3462443052 -0.2805052635 -0.1399971506
C  -0.7632559513  2.3757660782  0.8402278033
C   1.8021246591 -0.4723887729  1.2624359847
C   2.1211404985  0.4582966076 -1.1631428116
N   0.1874658833 -0.8848130839 -0.5751642399
N  -1.9232508190 -1.8468304859 -0.4887100130
O  -1.6102128313  1.7112488472 -0.1486450639
H  -1.9707673910  0.9060399770  0.2546818003
H  -0.0486050150 -0.7204132593 -1.5543912480
H  -0.6779190699 -1.8416035188  1.1728092396
H   0.1932468603  1.8618569087  0.9703330538
H  -2.6589807188 -2.3219115465  0.0187264925
H  -2.0629044150 -1.6246906367 -1.4670353266
H  -0.5750972040  3.3777509715  0.4479154294
H  -1.2526054360  2.4551703553  1.8170275282
H   2.6186133755  0.2270868519  1.4984032587
H   1.4790476316  1.1291639003 -1.7597532315
H   2.1806151172 -1.4944790809  1.4413169517
H   0.9991287751 -0.3052021230  2.0011082811
H   2.9164025854  1.0632981923 -0.7020388779
H   2.5967102597 -0.2206947374 -1.8949248052
22
Iteration 63  Energy = -72.4781450109
C  -0.7921745024 -1.5494491724  0.1308413872
C   1.3480116867 -0.2812761485 -0.1416915341
C  -0.7719743446  2.3839421501  0.8465296363
C   1.7996306986 -0.4754236160  1.2616569812
C   2.1229671664  0.4578446549 -1.1644339897
N   0.1884297014 -0.8836432450 -0.5771135737
N  -1.9197809187 -1.8498314027 -0.4883537026
O  -1.6089007956  1.7075253649 -0.1428159909
H  -1.9698686538  0.9047931532  0.2651347187
H  -0.0506759129 -0.7152403206 -1.5548524749
H  -0.6743887120 -1.8402672873  1.1721336118
H   0.1816191223  1.8689631681  0.9944983801
H  -2.6539230632 -2.3261584549  0.0201805717
H  -2.0609446707 -1.6286455351 -1.4666822583
H  -0.5770770816  3.3799455694  0.4424909207
H  -1.2727254860  2.4782354525  1.8161594009
H   2.6362625424  0.2012743680  1.4929432443
H   1.4844401631  1.1431008940 -1.7486564343
H   2.1466128806 -1.5074030368  1.4480635700
H   1.0014021002 -0.2803116105  1.9990410207
H   2.9299104482  1.0479635845 -0.7042679109
H   2.5827490251 -0.2193629564 -1.9079219257
22
Iteration 64  Energy = -72.4783380703
C  -0.7890641256 -1.5521584116  0.1316629443
C   1.3500188509 -0.2851035354 -0.1439887072
C  -0.7789468279  2.3887012698  0.8524326436
C   1.8001479441 -0.4813537697  1.2594770986
C   2.1237951765  0.4543035197 -1.1673204524
N   0.1886176506 -0.8847240699 -0.5781468163
N  -1.9169499139 -1.8554926224 -0.4851946053
O  -1.6077048568  1.7013765562 -0.1362330142
H  -1.9702839201  0.9019746099  0.2768588363
H  -0.0544039297 -0.7122440021 -1.5541038661
H  -0.6698874581 -1.8415527070  1.1731511496
H   0.1704677083  1.8708453306  1.0182822543
H  -2.6489107380 -2.3332343322  0.0251206834
H  -2.0604925462 -1.6354840153 -1.4634519635
H  -0.5750402684  3.3776706100  0.4357721328
H  -1.2902156355  2.4999849131  1.8147181784
H   2.6541240072  0.1749645539  1.4853442346
H   1.4882571560  1.1532954790 -1.7386091152
H   2.1207109487 -1.5206555418  1.4522731223
H   1.0081143741 -0.2619576601  1.9968529390
H   2.9425229741  1.0298250836 -0.7094304115
H   2.5671888469 -0.2210191870 -1.9224047684
22
Iteration 65  Energy = -72.4783998803
C  -0.7905743417 -1.5600928487  0.1298091492
C   1.3480924722 -0.2927048168 -0.1441301300
C  -0.7844311566  2.3822611702  0.8588777293
C   1.7974111584 -0.4918867418  1.2591700423
C   2.1216280541  0.4486724979 -1.1661645490
N   0.1862192414 -0.8906827228 -0.5791848005
N  -1.9183273932 -1.8635568734 -0.4870822260
O  -1.6100873958  1.6924518079 -0.1305686965
H  -1.9732424020  0.8935899139  0.2830381538
H  -0.0579737880 -0.7149933891 -1.5542364746
H  -0.6711612137 -1.8508642435  1.1708832296
H   0.1634408714  1.8634155319  1.0303903481
H  -2.6495478390 -2.3428190132  0.0228403074
H  -2.0624762862 -1.6422736276 -1.4649622388
H  -0.5773086135  3.3691968508  0.4393173127
H  -1.2994450129  2.4981951277  1.8184160501
H   2.6567357333  0.1571524261  1.4843916808
H   1.4873889249  1.1533392886 -1.7317438929
H   2.1094196096 -1.5333927791  1.4526114922
H   1.0076960961 -0.2657169195  1.9966799254
H   2.9442956441  1.0182142008 -0.7081333617
H   2.5593596459 -0.2244740019 -1.9262617673
22
Iteration 66  Energy = -72.4784417824
C  -0.7842935185 -1.5532360360  0.1320894466
C   1.3534702552 -0.2856681460 -0.1456609103
C  -0.7810486554  2.3916567347  0.8588402623
C   1.8038536735 -0.4837497366  1.2574297071
C   2.1255853339  0.4550648016 -1.1692263193
N   0.1909595747 -0.8837113401 -0.5787876465
N  -1.9125030460 -1.8584196593 -0.4830221109
O  -1.6049969083  1.6979666979 -0.1293213005
H  -1.9686238959  0.9005291717  0.2866308909
H  -0.0550970761 -0.7079749895 -1.5533351939
H  -0.6635580503 -1.8426983166  1.1733610442
H   0.1655944057  1.8721469114  1.0354811212
H  -2.6425519578 -2.3378679992  0.0283887443
H  -2.0581237179 -1.6383972442 -1.4609698374
H  -0.5713634603  3.3760794129  0.4346935941
H  -1.2985277866  2.5134753439  1.8163096340
H   2.6669442168  0.1611639441  1.4798708435
H   1.4914572458  1.1623274226 -1.7316884200
H   2.1105599972 -1.5263988635  1.4531316659
H   1.0163792661 -0.2516691359  1.9955246538
H   2.9513912226  1.0216371578 -0.7131848538
H   2.5587418195 -0.2181421560 -1.9318552583
22
Iteration 67  Energy = -72.4785942511
C  -0.7797528580 -1.5494628275  0.1319348892
C   1.3580312079 -0.2836264139 -0.1473160192
C  -0.7836230863  2.4038378747  0.8603416453
C   1.8072420274 -0.4832669762  1.2558473417
C   2.1298339346  0.4566828470 -1.1712843178
N   0.1931894712 -0.8776488486 -0.5795051879
N  -1.9079238031 -1.8567416298 -0.4818968420
O  -1.6015802079  1.6986304202 -0.1247177195
H  -1.9679833168  0.9060194784  0.2980977183
H  -0.0561397543 -0.6973226818 -1.5523539477
H  -0.6579561031 -1.8391163300  1.1730455737
H   0.1567402481  1.8792836450  1.0574075707
H  -2.6359267246 -2.3385247385  0.0302034248
H  -2.0551929299 -1.6370265632 -1.4596729517
H  -0.5610892718  3.3784877741  0.4199948153
H  -1.3115121530  2.5484675087  1.8092566036
H   2.6830174956  0.1461328410  1.4738095861
H   1.4998360330  1.1785292569 -1.7203043813
H   2.0943764188 -1.5307828696  1.4566361355
H   1.0251462061 -0.2329207782  1.9940375173
H   2.9683275036  1.0071955936 -0.7182071498
H   2.5452151892 -0.2147633281 -1.9455227898
22
Iteration 68  Energy = -72.4787562565
C  -0.7773870081 -1.5491693028  0.1306033933
C   1.3610002859 -0.2854569933 -0.1497763812
C  -0.7874369900  2.4143886271  0.8601948007
C   1.8098734397 -0.4875035389  1.2530423404
C   2.1325161858  0.4542954245 -1.1742334172
N   0.1930056935 -0.8739434779 -0.5807423544
N  -1.9058126154 -1.8573590657 -0.4820161753
O  -1.6002725966  1.6963586031 -0.1199319199
H  -1.9703679246  0.9099456600  0.3112623298
H  -0.0600398726 -0.6877127879 -1.5515214950
H  -0.6540484907 -1.8411038261  1.1709473340
H   0.1437720640  1.8827652357  1.0822357104
H  -2.6314329780 -2.3426392821  0.0301339651
H  -2.0549793476 -1.6365985033 -1.4592773986
H  -0.5472483687  3.3756746480  0.3998578020
H  -1.3269080721  2.5885173513  1.7978844176
H   2.6971888774  0.1270563364  1.4666297847
H   1.5078151580  1.1927408493 -1.7074372953
H   2.0791034304 -1.5390717352  1.4576901812
H   1.0337813735 -0.2208313110  1.9919016976
H   2.9856303583  0.9857619933 -0.7253815639
H   2.5268860522 -0.2147091904 -1.9615473861
22
Iteration 69  Energy = -72.4789037184
C  -0.7729065107 -1.5498268304  0.1285581636
C   1.3645996812 -0.2854755909 -0.1540457521
C  -0.7928139135  2.4237272322  0.8571793667
C   1.8147699494 -0.4889240121  1.2480677065
C   2.1343338576  0.4545056111 -1.1795846284
N   0.1941225228 -0.8702269939 -0.5829919910
N  -1.9016069692 -1.8596242953 -0.4825679951
O  -1.6005064331  1.6929397289 -0.1178924483
H  -1.9736545289  0.9123984771  0.3212924069
H  -0.0628648366 -0.6790998939 -1.5518016219
H  -0.6471340522 -1.8445808753  1.1678839766
H   0.1285536334  1.8859660605  1.1049066029
H  -2.6243335253 -2.3490909516  0.0296719699
H  -2.0531385002 -1.6376582067 -1.4592003307
H  -0.5345872887  3.3707632517  0.3774906320
H  -1.3438311206  2.6274305731  1.7823102494
H   2.7105217214  0.1147705774  1.4572757387
H   1.5134039978  1.2060937529 -1.6987641426
H   2.0712809817 -1.5431146240  1.4554497058
H   1.0441468179 -0.2103733055  1.9882343681
H   2.9993252027  0.9705007556 -0.7354856844
H   2.5107534060 -0.2116279023 -1.9779281173
22
Iteration 70  Energy = -72.4790663199
C  -0.7730823568 -1.5514811386  0.1269704403
C   1.3650050709 -0.2876212097 -0.1535538520
C  -0.8010457716  2.4325820359  0.8572630417
C   1.8151254829 -0.4945944886  1.2479982825
C   2.1345790924  0.4533448530 -1.1783900186
N   0.1918991590 -0.8669067533 -0.5823929110
N  -1.9018177358 -1.8603070876 -0.4844199412
O  -1.6032868282  1.6901784708 -0.1137700634
H  -1.9817135717  0.9164021354  0.3328493644
H  -0.0678480351 -0.6690724039 -1.5491665397
H  -0.6458468939 -1.8523547026  1.1644660727
H   0.1072174404  1.8865003631  1.1348634129
H  -2.6226150624 -2.3543697851  0.0260941980
H  -2.0544698635 -1.6350298832 -1.4601281847
H  -0.5195173045  3.3626303565  0.3575694877
H  -1.3655609361  2.6700356985  1.7665802152
H   2.7188677129  0.0981127800  1.4545965276
H   1.5183524000  1.2182761810 -1.6838076561
H   2.0589765277 -1.5515842282  1.4566754273
H   1.0493952641 -0.2055327743  1.9892108202
H   3.0102075013  0.9537570661 -0.7372566164
H   2.4944744371 -0.2089986443 -1.9873944623
22
Iteration 71  Energy = -72.4791329579
C  -0.7653445758 -1.5525740763  0.1269471378
C   1.3736424963 -0.2900398295 -0.1529377145
C  -0.7931821039  2.4352776238  0.8599414459
C   1.8241825840 -0.4992421729  1.2481348942
C   2.1432794534  0.4512722137 -1.1774739887
N   0.1990081026 -0.8662911995 -0.5815180808
N  -1.8946242277 -1.8597080235 -0.4842193654
O  -1.5943292462  1.6894036940 -0.1094034987
H  -1.9754475579  0.9185624651  0.3398831744
H  -0.0621570684 -0.6649952471 -1.5471925314
H  -0.6372082402 -1.8568893251  1.1633414015
H   0.1087316698  1.8854469447  1.1491312902
H  -2.6148162515 -2.3553253559  0.0256022956
H  -2.0480043787 -1.6323116758 -1.4593159143
H  -0.5013744780  3.3577222553  0.3531158548
H  -1.3619422531  2.6861230168  1.7624063485
H   2.7311135489  0.0888692889  1.4536715536
H   1.5292777124  1.2219040060 -1.6767597104
H   2.0629465142 -1.5573775233  1.4566451146
H   1.0608066335 -0.2062595197  1.9901839179
H   3.0234394799  0.9447810004 -0.7378650106
H   2.4959603802 -0.2092624734 -1.9909204657
22
Iteration 72  Energy = -72.4793017582
C  -0.7613156010 -1.5554349819  0.1258412886
C   1.3776010604 -0.2922326182 -0.1530422736
C  -0.7974562176  2.4428066733  0.8577374944
C   1.8291093061 -0.5041866067  1.2472687290
C   2.1462010611  0.4502265445 -1.1774916029
N   0.2005873704 -0.8640330378 -0.5807978980
N  -1.8910765787 -1.8611244588 -0.4849761410
O  -1.5942722886  1.6859026124 -0.1069904917
H  -1.9823262671  0.9230444899  0.3500919212
H  -0.0639878207 -0.6560176359 -1.5442055602
H  -0.6311176936 -1.8663123929  1.1601202290
H   0.0884384655  1.8835713545  1.1790821125
H  -2.6091370494 -2.3613321961  0.0233552548
H  -2.0460423495 -1.6302474189 -1.4590090644
H  -0.4787966254  3.3454530777  0.3307153904
H  -1.3789467353  2.7297367195  1.7421951928
H   2.7429115898  0.0745317724  1.4496247401
H   1.5359284244  1.2325866011 -1.6634878242
H   2.0571450731 -1.5645357514  1.4569434107
H   1.0706872175 -0.2018105020  1.9907388816
H   3.0359447164  0.9298739932 -0.7415327331
H   2.4835263588 -0.2063994257 -2.0006912356
22
Iteration 73  Energy = -72.4794645981
C  -0.7583530251 -1.5584268717  0.1245503732
C   1.3810280359 -0.2956576924 -0.1541714103
C  -0.7996847509  2.4500260240  0.8547262435
C   1.8344046934 -0.5109947455  1.2450195540
C   2.1483758687  0.4478929408 -1.1787326269
N   0.2010648591 -0.8621981939 -0.5804857249
N  -1.8892303240 -1.8614560885 -0.4853046339
O  -1.5941582826  1.6831182593 -0.1044685904
H  -1.9908913403  0.9297941151  0.3610016362
H  -0.0675894466 -0.6466542881 -1.5411887097
H  -0.6256619692 -1.8763653694  1.1564297181
H   0.0688126118  1.8818952055  1.2068876758
H  -2.6051542624 -2.3660540508  0.0216559423
H  -2.0462381293 -1.6264573731 -1.4580216836
H  -0.4539070481  3.3315822237  0.3095029455
H  -1.3911814111  2.7718646477  1.7203895835
H   2.7560537102  0.0567569592  1.4432724980
H   1.5422823825  1.2418369634 -1.6512567266
H   2.0500247323 -1.5737392361  1.4559024841
H   1.0822990374 -0.1975204048  1.9904513312
H   3.0474111491  0.9135279415 -0.7466726376
H   2.4700162291 -0.2044818778 -2.0115086277
22
Iteration 74  Energy = -72.4795994238
C  -0.7552868068 -1.5622245833  0.1247657723
C   1.3848300579 -0.3009777849 -0.1561754050
C  -0.7989175484  2.4558559380  0.8484111891
C   1.8406904793 -0.5182804823  1.2419086352
C   2.1506574895  0.4426396469 -1.1817665391
N   0.2018332094 -0.8627863790 -0.5799921499
N  -1.8877207451 -1.8627634568 -0.4832596016
O  -1.5928876906  1.6799088290 -0.1043981258
H  -1.9985350643  0.9366846533  0.3696014798
H  -0.0708429420 -0.6415071406 -1.5383218439
H  -0.6196150017 -1.8859446744  1.1544933398
H   0.0532048148  1.8806417141  1.2278320483
H  -2.6017142215 -2.3704936698  0.0232551618
H  -2.0470688159 -1.6246759656 -1.4548391751
H  -0.4289670513  3.3172863529  0.2873973580
H  -1.3976370403  2.8093031363  1.6964979096
H   2.7698801657  0.0389073777  1.4351569743
H   1.5484462019  1.2461837860 -1.6430068321
H   2.0443102541 -1.5829690198  1.4549085996
H   1.0953129510 -0.1933936164  1.9893002086
H   3.0579204544  0.8961996254 -0.7541530752
H   2.4581313195 -0.2065585465 -2.0222625185
22
Iteration 75  Energy = -72.4797333554
C  -0.7532954890 -1.5647219844  0.1264787184
C   1.3873244674 -0.3044330247 -0.1559950440
C  -0.8023338159  2.4632282313  0.8437245757
C   1.8458890965 -0.5244946250  1.2407715519
C   2.1509761979  0.4407360711 -1.1819668903
N   0.2010578772 -0.8608801828 -0.5773649091
N  -1.8871208887 -1.8627812556 -0.4799510466
O  -1.5956831084  1.6777977848 -0.1023898611
H  -2.0126891056  0.9467119366  0.3807148666
H  -0.0759481975 -0.6330548130 -1.5330039100
H  -0.6145167499 -1.8951188332  1.1537668065
H   0.0318983745  1.8815188241  1.2522324561
H  -2.5988235790 -2.3747423172  0.0255117061
H  -2.0489969594 -1.6206178391 -1.4501057146
H  -0.4068601287  3.3028793729  0.2672310374
H  -1.4083036617  2.8494898892  1.6722339422
H   2.7836296476  0.0203006109  1.4284940395
H   1.5529745071  1.2549738819 -1.6300449483
H   2.0355856153 -1.5913400908  1.4559275288
H   1.1084291350 -0.1867047678  1.9904155959
H   3.0671341660  0.8807916671 -0.7591472249
H   2.4429570530 -0.2038804952 -2.0314793219
22
Iteration 76  Energy = -72.4798426108
C  -0.7509195695 -1.5670480270  0.1290458934
C   1.3905433135 -0.3084712693 -0.1549467318
C  -0.8067494641  2.4691093536  0.8400576421
C   1.8520026818 -0.5322488786  1.2402501878
C   2.1511988403  0.4401601631 -1.1803787418
N   0.2006111894 -0.8586638492 -0.5737560928
N  -1.8858020526 -1.8632371143 -0.4761100507
O  -1.6004251343  1.6755193951 -0.0996491337
H  -2.0309919182  0.9581029073  0.3921202194
H  -0.0807065708 -0.6240576309 -1.5265329232
H  -0.6090216647 -1.9034009063  1.1540231227
H   0.0113980497  1.8826371857  1.2734801809
H  -2.5952062255 -2.3796164642  0.0280635888
H  -2.0500939599 -1.6167981662 -1.4447704476
H  -0.3891606818  3.2888779032  0.2509489902
H  -1.4177469339  2.8837401703  1.6506543702
H   2.7978713216  0.0002055338  1.4226521796
H   1.5572866408  1.2653059868 -1.6139752606
H   2.0278973640 -1.6011257591  1.4569029548
H   1.1226781789 -0.1822852206  1.9923199262
H   3.0759129663  0.8664712743 -0.7621387378
H   2.4276494833 -0.1982612578 -2.0396715181
22
Iteration 77  Energy = -72.4799287991
C  -0.7495160525 -1.5672664491  0.1309993028
C   1.3941537914 -0.3127417085 -0.1536347432
C  -0.8119132004  2.4740613542  0.8357377961
C   1.8582740490 -0.5422381125  1.2396980267
C   2.1521401906  0.4405464090 -1.1773388185
N   0.2000469669 -0.8550534663 -0.5702977265
N  -1.8848137977 -1.8620778766 -0.4738566311
O  -1.6074015721  1.6753028148 -0.0987292239
H  -2.0533766417  0.9724563494  0.4003358078
H  -0.0850106234 -0.6132650521 -1.5201621609
H  -0.6052454128 -1.9090431978  1.1538827870
H  -0.0072627861  1.8833609843  1.2882382095
H  -2.5926026408 -2.3822043215  0.0286892068
H  -2.0506000351 -1.6116100666 -1.4412003880
H  -0.3761932977  3.2772690899  0.2373065374
H  -1.4254811690  2.9116585067  1.6318136805
H   2.8111897349 -0.0211618135  1.4180447164
H   1.5622762140  1.2759629379 -1.5967018428
H   2.0216969029 -1.6130927047  1.4560885781
H   1.1365592250 -0.1825342030  1.9944916613
H   3.0842699582  0.8538431800 -0.7626234695
H   2.4146309062 -0.1907754040 -2.0461120122
22
Iteration 78  Energy = -72.4799994306
C  -0.7458662077 -1.5658420153  0.1303164833
C   1.4002874284 -0.3156109119 -0.1538798216
C  -0.8168876903  2.4776300888  0.8294065015
C   1.8669975965 -0.5523552146  1.2373214005
C   2.1559697169  0.4429844094 -1.1750853171
N   0.2022032204 -0.8499558845 -0.5689934143
N  -1.8807002234 -1.8606311245 -0.4752717359
O  -1.6147342287  1.6758480977 -0.1009748668
H  -2.0744400873  0.9862112160  0.4038188831
H  -0.0857953079 -0.6013267903 -1.5161510325
H  -0.6002770578 -1.9115859300  1.1516594173
H  -0.0228874500  1.8834601237  1.2959222984
H  -2.5873625355 -2.3839316508  0.0255249948
H  -2.0470912338 -1.6069712019 -1.4416451369
H  -0.3671483418  3.2678184567  0.2242947956
H  -1.4314257064  2.9328965498  1.6144789164
H   2.8251031557 -0.0401986030  1.4131833746
H   1.5693913353  1.2870279610 -1.5816277658
H   2.0210852869 -1.6249999737  1.4513592113
H   1.1514516334 -0.1867775999  1.9951158582
H   3.0939421505  0.8453152529 -0.7628960242
H   2.4072433437 -0.1811268287 -2.0522374795
22
Iteration 79  Energy = -72.4800598101
C  -0.7466842864 -1.5629182931  0.1345759309
C   1.4021731676 -0.3183047579 -0.1518024036
C  -0.8245148946  2.4823407264  0.8229639815
C   1.8729846078 -0.5626677718  1.2366526042
C   2.1558336037  0.4437898315 -1.1717196024
N   0.2000153413 -0.8449799180 -0.5642857246
N  -1.8811360894 -1.8587552021 -0.4711183544
O  -1.6255056230  1.6774620196 -0.1022673569
H  -2.0936268225  0.9978823148  0.4080502644
H  -0.0908848777 -0.5911320498 -1.5091058884
H  -0.6002521341 -1.9096029802  1.1554253651
H  -0.0387036129  1.8860317683  1.3005175134
H  -2.5869229240 -2.3836889250  0.0291778038
H  -2.0479570496 -1.6042422336 -1.4371640671
H  -0.3641263267  3.2612106963  0.2113695745
H  -1.4386274795  2.9526466394  1.5993337765
H   2.8351520799 -0.0574316638  1.4099602171
H   1.5721022723  1.2947203321 -1.5678380228
H   2.0204792219 -1.6369354160  1.4470802894
H   1.1632450004 -0.1940500303  1.9983740784
H   3.0988793521  0.8370397603 -0.7624185151
H   2.3973617826 -0.1748009507 -2.0554274379
22
Iteration 80  Energy = -72.4801135735
C  -0.7483899770 -1.5589666447  0.1367639220
C   1.4042996609 -0.3216794597 -0.1505663352
C  -0.8307027147  2.4866292010  0.8167124514
C   1.8794191455 -0.5766068983  1.2344564023
C   2.1567938134  0.4442149461 -1.1683535113
N   0.1978118032 -0.8394825504 -0.5610577508
N  -1.8823444458 -1.8550992828 -0.4696830104
O  -1.6349401548  1.6797301653 -0.1040216908
H  -2.1056783898  1.0052963077  0.4104441735
H  -0.0953616340 -0.5797897331 -1.5035224808
H  -0.6020049578 -1.9064923409  1.1573009826
H  -0.0511943276  1.8886905550  1.3025109571
H  -2.5878207252 -2.3813644644  0.0296551662
H  -2.0486433912 -1.6002735541 -1.4357257420
H  -0.3622310949  3.2565186341  0.2000506192
H  -1.4438526991  2.9686620586  1.5865435575
H   2.8457233738 -0.0788288476  1.4061853052
H   1.5760939795  1.3018065963 -1.5544629715
H   2.0202525977 -1.6529351955  1.4389813351
H   1.1755565069 -0.2065812569  2.0009142518
H   3.1043393534  0.8285918881 -0.7610367292
H   2.3897490827 -0.1685368177 -2.0584035791
22
Iteration 81  Energy = -72.4801372365
C  -0.7413262237 -1.5577606281  0.1393500730
C   1.4119527260 -0.3233691563 -0.1542882089
C  -0.8272372928  2.4892329181  0.8058980829
C   1.8913462469 -0.5805493060  1.2287541383
C   2.1620572817  0.4426483760 -1.1736633998
N   0.2030576745 -0.8383060054 -0.5609021059
N  -1.8756847191 -1.8562484075 -0.4651403723
O  -1.6340042094  1.6786152356 -0.1093514028
H  -2.1041970979  1.0071734828  0.4094447869
H  -0.0929648442 -0.5775368349 -1.5021143044
H  -0.5932259007 -1.9033790728  1.1602706042
H  -0.0495999983  1.8922518839  1.2958587656
H  -2.5798660626 -2.3826008338  0.0359443765
H  -2.0432760431 -1.6036859203 -1.4315545998
H  -0.3564034566  3.2534851716  0.1841795811
H  -1.4389031127  2.9783901210  1.5723346718
H   2.8598830397 -0.0860197839  1.3971413522
H   1.5818852924  1.3022846030 -1.5558484799
H   2.0293499413 -1.6573916948  1.4323291078
H   1.1914985890 -0.2084082424  1.9978314867
H   3.1121091009  0.8240788547 -0.7695149383
H   2.3899517817 -0.1689023997 -2.0657887024
22
Iteration 82  Energy = -72.4801669792
C  -0.7371968269 -1.5539097796  0.1419429200
C   1.4175003662 -0.3240628183 -0.1588811619
C  -0.8273542825  2.4931949881  0.7943392400
C   1.9029071164 -0.5867373100  1.2209457735
C   2.1644097436  0.4435068961 -1.1793657263
N   0.2050136608 -0.8339843813 -0.5607112923
N  -1.8720146643 -1.8548289252 -0.4604966667
O  -1.6379956946  1.6786842624 -0.1139817739
H  -2.1073348332  1.0107810820  0.4100889628
H  -0.0949432045 -0.5702592566 -1.4998034598
H  -0.5871398616 -1.8978244094  1.1631430439
H  -0.0516945886  1.8970339926  1.2885466254
H  -2.5745588825 -2.3818980806  0.0421468970
H  -2.0408657809 -1.6047451954 -1.4273332602
H  -0.3540273659  3.2508543531  0.1665118313
H  -1.4366079015  2.9907149156  1.5573307928
H   2.8751101538 -0.0979849968  1.3851836400
H   1.5850701357  1.3066164054 -1.5549757590
H   2.0358766534 -1.6647457227  1.4217776181
H   1.2092366483 -0.2118422470  1.9942904179
H   3.1179500464  0.8201725392 -0.7789532508
H   2.3852894525 -0.1652000766 -2.0752221264
22
Iteration 83  Energy = -72.4801977352
C  -0.7376854312 -1.5485931416  0.1449300463
C   1.4209516698 -0.3267692835 -0.1590652975
C  -0.8295258459  2.4953504948  0.7847020069
C   1.9112947782 -0.5998176994  1.2168898899
C   2.1665969835  0.4437488314 -1.1781771400
N   0.2039572407 -0.8279903409 -0.5577812215
N  -1.8719173071 -1.8510130107 -0.4579316290
O  -1.6449993177  1.6785029124 -0.1170820027
H  -2.1155100561  1.0155482419  0.4121489828
H  -0.0993726020 -0.5576783279 -1.4938507645
H  -0.5879049005 -1.8915417884  1.1664911445
H  -0.0590670551  1.8981411869  1.2858852248
H  -2.5738847067 -2.3792455538  0.0443232182
H  -2.0396964131 -1.6031854429 -1.4255324260
H  -0.3497173928  3.2436895649  0.1506831539
H  -1.4362476497  3.0045486802  1.5420701685
H   2.8896825908 -0.1221884073  1.3776737547
H   1.5900317220  1.3124571616 -1.5450852874
H   2.0337484730 -1.6799647256  1.4130828272
H   1.2258117232 -0.2199537269  1.9951361978
H   3.1241070996  0.8126907321 -0.7800236514
H   2.3796892891 -0.1599790235 -2.0793085263
22
Iteration 84  Energy = -72.4802031592
C  -0.7422526804 -1.5447167234  0.1461259842
C   1.4214473270 -0.3323511152 -0.1597935386
C  -0.8219529085  2.5003743549  0.7732718857
C   1.9108299409 -0.6059403084  1.2162987120
C   2.1700849480  0.4340092799 -1.1798131820
N   0.2021941707 -0.8287065435 -0.5575561194
N  -1.8768580658 -1.8451833237 -0.4570430148
O  -1.6401700259  1.6834652538 -0.1259137725
H  -2.1134005187  1.0242633794  0.4055457386
H  -0.1002547959 -0.5580746767 -1.4937693021
H  -0.5944979369 -1.8854757315  1.1687230393
H  -0.0548762757  1.9018202412  1.2779859397
H  -2.5808555296 -2.3701535069  0.0458109714
H  -2.0427487852 -1.5996811300 -1.4255644504
H  -0.3379818262  3.2437042543  0.1366523764
H  -1.4271621549  3.0156002942  1.5276889300
H   2.8922655210 -0.1341964177  1.3757437863
H   1.5972551159  1.3048933739 -1.5472831921
H   2.0266854723 -1.6864274404  1.4143836661
H   1.2280717169 -0.2204454447  1.9941296700
H   3.1293087448  0.7991143499 -0.7823213174
H   2.3802322282 -0.1713753786 -2.0804723293
22
Iteration 85  Energy = -72.4802109675
C  -0.7470148502 -1.5418498002  0.1444300737
C   1.4218489363 -0.3394087602 -0.1638978511
C  -0.8128838299  2.5013674931  0.7700314321
C   1.9134022005 -0.6193796716  1.2100829504
C   2.1715690612  0.4262778824 -1.1835820623
N   0.1989355962 -0.8282105753 -0.5596517085
N  -1.8828950585 -1.8388004245 -0.4581205865
O  -1.6364832757  1.6869556214 -0.1264670583
H  -2.1121266983  1.0310869291  0.4069364391
H  -0.1048723809 -0.5531978043 -1.4941278116
H  -0.5996148967 -1.8833535867  1.1668297583
H  -0.0497078787  1.8995127017  1.2767541369
H  -2.5879801500 -2.3621819328  0.0448673582
H  -2.0483969605 -1.5930149822 -1.4266310864
H  -0.3241231408  3.2394807979  0.1310522200
H  -1.4147308219  3.0229826333  1.5227624789
H   2.8992584217 -0.1560747110  1.3672885596
H   1.6023714047  1.3014026813 -1.5466140620
H   2.0209630605 -1.7011294606  1.4059502431
H   1.2362460536 -0.2294914045  1.9906375953
H   3.1338518539  0.7849913000 -0.7876296981
H   2.3758972719 -0.1772590671 -2.0868356062
22
Iteration 86  Energy = -72.4802262262
C  -0.7488931309 -1.5373587329  0.1457619112
C   1.4238187408 -0.3422304402 -0.1634271950
C  -0.8119692109  2.4990305877  0.7604294445
C   1.9191229643 -0.6332518538  1.2068120939
C   2.1736458828  0.4258973662 -1.1811641183
N   0.1969274002 -0.8223138741 -0.5571884613
N  -1.8834270907 -1.8360946760 -0.4585020420
O  -1.6423154709  1.6836302684 -0.1289922052
H  -2.1224554343  1.0358743061  0.4103183579
H  -0.1102314337 -0.5386259900 -1.4879098791
H  -0.6026583536 -1.8783732393  1.1685087057
H  -0.0594589347  1.8941515387  1.2795807078
H  -2.5882107550 -2.3611552187  0.0431933838
H  -2.0469911761 -1.5921676642 -1.4278122750
H  -0.3101523855  3.2216837531  0.1138273812
H  -1.4106734850  3.0391726833  1.5028310420
H   2.9111088615 -0.1819743881  1.3610602870
H   1.6075780238  1.3059702749 -1.5369487902
H   2.0152401316 -1.7169445604  1.3979201444
H   1.2501622781 -0.2384411499  1.9919866857
H   3.1389942064  0.7775103000 -0.7863419589
H   2.3718413602 -0.1730371051 -2.0888555101
22
Iteration 87  Energy = -72.4802338556
C  -0.7499836952 -1.5364384461  0.1463805375
C   1.4243959601 -0.3440758443 -0.1622654579
C  -0.8084846819  2.4950747681  0.7503021843
C   1.9235419349 -0.6459525247  1.2041314311
C   2.1734012856  0.4279751032 -1.1776836088
N   0.1946586934 -0.8177945153 -0.5546593624
N  -1.8834822132 -1.8362365793 -0.4593339970
O  -1.6477743564  1.6776312193 -0.1290359947
H  -2.1323555232  1.0399699025  0.4183149950
H  -0.1167374379 -0.5240095704 -1.4807871076
H  -0.6036447092 -1.8795360715  1.1684399360
H  -0.0688885269  1.8875810848  1.2848437439
H  -2.5874428483 -2.3640369446  0.0406559329
H  -2.0461173793 -1.5918870535 -1.4286873383
H  -0.2912057232  3.1974873783  0.0936634751
H  -1.4024470734  3.0585232641  1.4793099329
H   2.9189942370 -0.2019266335  1.3568347240
H   1.6094498793  1.3125193542 -1.5254721233
H   2.0134040182 -1.7312348894  1.3889061701
H   1.2602217167 -0.2510750302  1.9939874232
H   3.1414475525  0.7733611713 -0.7840554283
H   2.3659249243 -0.1654995144 -2.0901368056
22
Iteration 88  Energy = -72.4802352265
C  -0.7509339392 -1.5353343366  0.1471910206
C   1.4240815643 -0.3442366445 -0.1618073094
C  -0.8012427669  2.4997502172  0.7420346940
C   1.9255990335 -0.6517343316  1.2023760234
C   2.1717284404  0.4311486410 -1.1757138050
N   0.1932052578 -0.8156110217 -0.5534436615
N  -1.8851712823 -1.8333620838 -0.4579624293
O  -1.6472122763  1.6785023652 -0.1276101927
H  -2.1313936156  1.0467561635  0.4268247671
H  -0.1205349295 -0.5168818111 -1.4771609109
H  -0.6035068845 -1.8808201273  1.1682752241
H  -0.0648499556  1.8932168769  1.2816787717
H  -2.5890573597 -2.3614096417  0.0418465151
H  -2.0484846678 -1.5873229686 -1.4267693427
H  -0.2806673546  3.1921214918  0.0778397879
H  -1.3904911197  3.0741233697  1.4659421479
H   2.9222343452 -0.2102120669  1.3544528814
H   1.6086319283  1.3182865682 -1.5180957388
H   2.0136052441 -1.7377859754  1.3832984399
H   1.2647327334 -0.2582091376  1.9949159730
H   3.1414023435  0.7730430299 -0.7831014905
H   2.3607816642 -0.1585139489 -2.0913091988
22
Iteration 89  Energy = -72.4802353458
C  -0.7508981893 -1.5352392011  0.1471874879
C   1.4240841006 -0.3440516995 -0.1616886851
C  -0.8011249748  2.4997434756  0.7421134068
C   1.9256368146 -0.6517482251  1.2024197446
C   2.1716558007  0.4315934422 -1.1754423254
N   0.1933215564 -0.8156165380 -0.5534482078
N  -1.8849958138 -1.8334790739 -0.4581129143
O  -1.6470123651  1.6785595837 -0.1276139129
H  -2.1313644866  1.0469682970  0.4267726396
H  -0.1203049887 -0.5170543812 -1.4772429884
H  -0.6036609397 -1.8804328681  1.1683949629
H  -0.0651614216  1.8931725119  1.2822564423
H  -2.5889644986 -2.3614129195  0.0416981966
H  -2.0481403424 -1.5876427026 -1.4269960472
H  -0.2800705899  3.1916832718  0.0779639462
H  -1.3904689937  3.0745108227  1.4655125923
H   2.9222354154 -0.2101759837  1.3545605665
H   1.6083907064  1.3185719558 -1.5178951660
H   2.0137202887 -1.7378201121  1.3831295262
H   1.2647697282 -0.2584505096  1.9950607080
H   3.1411797123  0.7737347733 -0.7826888385
H   2.3610166350 -0.1579773941 -2.0910176376
22
Iteration 1  Energy = -72.4165070728
C  -0.8698306399 -1.1412076272  0.1598013944
C   1.2138373305  0.0865927847  0.0352143363
C  -0.8071840251  1.8063777128  0.7738801469
C   1.9318421680 -0.5236976709  1.2377103486
C   2.1785470333  0.5244322347 -1.0565264977
N   0.2414787629 -0.8985110468 -0.5597433098
N  -2.0083126536 -1.6001660153 -0.4233133269
O  -1.6068259947  1.4915977783 -0.2776661322
H  -2.0538715942  0.6295810896 -0.1756953281
H   0.0169960834 -0.6803203096 -1.5297348573
H  -0.8941425134 -0.8714645314  1.2092112282
H   0.5746315843  1.0032822239  0.4039345415
H  -2.6894403117 -1.9473020324  0.2498150159
H  -1.8853845307 -2.2485392848 -1.2023830615
H  -0.4112924038  2.8161028708  0.7226327704
H  -1.0196141177  1.4053851171  1.7698787951
H   2.6104073080  0.2077324640  1.6816890213
H   1.6506935208  1.0090741348 -1.8820000306
H   2.5197161291 -1.3952647887  0.9344607237
H   1.2274224593 -0.8354199273  2.0111258400
H   2.9130253766  1.2292557701 -0.6633752751
H   2.7118770400 -0.3454312883 -1.4511393336
22
Iteration 2  Energy = -72.4210239724
C  -0.8709811882 -1.1653969727  0.1674450257
C   1.2211355082  0.0848640051  0.0343630048
C  -0.8144399429  1.8065731247  0.7757699000
C   1.9411610587 -0.5291721398  1.2399553463
C   2.1802094743  0.5379147439 -1.0603294254
N   0.2358520483 -0.8934372330 -0.5595600047
N  -2.0074422206 -1.6077402834 -0.4299257220
O  -1.6084693803  1.5095704511 -0.2760222136
H  -2.1101449387  0.6753648030 -0.1806566585
H   0.0119439131 -0.7090912620 -1.5349354415
H  -0.8869372173 -0.9508503742  1.2332578325
H   0.5798295634  0.9974672522  0.4091212190
H  -2.7172993488 -1.9252443599  0.2261696658
H  -1.8911206119 -2.2392329843 -1.2226859611
H  -0.3930814942  2.8056080981  0.7397014815
H  -1.0181273469  1.3744656123  1.7604859087
H   2.6195048372  0.2034836303  1.6813612020
H   1.6435087728  1.0259018248 -1.8774113925
H   2.5332683171 -1.3967487277  0.9347641442
H   1.2448810947 -0.8441576468  2.0188564825
H   2.9115189933  1.2435924143 -0.6639364529
H   2.7178292909 -0.3233074712 -1.4673356407
22
Iteration 3  Energy = -72.4235359506
C  -0.8688542487 -1.1927340487  0.1710179624
C   1.2261576030  0.0847028187  0.0371211781
C  -0.8219032790  1.8060963437  0.7785302833
C   1.9502002659 -0.5401576132  1.2383199988
C   2.1790047682  0.5587499740 -1.0576886210
N   0.2291874069 -0.8835120176 -0.5591978248
N  -2.0058944443 -1.6155010447 -0.4354268617
O  -1.6089751178  1.5218198018 -0.2779151988
H  -2.1324766554  0.7019581932 -0.1789236548
H   0.0003417963 -0.7007577506 -1.5322553233
H  -0.8773854661 -1.0301407454  1.2484711567
H   0.5877762979  0.9881569192  0.4202685121
H  -2.7347348187 -1.9209932968  0.2027974632
H  -1.9022385691 -2.2132015531 -1.2561753371
H  -0.3782832356  2.7951426127  0.7530627798
H  -1.0214505887  1.3540088612  1.7537096686
H   2.6297082764  0.1904335002  1.6815745280
H   1.6343427098  1.0568495735 -1.8633009911
H   2.5429086413 -1.4046399632  0.9258351453
H   1.2582676590 -0.8597566800  2.0190023146
H   2.9077892852  1.2630741936 -0.6540126061
H   2.7205379613 -0.2914398829 -1.4821761872
22
Iteration 4  Energy = -72.4257601575
C  -0.8678217634 -1.2224570683  0.1740904194
C   1.2315544087  0.0848687524  0.0373287738
C  -0.8269880535  1.8073728476  0.7843238459
C   1.9604569387 -0.5444894364  1.2358542565
C   2.1776020459  0.5711085512 -1.0610602844
N   0.2228443826 -0.8773001092 -0.5530519258
N  -2.0043801886 -1.6260158769 -0.4414354043
O  -1.6121525040  1.5412131471 -0.2766932241
H  -2.1558205656  0.7348799299 -0.1763413029
H  -0.0034229976 -0.7106265324 -1.5292194331
H  -0.8734605822 -1.0986574298  1.2582156422
H   0.5983066944  0.9821128396  0.4244253193
H  -2.7526570207 -1.9233317270  0.1758462632
H  -1.9159018028 -2.1712864353 -1.2999284675
H  -0.3625237634  2.7863363452  0.7704696507
H  -1.0173616730  1.3304150845  1.7481319368
H   2.6431279995  0.1846844204  1.6768358417
H   1.6250109487  1.0746126356 -1.8577524301
H   2.5500482298 -1.4101748695  0.9213411288
H   1.2698015049 -0.8613324358  2.0186818541
H   2.9049513501  1.2758136939 -0.6553256365
H   2.7210744405 -0.2713788607 -1.4973991141
22
Iteration 5  Energy = -72.4276008085
C  -0.8686721310 -1.2469532426  0.1771140852
C   1.2374382644  0.0854516520  0.0379871054
C  -0.8376011827  1.8121479278  0.7911715614
C   1.9714383728 -0.5448949165  1.2345028753
C   2.1781144475  0.5719803834 -1.0667419245
N   0.2180664647 -0.8748515333 -0.5421743588
N  -2.0018542591 -1.6352395331 -0.4463636387
O  -1.6145813214  1.5639649660 -0.2796508173
H  -2.1686009175  0.7627211577 -0.1891549685
H  -0.0005522396 -0.7332673850 -1.5244256548
H  -0.8789557130 -1.1754595757  1.2677598432
H   0.6106866029  0.9789660510  0.4248313046
H  -2.7667127857 -1.9293182517  0.1502067553
H  -1.9276812818 -2.1154335164 -1.3442340943
H  -0.3575495681  2.7830814170  0.7941653437
H  -1.0243944792  1.3086243476  1.7407422535
H   2.6589768686  0.1825907315  1.6708902471
H   1.6204664808  1.0759413236 -1.8595228860
H   2.5555399160 -1.4141403836  0.9200247357
H   1.2822153327 -0.8556711511  2.0207691830
H   2.9063775573  1.2775896873 -0.6642581587
H   2.7207399002 -0.2686229102 -1.5072293214
22
Iteration 6  Energy = -72.4292082266
C  -0.8717087339 -1.2712087279  0.1785839779
C   1.2386896032  0.0854738416  0.0387064933
C  -0.8274722563  1.8287179374  0.7837042022
C   1.9739840354 -0.5342564421  1.2398272729
C   2.1769279321  0.5653551091 -1.0716075723
N   0.2147281848 -0.8792348913 -0.5309977410
N  -1.9985056021 -1.6487439591 -0.4527117836
O  -1.6213341975  1.5802608876 -0.2766457514
H  -2.1738284877  0.7804077615 -0.1715091601
H   0.0004931152 -0.7507388374 -1.5163413465
H  -0.8925763553 -1.2452039153  1.2715203062
H   0.6097310786  0.9831143358  0.4189438468
H  -2.7781578447 -1.9384222857  0.1253928686
H  -1.9374429989 -2.0641262489 -1.3821618470
H  -0.3431546726  2.7977811901  0.7774202997
H  -1.0065687814  1.3318484595  1.7371270571
H   2.6650237800  0.1957367241  1.6664738180
H   1.6162579427  1.0629624059 -1.8662726350
H   2.5533424233 -1.4098552647  0.9346907558
H   1.2842351951 -0.8316220907  2.0306020955
H   2.9037315644  1.2757844680 -0.6750156025
H   2.7208885744 -0.2766317970 -1.5076495983
22
Iteration 7  Energy = -72.4305440859
C  -0.8766330438 -1.2911056533  0.1777643035
C   1.2386282489  0.0854895222  0.0408096861
C  -0.8188969775  1.8435906417  0.7807606849
C   1.9788200931 -0.5246958113  1.2435283216
C   2.1742603702  0.5579861555 -1.0760299851
N   0.2118169423 -0.8826715863 -0.5215598182
N  -1.9926843313 -1.6649073630 -0.4620991957
O  -1.6268362535  1.5938675326 -0.2706562613
H  -2.1932646953  0.8077508063 -0.1412825504
H   0.0017583970 -0.7589513637 -1.5091445639
H  -0.9132627508 -1.2812820003  1.2690702092
H   0.6100500509  0.9851830027  0.4159383597
H  -2.7862299086 -1.9563501016  0.0944359872
H  -1.9502608911 -1.9815401355 -1.4324473830
H  -0.3270998753  2.8091079276  0.7646839812
H  -0.9906054805  1.3505946264  1.7367996813
H   2.6762975319  0.2066639536  1.6572519314
H   1.6106349534  1.0501301316 -1.8720177388
H   2.5510358395 -1.4073377035  0.9456699577
H   1.2923021565 -0.8076049030  2.0420850328
H   2.9020662839  1.2714421038 -0.6868392886
H   2.7168318616 -0.2868090228 -1.5083710681
22
Iteration 8  Energy = -72.4314861969
C  -0.8817813687 -1.3029960152  0.1772251888
C   1.2405474609  0.0850956016  0.0457054873
C  -0.8273083753  1.8525143991  0.7893705565
C   1.9934272678 -0.5236187489  1.2417206275
C   2.1691029873  0.5535146195 -1.0804727268
N   0.2110095795 -0.8851610691 -0.5119654537
N  -1.9883596108 -1.6785866307 -0.4707892686
O  -1.6257758616  1.6087980883 -0.2739282501
H  -2.2499914249  0.8705560039 -0.1117734107
H   0.0112270913 -0.7745129071 -1.5047927807
H  -0.9248088768 -1.3085453058  1.2676554905
H   0.6184915191  0.9800014075  0.4226340408
H  -2.7912593307 -1.9747353775  0.0683980094
H  -1.9646404477 -1.8938561924 -1.4679841698
H  -0.3129647155  2.8063568314  0.7769049135
H  -1.0040267231  1.3499162316  1.7382888810
H   2.7011765172  0.2053330499  1.6421653669
H   1.6001662461  1.0441667105 -1.8735722376
H   2.5552934667 -1.4122468724  0.9422316002
H   1.3140543298 -0.7959679012  2.0499811650
H   2.9019159228  1.2666807415 -0.7002324376
H   2.7059915430 -0.2939681334 -1.5147333528
22
Iteration 9  Energy = -72.4320473150
C  -0.8841720519 -1.3175728484  0.1784792299
C   1.2423560225  0.0837038096  0.0512383779
C  -0.8418992679  1.8562960519  0.8013408591
C   2.0069100623 -0.5238993387  1.2403587793
C   2.1645655397  0.5461155966 -1.0840421652
N   0.2098288822 -0.8885048086 -0.5031777372
N  -1.9869201297 -1.6841135413 -0.4786931693
O  -1.6200005706  1.6310489769 -0.2821835003
H  -2.2713983681  0.9156599921 -0.1350372882
H   0.0071226263 -0.7716921151 -1.4954123107
H  -0.9220195355 -1.3548672202  1.2690761079
H   0.6266064724  0.9745342186  0.4296109094
H  -2.7951270600 -1.9874854586  0.0480234859
H  -1.9804546535 -1.8171624165 -1.4881197837
H  -0.3047053489  2.7965913170  0.8061250538
H  -1.0288341816  1.3337229573  1.7369820309
H   2.7272465254  0.2010950068  1.6254686007
H   1.5919709002  1.0377259479 -1.8739206656
H   2.5561952226 -1.4201670386  0.9403241161
H   1.3351523366 -0.7828009282  2.0595261869
H   2.9048022743  1.2563441706 -0.7127093326
H   2.6929728133 -0.3055071485 -1.5207704691
22
Iteration 10  Energy = -72.4322950915
C  -0.8805776085 -1.3322381101  0.1828850777
C   1.2413269328  0.0830993249  0.0533392804
C  -0.8494209786  1.8365666723  0.8079957003
C   2.0146520075 -0.5172143876  1.2397158628
C   2.1556354577  0.5513086887 -1.0860728279
N   0.2123536033 -0.8957043715 -0.4972207197
N  -1.9904544849 -1.6741962092 -0.4772230939
O  -1.6104957581  1.6457511463 -0.2959725608
H  -2.2864603546  0.9475169531 -0.1779887249
H   0.0055198853 -0.7717006154 -1.4880487474
H  -0.9005900683 -1.4220818372  1.2734439100
H   0.6193133473  0.9713396638  0.4338617465
H  -2.8040609017 -1.9686304834  0.0463078259
H  -1.9956831227 -1.7725325499 -1.4879593703
H  -0.3124354995  2.7759294800  0.8506935518
H  -1.0549901856  1.2877502486  1.7250959654
H   2.7339451284  0.2120494265  1.6182582384
H   1.5774742353  1.0384690861 -1.8746436761
H   2.5657354279 -1.4123543780  0.9400800189
H   1.3475834531 -0.7751783580  2.0627416253
H   2.8923085437  1.2669303082 -0.7181590995
H   2.6882504552 -0.2971292652 -1.5238433987
22
Iteration 11  Energy = -72.4331142978
C  -0.8739314332 -1.3604101861  0.1833426968
C   1.2392501229  0.0824519717  0.0567354573
C  -0.8529715183  1.8499954124  0.8088376852
C   2.0167929351 -0.5173519525  1.2397639353
C   2.1500352397  0.5527356222 -1.0854226483
N   0.2113060849 -0.8986832456 -0.4949030106
N  -1.9900418341 -1.6780147427 -0.4781178264
O  -1.6054636789  1.6612099835 -0.3016667055
H  -2.3436832286  1.0265174243 -0.1643170930
H  -0.0086192665 -0.7507307332 -1.4804320629
H  -0.8807867246 -1.5009096050  1.2694627228
H   0.6205306298  0.9693783156  0.4357835219
H  -2.7894316583 -2.0167702205  0.0432311369
H  -2.0054607117 -1.7364036221 -1.4919571857
H  -0.2969709300  2.7767102984  0.8538852356
H  -1.0558118725  1.2899777699  1.7185085608
H   2.7398345591  0.2108136913  1.6132963169
H   1.5689373990  1.0415995760 -1.8707604934
H   2.5642039051 -1.4146764543  0.9399555191
H   1.3521867420 -0.7706749298  2.0661024781
H   2.8883843228  1.2675760326 -0.7193452848
H   2.6806272511 -0.2949109123 -1.5272400264
22
Iteration 12  Energy = -72.4336604551
C  -0.8666012409 -1.3916636525  0.1824939770
C   1.2336133351  0.0813400148  0.0610397055
C  -0.8472916861  1.8530831148  0.8079262844
C   2.0171544518 -0.5149933928  1.2410140488
C   2.1382092378  0.5602203142 -1.0826350675
N   0.2095824899 -0.9040293150 -0.4932999181
N  -1.9930754105 -1.6801804536 -0.4758829933
O  -1.5959307756  1.6816717969 -0.3104019252
H  -2.3496889329  1.0718200760 -0.1743224685
H  -0.0231033122 -0.7317672366 -1.4722720509
H  -0.8608381988 -1.5645167008  1.2627099762
H   0.6098116370  0.9676572764  0.4408082328
H  -2.7740554422 -2.0691973852  0.0398628198
H  -2.0207437022 -1.6995060938 -1.4910687887
H  -0.2853754465  2.7754439420  0.8700771371
H  -1.0578617532  1.2787278205  1.7068865976
H   2.7408417675  0.2151949747  1.6092770084
H   1.5525395897  1.0505853918 -1.8636129551
H   2.5642353394 -1.4122719400  0.9407769833
H   1.3562832036 -0.7663508593  2.0709371475
H   2.8753122165  1.2762649466 -0.7164115677
H   2.6701402433 -0.2834048217 -1.5305897388
22
Iteration 13  Energy = -72.4339556769
C  -0.8582435930 -1.4160269766  0.1819436753
C   1.2321209507  0.0817018692  0.0638619413
C  -0.8596966491  1.8584960006  0.8148635241
C   2.0195806062 -0.5194844487  1.2388761922
C   2.1342789055  0.5593986586 -1.0825571488
N   0.2057169341 -0.9013513538 -0.4929313547
N  -1.9926946793 -1.6883072229 -0.4699037567
O  -1.5871398491  1.7088796732 -0.3203691341
H  -2.3401215427  1.0921378290 -0.2110047923
H  -0.0394429060 -0.7096721828 -1.4652175293
H  -0.8372000927 -1.6225241846  1.2563129654
H   0.6125044265  0.9655432272  0.4459366301
H  -2.7601869739 -2.1072615996  0.0407212041
H  -2.0340807513 -1.6726504588 -1.4845405648
H  -0.2911234291  2.7746159623  0.9031038334
H  -1.0772751245  1.2579651766  1.6947363516
H   2.7522562809  0.2051030553  1.6005801362
H   1.5480987955  1.0540728152 -1.8603869878
H   2.5572417921 -1.4218187697  0.9365974175
H   1.3626825200 -0.7630359216  2.0743629111
H   2.8770631741  1.2708173098 -0.7185550332
H   2.6598993978 -0.2859624261 -1.5347831292
22
Iteration 14  Energy = -72.4342226462
C  -0.8545435611 -1.4268707890  0.1785612410
C   1.2323785881  0.0815321103  0.0629316589
C  -0.8707935388  1.8877380275  0.8220086669
C   2.0165201885 -0.5230300936  1.2391906838
C   2.1375021974  0.5494893228 -1.0857712395
N   0.2018465216 -0.8971027751 -0.4948535623
N  -1.9841448491 -1.7156447432 -0.4732145505
O  -1.5891896960  1.7297043527 -0.3139800331
H  -2.3221310340  1.0859375185 -0.2163403525
H  -0.0441582271 -0.7062044323 -1.4668356008
H  -0.8309415522 -1.6372110441  1.2514221052
H   0.6258983395  0.9645244906  0.4434685653
H  -2.7478483875 -2.1410471288  0.0361065634
H  -2.0339110086 -1.6754510236 -1.4861610678
H  -0.2928844158  2.7981297423  0.9039690988
H  -1.0698857153  1.2730265341  1.6957995119
H   2.7584081984  0.1949350714  1.5954245925
H   1.5534670381  1.0459164600 -1.8641070879
H   2.5436172342 -1.4331263045  0.9413034960
H   1.3590928316 -0.7540250340  2.0779178485
H   2.8863415405  1.2565091434 -0.7254604037
H   2.6558903343 -0.3011477235 -1.5365317500
22
Iteration 15  Energy = -72.4344318585
C  -0.8545912979 -1.4345251402  0.1746914138
C   1.2294420169  0.0813035417  0.0595103312
C  -0.8618575066  1.9101090643  0.8254690238
C   2.0054331233 -0.5195390050  1.2429390434
C   2.1384089891  0.5413748957 -1.0888889406
N   0.1962930853 -0.8933664169 -0.4977900622
N  -1.9759901774 -1.7453210322 -0.4797734994
O  -1.5902829170  1.7466164525 -0.3027887956
H  -2.2979417569  1.0753024876 -0.2051694673
H  -0.0487734204 -0.7047855879 -1.4704081595
H  -0.8302302125 -1.6429274716  1.2480915789
H   0.6312882320  0.9682438225  0.4354940311
H  -2.7365457010 -2.1781970012  0.0277512543
H  -2.0310041050 -1.6867596684 -1.4912019987
H  -0.2867751257  2.8232032506  0.8982809344
H  -1.0497166682  1.2973088473  1.7028337333
H   2.7498891373  0.1968559982  1.5967969484
H   1.5567166263  1.0368809243 -1.8696577681
H   2.5286896340 -1.4350119783  0.9548451407
H   1.3433815107 -0.7397328752  2.0810138465
H   2.8890051686  1.2473931274 -0.7302130389
H   2.6545648478 -0.3125253401 -1.5360248339
22
Iteration 16  Energy = -72.4345464782
C  -0.8567507052 -1.4359538396  0.1708628456
C   1.2270084704  0.0829554536  0.0560983004
C  -0.8520962078  1.9324309102  0.8283322938
C   1.9944155689 -0.5161869571  1.2464087907
C   2.1423086173  0.5300514439 -1.0925321953
N   0.1897141281 -0.8860863376 -0.5001982474
N  -1.9669737966 -1.7724876026 -0.4887170696
O  -1.5937927763  1.7549553023 -0.2885270821
H  -2.2784975696  1.0613569656 -0.1853445544
H  -0.0517599363 -0.7037003596 -1.4748398442
H  -0.8350071520 -1.6372046154  1.2459863539
H   0.6360085783  0.9753489910  0.4264987397
H  -2.7237735909 -2.2157484982  0.0154173870
H  -2.0219974936 -1.7052289103 -1.4993330288
H  -0.2773680232  2.8473498545  0.8818546759
H  -1.0281102734  1.3308734540  1.7161251888
H   2.7436662901  0.1967081013  1.5971919615
H   1.5647509034  1.0248356800 -1.8768907314
H   2.5112542068 -1.4380952082  0.9672558999
H   1.3281666616 -0.7241439996  2.0843447972
H   2.8968587116  1.2331814564 -0.7364390769
H   2.6534155573 -0.3299515966 -1.5337866141
22
Iteration 17  Energy = -72.4345867113
C  -0.8589388854 -1.4348112063  0.1652029071
C   1.2263033165  0.0854305931  0.0521445728
C  -0.8394007215  1.9511022963  0.8278381249
C   1.9822951416 -0.5108224326  1.2516189530
C   2.1513315112  0.5154960394 -1.0953611673
N   0.1844770588 -0.8775160043 -0.5035480925
N  -1.9596507788 -1.7899648213 -0.4994597877
O  -1.6038004170  1.7532204959 -0.2698785009
H  -2.2699308636  1.0445072643 -0.1493222000
H  -0.0540465301 -0.6977694888 -1.4793124653
H  -0.8405170360 -1.6312306574  1.2415384889
H   0.6412935700  0.9849777080  0.4133834510
H  -2.7172503804 -2.2341753669  0.0023191234
H  -2.0148196122 -1.7138082645 -1.5093080428
H  -0.2691541949  2.8704093423  0.8551773176
H  -0.9949373353  1.3630657120  1.7286997878
H   2.7372339321  0.1977696938  1.5988709944
H   1.5806989664  1.0095956822 -1.8853093460
H   2.4912852841 -1.4404333969  0.9836228775
H   1.3109196566 -0.7039896068  2.0890728160
H   2.9107535208  1.2144421459 -0.7413615486
H   2.6561740242 -0.3525104433 -1.5281406951
22
Iteration 18  Energy = -72.4345892147
C  -0.8615911408 -1.4363554818  0.1653483628
C   1.2291981339  0.0776402097  0.0635387403
C  -0.8303602450  1.9501298666  0.8370563976
C   1.9764567210 -0.5226357303  1.2665274565
C   2.1622009677  0.5031466242 -1.0790971238
N   0.1855925244 -0.8797998806 -0.4979602855
N  -1.9595092179 -1.7891258766 -0.5046950537
O  -1.5998971124  1.7527364825 -0.2565424259
H  -2.2611288446  1.0401719016 -0.1346947007
H  -0.0485769494 -0.6969245387 -1.4741613212
H  -0.8490006136 -1.6329384472  1.2416969672
H   0.6465069700  0.9798611460  0.4221031656
H  -2.7210739560 -2.2308116478 -0.0066852160
H  -2.0110032063 -1.7094927981 -1.5144351945
H  -0.2612949472  2.8699722647  0.8627059168
H  -0.9826149096  1.3620135706  1.7379750063
H   2.7332982588  0.1820732185  1.6174492264
H   1.5980569115  1.0005133503 -1.8716464855
H   2.4820742649 -1.4545540961  1.0006197179
H   1.3006198022 -0.7128698624  2.1009196866
H   2.9236793942  1.1978178442 -0.7211161610
H   2.6643991465 -0.3673862205 -1.5096741081
22
Iteration 19  Energy = -72.4345893339
C  -0.8617169555 -1.4361734674  0.1653089445
C   1.2291752076  0.0776199735  0.0635631442
C  -0.8301465002  1.9504220690  0.8369348340
C   1.9764418737 -0.5226557610  1.2665096636
C   2.1621510584  0.5031063147 -1.0790562911
N   0.1855989133 -0.8798240493 -0.4979357529
N  -1.9594045987 -1.7892947711 -0.5048797405
O  -1.6000404915  1.7525782912 -0.2562991335
H  -2.2605110828  1.0393632699 -0.1342534897
H  -0.0483584483 -0.6972575096 -1.4742275902
H  -0.8495343271 -1.6320882216  1.2417567696
H   0.6465140484  0.9798532065  0.4221414209
H  -2.7212170838 -2.2305069741 -0.0068670665
H  -2.0107114204 -1.7098761933 -1.5146324859
H  -0.2612960804  2.8704218639  0.8621255088
H  -0.9821420432  1.3626624576  1.7381271694
H   2.7332197163  0.1820764642  1.6174763154
H   1.5980351578  1.0004665744 -1.8715910044
H   2.4821073323 -1.4545180508  1.0005382221
H   1.3006314033 -0.7129870851  2.1008766759
H   2.9236203557  1.1977553255 -0.7210674533
H   2.6643248540 -0.3674244108 -1.5096445622
22
Iteration 1  Energy = -72.4165072517
C  -0.8698238199 -1.1412331900  0.1596869421
C   1.2138711147  0.0865886508  0.0351810783
C  -0.8072837510  1.8063866934  0.7738891471
C   1.9317879628 -0.5236661768  1.2376963849
C   2.1785502250  0.5244320775 -1.0565038376
N   0.2414680601 -0.8984612389 -0.5597834101
N  -2.0082961735 -1.6002031599 -0.4234225676
O  -1.6068532229  1.4916106833 -0.2776654049
H  -2.0539560934  0.6296005601 -0.1756230784
H   0.0169755111 -0.6801210195 -1.5297323309
H  -0.8941716873 -0.8714793479  1.2090982143
H   0.5745700921  1.0033567260  0.4039126356
H  -2.6894086151 -1.9473603857  0.2497098636
H  -1.8853744290 -2.2485558943 -1.2025102684
H  -0.4115154725  2.8161725796  0.7227001368
H  -1.0197631606  1.4053946025  1.7698860813
H   2.6103791619  0.2077362671  1.6816897278
H   1.6507406921  1.0090839869 -1.8819952069
H   2.5196516535 -1.3952562766  0.9344662914
H   1.2273558268 -0.8353867393  2.0111036076
H   2.9130525030  1.2292348957 -0.6633572774
H   2.7118704583 -0.3454456900 -1.4511110249
22
Iteration 2  Energy = -72.4209621624
C  -0.8755848060 -1.1573835503  0.1717888853
C   1.2223084956  0.0832702823  0.0327744758
C  -0.8120144430  1.8084487344  0.7664525380
C   1.9373102420 -0.5205502908  1.2468431044
C   2.1848144728  0.5246597406 -1.0636696452
N   0.2357443703 -0.8985631742 -0.5529992003
N  -2.0074077007 -1.6116837801 -0.4240657096
O  -1.6091212749  1.5142537644 -0.2838592630
H  -2.1149717988  0.6824953298 -0.1877147541
H   0.0198530855 -0.7317634249 -1.5341192661
H  -0.8974400484 -0.9224335656  1.2318776630
H   0.5814647611  1.0004658069  0.3984452980
H  -2.7228115924 -1.9176963857  0.2322314470
H  -1.8868051125 -2.2532204361 -1.2077396161
H  -0.3897115099  2.8072321001  0.7306279994
H  -1.0146904421  1.3752562370  1.7509864387
H   2.6151790896  0.2152370295  1.6838677832
H   1.6505945459  1.0059444070 -1.8863077210
H   2.5292488449 -1.3917770660  0.9518834917
H   1.2377921514 -0.8275176792  2.0259905919
H   2.9159086400  1.2330360827 -0.6717698516
H   2.7223267221 -0.3407599271 -1.4615731010
22
Iteration 3  Energy = -72.4241169170
C  -0.8773047652 -1.1842524973  0.1828155121
C   1.2287521659  0.0813710611  0.0316919119
C  -0.8137962961  1.8207782146  0.7571825293
C   1.9439698690 -0.5171200806  1.2525969358
C   2.1883688572  0.5247295949 -1.0705352915
N   0.2281240392 -0.8959185949 -0.5429025997
N  -2.0082987186 -1.6218548304 -0.4231094816
O  -1.6119739459  1.5339801837 -0.2901832365
H  -2.1360715233  0.7157636600 -0.1809216902
H   0.0203004455 -0.7636992936 -1.5293657153
H  -0.8922813015 -1.0020297344  1.2571832749
H   0.5936838656  0.9954251152  0.3928828820
H  -2.7483523593 -1.9026145694  0.2138486302
H  -1.8996351384 -2.2391483384 -1.2278571798
H  -0.3668545011  2.8081053011  0.7236350137
H  -1.0041674912  1.3717493006  1.7356642655
H   2.6235977193  0.2216132159  1.6820593402
H   1.6484787973  1.0049847339 -1.8899329001
H   2.5350863193 -1.3912460272  0.9650683440
H   1.2455763383 -0.8150956646  2.0360415669
H   2.9174488794  1.2364310795 -0.6806931324
H   2.7287585608 -0.3370502178 -1.4717491229
22
Iteration 4  Energy = -72.4263914303
C  -0.8774257156 -1.2155421938  0.1899959874
C   1.2342205053  0.0808731809  0.0308995675
C  -0.8171368853  1.8309520542  0.7495605664
C   1.9511658373 -0.5106175883  1.2567283027
C   2.1899636238  0.5243729396 -1.0775532005
N   0.2230399839 -0.8955968776 -0.5317870771
N  -2.0059514337 -1.6373915516 -0.4271569264
O  -1.6190022250  1.5525304885 -0.2957710469
H  -2.1556397944  0.7433989783 -0.1794438810
H   0.0218654278 -0.7903943491 -1.5225155206
H  -0.8950989615 -1.0600128618  1.2693960908
H   0.6041289415  0.9928377344  0.3863304771
H  -2.7673625415 -1.9046232343  0.1879339677
H  -1.9090491809 -2.2111193947 -1.2652063442
H  -0.3508528843  2.8086437683  0.7162183828
H  -0.9940519148  1.3664655311  1.7218501667
H   2.6331837733  0.2305128646  1.6784489665
H   1.6441660738  1.0016368478 -1.8947289023
H   2.5394442571 -1.3890916004  0.9772173686
H   1.2519731244 -0.7979093056  2.0433708064
H   2.9167152195  1.2405623094 -0.6914316029
H   2.7332282738 -0.3346160551 -1.4802404063
22
Iteration 5  Energy = -72.4282072262
C  -0.8818436106 -1.2404995085  0.1948549589
C   1.2376985366  0.0790603550  0.0331213322
C  -0.8126449376  1.8450697462  0.7514178827
C   1.9573212207 -0.5110104909  1.2587062283
C   2.1892547783  0.5203391316 -1.0811269203
N   0.2159153075 -0.8944122707 -0.5205371298
N  -2.0071606564 -1.6440967358 -0.4322044300
O  -1.6211436001  1.5755397249 -0.2918032510
H  -2.1673769213  0.7731887048 -0.1702649017
H   0.0160509540 -0.7993727198 -1.5124951307
H  -0.9069652921 -1.1375733786  1.2828696488
H   0.6135780968  0.9920653021  0.3861604657
H  -2.7849241554 -1.9095104706  0.1612079954
H  -1.9238676917 -2.1538104337 -1.3129188391
H  -0.3316872378  2.8152265061  0.7195654471
H  -0.9805833806  1.3685653748  1.7181257082
H   2.6455057936  0.2282266905  1.6738384948
H   1.6391694452  0.9975510061 -1.8954618653
H   2.5383016141 -1.3951799015  0.9824631699
H   1.2587307189 -0.7879168813  2.0492663141
H   2.9171637046  1.2373430376 -0.6987583192
H   2.7311614803 -0.3381291808 -1.4865398921
22
Iteration 6  Energy = -72.4297657684
C  -0.8822801877 -1.2672588513  0.1952677983
C   1.2390572769  0.0820404254  0.0352366363
C  -0.8139036487  1.8572229590  0.7486517490
C   1.9648866020 -0.5028336355  1.2595473030
C   2.1859425225  0.5217163207 -1.0845631699
N   0.2135039410 -0.8948852552 -0.5114398712
N  -1.9998655128 -1.6594580898 -0.4402010858
O  -1.6273198933  1.5862440414 -0.2917772135
H  -2.1836361748  0.7939224998 -0.1543526311
H   0.0123082938 -0.8010085791 -1.5038731740
H  -0.9189126875 -1.2221203185  1.2882245036
H   0.6130312705  0.9937452705  0.3861508198
H  -2.7900774885 -1.9312992268  0.1320834999
H  -1.9312080535 -2.0855172701 -1.3660917951
H  -0.3254301366  2.8236642346  0.7102497823
H  -0.9800578780  1.3866478691  1.7174646394
H   2.6574803237  0.2370582900  1.6661311522
H   1.6315184984  0.9956007843 -1.8979025936
H   2.5408686616 -1.3909814682  0.9863235435
H   1.2695291006 -0.7707164480  2.0556715318
H   2.9136087916  1.2415966100 -0.7071910685
H   2.7281184803 -0.3365056166 -1.4900345299
22
Iteration 7  Energy = -72.4310150818
C  -0.8841243884 -1.2898872371  0.1946137379
C   1.2386067948  0.0830357562  0.0383209575
C  -0.8119339459  1.8660487967  0.7482236912
C   1.9745391127 -0.4944625666  1.2598206682
C   2.1795348405  0.5212415691 -1.0884936543
N   0.2127615513 -0.8987372505 -0.5028700504
N  -1.9910243569 -1.6806054038 -0.4480782591
O  -1.6324325702  1.5949014611 -0.2905675858
H  -2.2201884821  0.8319880480 -0.1198068200
H   0.0144443371 -0.8056054771 -1.4969325215
H  -0.9330177065 -1.2568964359  1.2847909847
H   0.6112149700  0.9935592767  0.3881745206
H  -2.7919534964 -1.9588406048  0.1042309662
H  -1.9427718574 -2.0012664669 -1.4172685721
H  -0.3135097116  2.8274555750  0.7038973044
H  -0.9772548712  1.3970460586  1.7171698735
H   2.6732514193  0.2466345463  1.6536226712
H   1.6195703023  0.9911464164 -1.9003772832
H   2.5444834748 -1.3872114924  0.9893160930
H   1.2851620997 -0.7517778459  2.0644347210
H   2.9077615288  1.2441161524 -0.7179978175
H   2.7212877679 -0.3372155645 -1.4941198648
22
Iteration 8  Energy = -72.4319506959
C  -0.8884608304 -1.3081460948  0.1923553082
C   1.2355195869  0.0840197024  0.0415772470
C  -0.8081655891  1.8797026634  0.7432782722
C   1.9811195899 -0.4840059341  1.2610991940
C   2.1702748925  0.5191381951 -1.0926257752
N   0.2115248852 -0.9039138995 -0.4958418512
N  -1.9838210697 -1.7052207489 -0.4599674543
O  -1.6362649388  1.6049595525 -0.2920812202
H  -2.2428670301  0.8630050690 -0.0991413142
H   0.0134581842 -0.8080869277 -1.4908414113
H  -0.9433825559 -1.2861111448  1.2816321697
H   0.6074843895  0.9944222107  0.3888701482
H  -2.7943470884 -1.9902654713  0.0737756533
H  -1.9518845299 -1.9255012102 -1.4554124031
H  -0.2976571314  2.8342440527  0.6867907730
H  -0.9752840263  1.4224511272  1.7173402861
H   2.6864016988  0.2585847598  1.6401205496
H   1.6046204997  0.9849730319 -1.9029320455
H   2.5445639356 -1.3821576636  0.9951768089
H   1.2967810145 -0.7288637622  2.0740260548
H   2.9001118714  1.2444019960 -0.7301572165
H   2.7098636218 -0.3408437920 -1.4979740367
22
Iteration 9  Energy = -72.4326124863
C  -0.8907831749 -1.3283694069  0.1922443057
C   1.2310052123  0.0847437608  0.0442741115
C  -0.7990790094  1.8987062844  0.7351907795
C   1.9837434369 -0.4728905047  1.2636189937
C   2.1605734387  0.5156994268 -1.0963823600
N   0.2085568935 -0.9084849863 -0.4893124992
N  -1.9778221039 -1.7303966308 -0.4685752129
O  -1.6365796558  1.6194249877 -0.2942191212
H  -2.2436694425  0.8823825209 -0.0879596399
H   0.0114201690 -0.8135484163 -1.4853477886
H  -0.9441133585 -1.3268902718  1.2820706832
H   0.6023410191  0.9972733198  0.3882494548
H  -2.7914947791 -2.0257489669  0.0543660957
H  -1.9604088947 -1.8753301391 -1.4755176287
H  -0.2823644195  2.8490721693  0.6667906896
H  -0.9647547385  1.4507885408  1.7137566435
H   2.6949123728  0.2713634260  1.6280562897
H   1.5909873579  0.9789527857 -1.9054141871
H   2.5414060988 -1.3764984832  1.0043006402
H   1.3038224402 -0.7042364461  2.0842446793
H   2.8925651531  1.2421647683 -0.7408473855
H   2.6975655612 -0.3461604022 -1.5013103853
22
Iteration 10  Energy = -72.4332819656
C  -0.8848708739 -1.3548673200  0.1944230176
C   1.2290165489  0.0847267368  0.0415792085
C  -0.7937775421  1.9177326175  0.7239190561
C   1.9852577659 -0.4663920828  1.2612585327
C   2.1564733237  0.5101980464 -1.1037614864
N   0.2062557931 -0.9105666530 -0.4874689914
N  -1.9773657819 -1.7385260965 -0.4694471402
O  -1.6366027338  1.6334221140 -0.3011943900
H  -2.2485731843  0.9035595336 -0.0826012831
H  -0.0009981321 -0.7986548172 -1.4800456933
H  -0.9133749689 -1.4283334662  1.2868870550
H   0.6036695992  0.9992155482  0.3797082492
H  -2.7844696791 -2.0564645726  0.0513081256
H  -1.9766805185 -1.8312359464 -1.4814259987
H  -0.2762328076  2.8672448688  0.6538174739
H  -0.9441553522  1.4547213529  1.6976447730
H   2.7009751667  0.2780382708  1.6162916602
H   1.5851788571  0.9719477167 -1.9125015395
H   2.5385830237 -1.3741451476  1.0072412929
H   1.3078283125 -0.6872832494  2.0867008978
H   2.8909527824  1.2367111540 -0.7533869960
H   2.6907864751 -0.3538004368 -1.5078702436
22
Iteration 11  Energy = -72.4337204770
C  -0.8831950326 -1.3746138275  0.1867735124
C   1.2254138012  0.0813624072  0.0338703904
C  -0.7955053495  1.9230187241  0.7000496262
C   1.9796561674 -0.4627262149  1.2577764381
C   2.1550710489  0.5002054131 -1.1123620507
N   0.2038069901 -0.9166550512 -0.4930385460
N  -1.9768684923 -1.7503219329 -0.4794695978
O  -1.6362735778  1.6390326843 -0.3268978475
H  -2.2744809885  0.9327265483 -0.1031003255
H  -0.0070786767 -0.7975554109 -1.4840863030
H  -0.9057393583 -1.4670925263  1.2764158890
H   0.6005207173  0.9987201516  0.3636215364
H  -2.7768141172 -2.0915069072  0.0381862639
H  -1.9819328411 -1.8174936277 -1.4921986987
H  -0.2739851513  2.8702580604  0.6300116215
H  -0.9441364211  1.4574387603  1.6721663939
H   2.6969485134  0.2826741597  1.6075201821
H   1.5849508333  0.9586387744 -1.9238301502
H   2.5311147063 -1.3735449015  1.0108884923
H   1.3014838796 -0.6753814759  2.0846262150
H   2.8898550793  1.2277658119 -0.7648062629
H   2.6888516050 -0.3663121194 -1.5118070453
22
Iteration 12  Energy = -72.4342926220
C  -0.8783203492 -1.4014480407  0.1818630873
C   1.2196355006  0.0808584882  0.0340793128
C  -0.7921531400  1.9319897824  0.6958247805
C   1.9724796261 -0.4607278199  1.2593354001
C   2.1504710132  0.4984066186 -1.1119499801
N   0.1999043141 -0.9183415215 -0.4956829764
N  -1.9766997631 -1.7593682142 -0.4855118046
O  -1.6345019761  1.6591717855 -0.3343627376
H  -2.3353047152  1.0147768840 -0.0921652963
H  -0.0225468060 -0.7761240968 -1.4817493999
H  -0.8939575690 -1.5173187642  1.2695351944
H   0.5948304409  0.9994070667  0.3593259975
H  -2.7620997386 -2.1399079126  0.0283159350
H  -1.9920265964 -1.7893504244 -1.5001309573
H  -0.2552906700  2.8707177628  0.6301138373
H  -0.9407286263  1.4587761952  1.6637026144
H   2.6928136923  0.2835720423  1.6050682090
H   1.5803060068  0.9583851445 -1.9225046883
H   2.5203785028 -1.3746828608  1.0163245609
H   1.2940185308 -0.6664684743  2.0876117560
H   2.8868439242  1.2244113864 -0.7645436649
H   2.6819570685 -0.3690834249 -1.5123146367
22
Iteration 13  Energy = -72.4346999005
C  -0.8734814571 -1.4281258216  0.1736435493
C   1.2110250852  0.0809103835  0.0346703384
C  -0.7751036070  1.9387207800  0.6939327940
C   1.9621267718 -0.4580812966  1.2611308175
C   2.1419984498  0.5018294565 -1.1093023285
N   0.1947051809 -0.9180658502 -0.5005598970
N  -1.9748995885 -1.7757327457 -0.4931622960
O  -1.6327359354  1.6819363161 -0.3310977388
H  -2.3034163060  1.0102031275 -0.0942780710
H  -0.0373961725 -0.7548072154 -1.4812364398
H  -0.8795614106 -1.5740398968  1.2578966187
H   0.5796647253  1.0032820668  0.3600353196
H  -2.7533791172 -2.1735782109  0.0162853148
H  -2.0049636687 -1.7653705405 -1.5080639742
H  -0.2425940589  2.8808660280  0.6343371320
H  -0.9293421443  1.4678411355  1.6622228598
H   2.6848636821  0.2856573757  1.6028981666
H   1.5720561753  0.9639290055 -1.9187898944
H   2.5071705445 -1.3746808101  1.0219242430
H   1.2835098522 -0.6572071409  2.0909095301
H   2.8779942979  1.2270612624 -0.7595496797
H   2.6737039032 -0.3645163702 -1.5119064694
22
Iteration 14  Energy = -72.4349685387
C  -0.8702058339 -1.4468603908  0.1667428035
C   1.2019621646  0.0814974736  0.0308433633
C  -0.7533389046  1.9428323934  0.6892176954
C   1.9518127191 -0.4528738682  1.2592566349
C   2.1305895184  0.5078616271 -1.1117821335
N   0.1883736434 -0.9164806465 -0.5065226034
N  -1.9722161063 -1.7955686561 -0.4974701988
O  -1.6294214307  1.7065313638 -0.3275900729
H  -2.2667290541  0.9993287974 -0.1032509676
H  -0.0492725754 -0.7442522028 -1.4840038895
H  -0.8661031143 -1.6102391098  1.2485715454
H   0.5666934257  1.0081294890  0.3575136553
H  -2.7456535148 -2.2038128733  0.0109557482
H  -2.0146980252 -1.7569615275 -1.5106940152
H  -0.2311168513  2.8922679966  0.6430180533
H  -0.9047770568  1.4646902189  1.6542472312
H   2.6746300455  0.2923205452  1.5975438297
H   1.5588234903  0.9696743490 -1.9201201611
H   2.4964352321 -1.3708122003  1.0245630888
H   1.2728418454 -0.6469951219  2.0899020125
H   2.8633948362  1.2354991302 -0.7602698584
H   2.6657601306 -0.3554500284 -1.5163661987
22
Iteration 15  Energy = -72.4351229743
C  -0.8683640747 -1.4607613044  0.1642488315
C   1.1952131771  0.0808527966  0.0341987599
C  -0.7304674935  1.9556364924  0.6856720289
C   1.9370340803 -0.4486001344  1.2687558231
C   2.1258717360  0.5092533543 -1.1048014694
N   0.1830197116 -0.9134960584 -0.5060463163
N  -1.9656428722 -1.8195366804 -0.5011324991
O  -1.6211861468  1.7247696289 -0.3213416513
H  -2.2258864370  0.9877581235 -0.1061207958
H  -0.0537931271 -0.7398807411 -1.4831726121
H  -0.8606627689 -1.6310914645  1.2449270430
H   0.5608498025  1.0141451511  0.3588820775
H  -2.7343333472 -2.2399055463  0.0045458818
H  -2.0145962277 -1.7612343604 -1.5127317794
H  -0.2135234693  2.9082379810  0.6384596464
H  -0.8801890414  1.4836584560  1.6540114101
H   2.6585871960  0.2977682186  1.6070720804
H   1.5551625345  0.9691885560 -1.9149729645
H   2.4818059401 -1.3684987414  1.0423479770
H   1.2529551023 -0.6365931312  2.0966721664
H   2.8548327053  1.2396709016 -0.7508123086
H   2.6652902154 -0.3521768675 -1.5077766521
22
Iteration 16  Energy = -72.4352013544
C  -0.8685362634 -1.4735194426  0.1570741094
C   1.1880892501  0.0782988526  0.0287521509
C  -0.7128941652  1.9744597626  0.6745300337
C   1.9255449289 -0.4472924113  1.2666402661
C   2.1192204614  0.5076870752 -1.1087212569
N   0.1776019114 -0.9158248833 -0.5127558987
N  -1.9630290884 -1.8393105008 -0.5075997115
O  -1.6265286285  1.7196073904 -0.3080749573
H  -2.2064494089  0.9689552002 -0.0748508566
H  -0.0608031364 -0.7407075444 -1.4890682144
H  -0.8596117923 -1.6429735445  1.2378977717
H   0.5538323608  1.0164334337  0.3526447249
H  -2.7272881401 -2.2682635758 -0.0024898036
H  -2.0161919271 -1.7736341231 -1.5183426582
H  -0.1888512469  2.9209726902  0.5813819386
H  -0.8593293321  1.5531336192  1.6687019205
H   2.6474506829  0.2994810806  1.6032706084
H   1.5482131712  0.9666620846 -1.9192524893
H   2.4692405843 -1.3692434972  1.0461094678
H   1.2388707441 -0.6293363187  2.0937994250
H   2.8465534133  1.2394348363 -0.7540116170
H   2.6603454309 -0.3528430078 -1.5112557924
22
Iteration 17  Energy = -72.4353000597
C  -0.8662104539 -1.4831842925  0.1560349987
C   1.1836568214  0.0787953174  0.0348126550
C  -0.6927405456  1.9991439100  0.6646554204
C   1.9155461341 -0.4444490870  1.2760805952
C   2.1178791023  0.5110884410 -1.0984301755
N   0.1764479336 -0.9151674046 -0.5112620793
N  -1.9633137321 -1.8408098635 -0.5082687061
O  -1.6289326198  1.7194862080 -0.2913824069
H  -2.1951847778  0.9673215362 -0.0316281241
H  -0.0663719757 -0.7285716843 -1.4842679277
H  -0.8515479376 -1.6715689359  1.2336932643
H   0.5476629687  1.0209743578  0.3573890760
H  -2.7260864435 -2.2727338618 -0.0036268848
H  -2.0213576752 -1.7651316854 -1.5181393280
H  -0.1587471382  2.9339954563  0.5217550026
H  -0.8352146666  1.6317103710  1.6812130160
H   2.6396902337  0.3008893465  1.6111516929
H   1.5491198502  0.9722016270 -1.9093637044
H   2.4560922998 -1.3695525824  1.0610975559
H   1.2263091691 -0.6192506337  2.1027554687
H   2.8437593391  1.2423809645 -0.7396427348
H   2.6607253584 -0.3480418373 -1.5016125320
22
Iteration 18  Energy = -72.4354400114
C  -0.8628308202 -1.5023915275  0.1505419514
C   1.1797687567  0.0788232681  0.0412077224
C  -0.6792022459  2.0233692948  0.6521462771
C   1.9076825064 -0.4449520018  1.2838482747
C   2.1166819227  0.5135928151 -1.0886983416
N   0.1740521421 -0.9145831520 -0.5097651746
N  -1.9654722420 -1.8408457152 -0.5149508033
O  -1.6295928659  1.7184324839 -0.2830264575
H  -2.1881849317  0.9697806891  0.0018122015
H  -0.0739998662 -0.7127220018 -1.4783678350
H  -0.8373765151 -1.7328798080  1.2209964766
H   0.5421471987  1.0225013296  0.3633419567
H  -2.7235598629 -2.2876634195 -0.0159668921
H  -2.0309404606 -1.7401739947 -1.5224441972
H  -0.1344925962  2.9434875805  0.4619752217
H  -0.8196006930  1.7100630890  1.6871347969
H   2.6351250360  0.2976164383  1.6180289401
H   1.5501192303  0.9793817880 -1.8984936074
H   2.4437073852 -1.3733276423  1.0719249542
H   1.2161955318 -0.6134305012  2.1100502024
H   2.8434614249  1.2421041735 -0.7259550503
H   2.6586429954 -0.3448882079 -1.4943901204
22
Iteration 19  Energy = -72.4355288223
C  -0.8612468521 -1.5155758068  0.1485928358
C   1.1722576071  0.0783309183  0.0312914496
C  -0.6662328027  2.0351244527  0.6332641777
C   1.9016530269 -0.4419658558  1.2737445846
C   2.1050939568  0.5136964199 -1.1009688587
N   0.1650972610 -0.9140216674 -0.5156809216
N  -1.9687897403 -1.8522089356 -0.5101511881
O  -1.6426764286  1.7104104879 -0.2689767804
H  -2.1888941041  0.9647421167  0.0460258431
H  -0.0926759483 -0.7047535990 -1.4801137086
H  -0.8222077144 -1.7591379135  1.2150028898
H   0.5359498390  1.0258979566  0.3519713434
H  -2.7145072282 -2.3214125453 -0.0124199166
H  -2.0456865067 -1.7352950308 -1.5149742441
H  -0.1308151670  2.9536315486  0.4136848301
H  -0.7750618317  1.7355137217  1.6742819718
H   2.6326969238  0.2995371849  1.6023290559
H   1.5355423403  0.9770217400 -1.9100835060
H   2.4334196311 -1.3733700071  1.0646838111
H   1.2119469878 -0.6037080605  2.1028309074
H   2.8307318655  1.2446290946 -0.7406891082
H   2.6482326091 -0.3437967509 -1.5071717175
22
Iteration 20  Energy = -72.4355861620
C  -0.8597596941 -1.5220582696  0.1428558614
C   1.1680847316  0.0767892114  0.0243119262
C  -0.6452269512  2.0455998414  0.6251659564
C   1.8921970476 -0.4436977995  1.2689283158
C   2.1015748942  0.5130832516 -1.1058445047
N   0.1583204758 -0.9091581476 -0.5234391099
N  -1.9707761847 -1.8571013852 -0.5105329532
O  -1.6514614400  1.7058074231 -0.2397911049
H  -2.1807276796  0.9603031354  0.1027475723
H  -0.1066852901 -0.6904451971 -1.4836769411
H  -0.8094433175 -1.7770845075  1.2058362923
H   0.5343621450  1.0309457691  0.3445928397
H  -2.7093696320 -2.3367217365 -0.0126164075
H  -2.0586893067 -1.7238068973 -1.5123814511
H  -0.1146698100  2.9578838934  0.3696793402
H  -0.7284185565  1.7737667157  1.6760894990
H   2.6285633695  0.2935272961  1.5952467224
H   1.5324915172  0.9781290650 -1.9143597536
H   2.4170238750 -1.3799915747  1.0642195291
H   1.2006623776 -0.5966227134  2.0982985710
H   2.8270239335  1.2434778865 -0.7438616541
H   2.6448628083 -0.3436966687 -1.5134203844
22
Iteration 21  Energy = -72.4356787280
C  -0.8582311451 -1.5313668203  0.1392098015
C   1.1590147102  0.0713215716  0.0196715118
C  -0.6128843214  2.0359762663  0.6127392448
C   1.8739452033 -0.4344853739  1.2713414833
C   2.0888553071  0.5221775756 -1.1025249649
N   0.1551683088 -0.9104337051 -0.5280740833
N  -1.9738294296 -1.8582263491 -0.5095728214
O  -1.6490087117  1.7054054687 -0.2301203314
H  -2.1686310206  0.9636828520  0.1296869441
H  -0.1126062142 -0.6881908667 -1.4867619696
H  -0.7976474998 -1.8000892001  1.1980290588
H   0.5092450844  1.0441634411  0.3433639409
H  -2.7090331928 -2.3425590572 -0.0113274382
H  -2.0693885766 -1.7137751128 -1.5090675779
H  -0.0868548320  2.9446074258  0.3382210872
H  -0.7078926106  1.8108823379  1.6741863601
H   2.6064171986  0.3072389682  1.5962596590
H   1.5175385147  0.9820216688 -1.9124225263
H   2.4025247894 -1.3712907895  1.0785321203
H   1.1765801538 -0.5814719740  2.0969947918
H   2.8031281459  1.2612849967 -0.7352282201
H   2.6451768177 -0.3263700462 -1.5102912137
22
Iteration 22  Energy = -72.4358827547
C  -0.8481419899 -1.5417209272  0.1353348587
C   1.1579231607  0.0641635491  0.0155716807
C  -0.5813083385  2.0304431967  0.6057834919
C   1.8562745817 -0.4227050815  1.2787855386
C   2.0840249205  0.5309285907 -1.0967210537
N   0.1572046566 -0.9040381198 -0.5306198656
N  -1.9652376527 -1.8652340026 -0.5107591052
O  -1.6465006763  1.7024878559 -0.2172555025
H  -2.1489516808  0.9587275441  0.1579619980
H  -0.1097017648 -0.6847379855 -1.4906162918
H  -0.7782096106 -1.8207213095  1.1904172464
H   0.4882823907  1.0702293682  0.3466393463
H  -2.6957534990 -2.3582039200 -0.0140319026
H  -2.0672573153 -1.7089887805 -1.5078148637
H  -0.0852018522  2.9540300953  0.3198628018
H  -0.6857149628  1.8535256381  1.6759119503
H   2.5806580065  0.3261162543  1.6062718200
H   1.5127328066  0.9870700993 -1.9091526964
H   2.3929269153 -1.3586641735  1.1032447183
H   1.1486007709 -0.5649724087  2.0970014056
H   2.7894763610  1.2762726826 -0.7239809427
H   2.6524146368 -0.3092321640 -1.5061413279
22
Iteration 23  Energy = -72.4359376506
C  -0.8395267290 -1.5440182026  0.1340308973
C   1.1712001031  0.0561073769  0.0271824394
C  -0.5607899823  2.0302022373  0.6151159050
C   1.8599941225 -0.4320288277  1.2940028267
C   2.1010755787  0.5292783113 -1.0783095949
N   0.1681500151 -0.9017835978 -0.5247747148
N  -1.9562789369 -1.8586283086 -0.5167914055
O  -1.6295614808  1.7062693522 -0.2081467733
H  -2.1351028272  0.9649306166  0.1667167284
H  -0.0943799143 -0.6787570128 -1.4853451831
H  -0.7713298391 -1.8337685440  1.1863587350
H   0.4954268066  1.0718573508  0.3613589774
H  -2.6889567900 -2.3540307548 -0.0257511813
H  -2.0558123328 -1.6939938789 -1.5126876272
H  -0.0640739718  2.9512650702  0.3235129378
H  -0.6708324912  1.8666193718  1.6862472905
H   2.5840140932  0.3150596815  1.6268168711
H   1.5340170058  0.9896240887 -1.8916572681
H   2.3965643283 -1.3687673410  1.1212614565
H   1.1475923965 -0.5744299091  2.1083249677
H   2.8058958827  1.2723990523 -0.6993068707
H   2.6713636598 -0.3087952607 -1.4900558025
22
Iteration 24  Energy = -72.4359939174
C  -0.8316375425 -1.5354360566  0.1320852875
C   1.1812091598  0.0601579073  0.0369278901
C  -0.5432757061  2.0369484372  0.6239041432
C   1.8610564772 -0.4275472670  1.3078647758
C   2.1144198628  0.5408537662 -1.0614917909
N   0.1782555568 -0.8892315757 -0.5204128036
N  -1.9464299930 -1.8451426659 -0.5239217797
O  -1.6158512808  1.7182054258 -0.2003927710
H  -2.1226449494  0.9778632190  0.1739520314
H  -0.0794009859 -0.6642815499 -1.4819496070
H  -0.7660704051 -1.8318174534  1.1826682826
H   0.5005768765  1.0839345162  0.3738417394
H  -2.6811510695 -2.3427018241 -0.0381275283
H  -2.0427639169 -1.6740867341 -1.5190171142
H  -0.0484630095  2.9591331571  0.3317790223
H  -0.6604310076  1.8832230891  1.6960282287
H   2.5830741523  0.3194133756  1.6457198693
H   1.5507279437  1.0046773896 -1.8753817035
H   2.3991309075 -1.3642778740  1.1389563269
H   1.1435963527 -0.5704035094  2.1178501298
H   2.8171166299  1.2828123696 -0.6758402003
H   2.6880182216 -0.2939692137 -1.4756962001
22
Iteration 25  Energy = -72.4362683968
C  -0.8206858331 -1.5447382737  0.1205779015
C   1.1869057906  0.0467507053  0.0294239522
C  -0.5156369838  2.0272788728  0.6278453026
C   1.8519255884 -0.4241176097  1.3114815842
C   2.1143395363  0.5557116031 -1.0575042420
N   0.1837608792 -0.8815138522 -0.5273313278
N  -1.9351772510 -1.8481663994 -0.5369989037
O  -1.6076909021  1.7156705317 -0.1876057534
H  -2.1087717021  0.9762456647  0.1937439122
H  -0.0711806307 -0.6564686682 -1.4899911762
H  -0.7482394695 -1.8577759191  1.1658961137
H   0.4909660421  1.0980780639  0.3784790614
H  -2.6674747948 -2.3549431834 -0.0569669183
H  -2.0351072290 -1.6599427466 -1.5286973444
H  -0.0374801605  2.9575632930  0.3284189424
H  -0.6430063346  1.9044904896  1.7046493415
H   2.5633989255  0.3314586621  1.6542135099
H   1.5480754991  1.0243403214 -1.8674949032
H   2.4008393548 -1.3579976534  1.1586077135
H   1.1251408483 -0.5668283382  2.1138149745
H   2.8077528839  1.3011031735 -0.6600521303
H   2.7009682257 -0.2646755176 -1.4841312850
22
Iteration 26  Energy = -72.4393647985
C  -0.8240995535 -1.5437967712  0.1254538322
C   1.1897015400  0.0296901138  0.0238194891
C  -0.4914799423  2.0117622899  0.6268636865
C   1.8415575431 -0.4156960059  1.3129706108
C   2.1040376606  0.5600507348 -1.0531839381
N   0.1811638410 -0.8745765492 -0.5225893427
N  -1.9369418339 -1.8473584295 -0.5323832567
O  -1.6151347532  1.7182144935 -0.1878182886
H  -2.1071971901  0.9786339070  0.1990222820
H  -0.0719278727 -0.6573045534 -1.4892546895
H  -0.7484363738 -1.8545085565  1.1696670734
H   0.4051068728  1.1799150591  0.4031388948
H  -2.6694988273 -2.3540528039 -0.0526417441
H  -2.0370719166 -1.6572415805 -1.5234080848
H  -0.0657301986  2.9758534859  0.3367168672
H  -0.6639336738  1.9421608580  1.7076403812
H   2.5526265850  0.3422944393  1.6525580626
H   1.5342592011  1.0273742570 -1.8617214459
H   2.3941223801 -1.3496349961  1.1701274817
H   1.1118117015 -0.5568392090  2.1130492543
H   2.7960550246  1.3058725850 -0.6529844464
H   2.6958994594 -0.2542949433 -1.4854663714
22
Iteration 27  Energy = -72.4443534092
C  -0.8168757663 -1.5365700687  0.1196246197
C   1.2044819470  0.0185398009  0.0175928491
C  -0.4805792301  2.0163770099  0.6272068844
C   1.8445557334 -0.4097566733  1.3154677341
C   2.1136956302  0.5698930661 -1.0489165070
N   0.1926581076 -0.8624556852 -0.5236191894
N  -1.9268135957 -1.8386942989 -0.5424411254
O  -1.6091641838  1.7269782336 -0.1953983229
H  -2.1009584227  0.9858596137  0.1891974690
H  -0.0556268698 -0.6480755371 -1.4927937444
H  -0.7434434833 -1.8481566770  1.1625907426
H   0.3438746996  1.2774561662  0.4395778313
H  -2.6611317356 -2.3461628189 -0.0659091142
H  -2.0236162979 -1.6472397143 -1.5334319462
H  -0.0774220297  2.9925585123  0.3440513639
H  -0.6777775097  1.9637808265  1.7050883013
H   2.5576558823  0.3480158752  1.6579754786
H   1.5442855152  1.0389586523 -1.8587981351
H   2.3997804523 -1.3455055710  1.1797209849
H   1.1111830727 -0.5528010147  2.1142082575
H   2.8056947392  1.3155945926 -0.6438776203
H   2.7108051270 -0.2401002949 -1.4867163747
22
Iteration 28  Energy = -72.4498002605
C  -0.8133785374 -1.5335836810  0.1241543798
C   1.2231461728 -0.0186843708  0.0033787196
C  -0.4793691755  2.0309296052  0.6360807639
C   1.8438634495 -0.4055830104  1.3161075095
C   2.1135019698  0.5738335805 -1.0478031711
N   0.1970796583 -0.8518548972 -0.5194571525
N  -1.9209451573 -1.8355685263 -0.5395656930
O  -1.6111506924  1.7296841784 -0.1965907787
H  -2.1016307254  0.9884310201  0.1909565058
H  -0.0451305661 -0.6431914605 -1.4919047263
H  -0.7384859258 -1.8470014216  1.1661051818
H   0.3515468229  1.3143304052  0.4637558613
H  -2.6558177616 -2.3439123574 -0.0644591640
H  -2.0174558412 -1.6413817168 -1.5299249869
H  -0.1112250670  3.0218635982  0.3516520027
H  -0.7061104383  2.0027179213  1.7096202980
H   2.5543804689  0.3601520828  1.6508032092
H   1.5389977557  1.0481013524 -1.8534447517
H   2.4069958810 -1.3440380510  1.2077373757
H   1.1058083914 -0.5428351224  2.1141498217
H   2.8004607113  1.3201969206 -0.6312151077
H   2.7238597527 -0.2192299724 -1.5061538582
22
Iteration 29  Energy = -72.4526895956
C  -0.8177800853 -1.5420263612  0.1239104802
C   1.2335837987 -0.0571292558 -0.0111629951
C  -0.4832018194  2.0267437317  0.6357612403
C   1.8404998965 -0.4192341023  1.3103010660
C   2.1105322334  0.5582037439 -1.0548811612
N   0.1932381533 -0.8619673536 -0.5234064342
N  -1.9234193599 -1.8452657788 -0.5412602462
O  -1.6118118233  1.7203192124 -0.2083917423
H  -2.1032016403  0.9786463683  0.1775643552
H  -0.0446043463 -0.6584325284 -1.4981330783
H  -0.7436172382 -1.8517390920  1.1669057588
H   0.3520224813  1.3181103437  0.4714398330
H  -2.6600582565 -2.3513760513 -0.0663951541
H  -2.0175838432 -1.6532176700 -1.5321265518
H  -0.1285360610  3.0229622701  0.3541842140
H  -0.7272961611  2.0047894035  1.7051499893
H   2.5485652197  0.3526505802  1.6378543525
H   1.5311268242  1.0373620662 -1.8550898307
H   2.4072380870 -1.3587001571  1.2241415530
H   1.0983840892 -0.5479167199  2.1070828025
H   2.7933189871  1.3048237984 -0.6303641440
H   2.7288989212 -0.2208747269 -1.5282865517
22
Iteration 30  Energy = -72.4568985776
C  -0.8176842429 -1.5371499691  0.1269714176
C   1.2537424665 -0.0896360743 -0.0224725952
C  -0.4917005997  2.0472894699  0.6454058366
C   1.8353264348 -0.4163703696  1.3123553819
C   2.1092926591  0.5629479286 -1.0526680614
N   0.1909071067 -0.8531530141 -0.5228383901
N  -1.9208130522 -1.8406684996 -0.5407076508
O  -1.6149793596  1.7239295604 -0.2090400334
H  -2.1011560077  0.9802364376  0.1794038060
H  -0.0426616091 -0.6524987842 -1.4991602640
H  -0.7412177052 -1.8484142786  1.1690074523
H   0.3445188602  1.3588145193  0.5005363943
H  -2.6587022276 -2.3477575866 -0.0686756033
H  -2.0136887719 -1.6442323599 -1.5306656112
H  -0.1530078109  3.0469327921  0.3574720283
H  -0.7540356107  2.0391732142  1.7105991164
H   2.5386424024  0.3646563203  1.6334287791
H   1.5204928817  1.0515143166 -1.8423180277
H   2.4077724984 -1.3569569466  1.2627400760
H   1.0833401910 -0.5308468590  2.1041058743
H   2.7846031709  1.3110185398 -0.6148613780
H   2.7415667621 -0.1910081618 -1.5521279620
22
Iteration 31  Energy = -72.4603694753
C  -0.8190033422 -1.5284223769  0.1308122298
C   1.2719102163 -0.1175313857 -0.0335976750
C  -0.5025909296  2.0706315126  0.6548523574
C   1.8299229975 -0.4127550391  1.3141447594
C   2.1081953311  0.5684343231 -1.0524612032
N   0.1871891175 -0.8431442868 -0.5234343813
N  -1.9196953799 -1.8336588487 -0.5387263393
O  -1.6170334998  1.7301731586 -0.2119351137
H  -2.0976900796  0.9835053444  0.1774920117
H  -0.0421893050 -0.6462482620 -1.5014082428
H  -0.7403524426 -1.8380658230  1.1729495122
H   0.3396583873  1.3930433129  0.5300526172
H  -2.6591847591 -2.3405033205 -0.0688556522
H  -2.0107669562 -1.6341370843 -1.5280256499
H  -0.1747558144  3.0710063471  0.3600228392
H  -0.7811267041  2.0711560591  1.7149158936
H   2.5288257125  0.3764115426  1.6280425712
H   1.5058583256  1.0668667921 -1.8266950510
H   2.4041625090 -1.3540883411  1.3030122897
H   1.0653688888 -0.5085262384  2.0977433652
H   2.7760669502  1.3167317713 -0.6017707477
H   2.7505164138 -0.1589373813 -1.5793096272
22
Iteration 32  Energy = -72.4635880069
C  -0.8154636728 -1.5240782737  0.1329764841
C   1.2917997353 -0.1454930488 -0.0464435078
C  -0.5141586736  2.0969862450  0.6628331286
C   1.8285168055 -0.4107057010  1.3138329520
C   2.1088589817  0.5726159478 -1.0554495064
N   0.1869201446 -0.8361477946 -0.5256773615
N  -1.9154507596 -1.8305369051 -0.5359238236
O  -1.6173195016  1.7314274053 -0.2122062258
H  -2.0897847544  0.9815506187  0.1809238326
H  -0.0405440367 -0.6416916401 -1.5042624398
H  -0.7324042395 -1.8342290854  1.1743226999
H   0.3407888531  1.4449017096  0.5607646230
H  -2.6551548607 -2.3378154312 -0.0667817028
H  -2.0078022204 -1.6268929829 -1.5241042190
H  -0.1982793279  3.0970729407  0.3573376795
H  -0.8019245008  2.1032050709  1.7192146209
H   2.5239953403  0.3854461930  1.6198104257
H   1.4927747900  1.0804734605 -1.8134985197
H   2.4026907146 -1.3522334862  1.3375045987
H   1.0524037647 -0.4875403387  2.0892443633
H   2.7712984570  1.3198224052 -0.5936974838
H   2.7571223966 -0.1307714246 -1.6075702113
22
Iteration 33  Energy = -72.4662299828
C  -0.8143893132 -1.5274657241  0.1354764117
C   1.3073248617 -0.1782554004 -0.0574509822
C  -0.5290576576  2.1187835711  0.6729465307
C   1.8239597816 -0.4196688009  1.3143524733
C   2.1077978402  0.5666641407 -1.0581698439
N   0.1851856043 -0.8392369271 -0.5280839569
N  -1.9143081462 -1.8349066012 -0.5317193767
O  -1.6178041662  1.7251659944 -0.2124535776
H  -2.0811691854  0.9712168225  0.1837201047
H  -0.0394391965 -0.6504501945 -1.5080041038
H  -0.7278118046 -1.8369618246  1.1765312515
H   0.3408883755  1.4789102404  0.5894879050
H  -2.6542987540 -2.3411840828 -0.0619716986
H  -2.0089000240 -1.6279108718 -1.5188681115
H  -0.2289239378  3.1200593444  0.3560769242
H  -0.8324041975  2.1355446844  1.7249535123
H   2.5195078603  0.3799306856  1.6121595728
H   1.4783765915  1.0872488034 -1.7970427775
H   2.3925719063 -1.3628306843  1.3717737013
H   1.0361136411 -0.4730120197  2.0806911016
H   2.7685124273  1.3090011821 -0.5856902334
H   2.7562241711 -0.1148037675 -1.6363797662
22
Iteration 34  Energy = -72.4684608058
C  -0.8066798607 -1.5272410047  0.1354089680
C   1.3253068370 -0.1997332366 -0.0671411892
C  -0.5418665262  2.1496611334  0.6830171682
C   1.8242153936 -0.4232399508  1.3144309627
C   2.1123120932  0.5671980611 -1.0609564490
N   0.1905129402 -0.8379871577 -0.5317641380
N  -1.9077801551 -1.8339530061 -0.5290323485
O  -1.6134032078  1.7239240719 -0.2114029871
H  -2.0659129950  0.9653048177  0.1885017944
H  -0.0302089943 -0.6572081106 -1.5141355653
H  -0.7160724379 -1.8377062972  1.1755586220
H   0.3430631036  1.5260510660  0.6219284215
H  -2.6473176658 -2.3396687456 -0.0580080138
H  -2.0059625087 -1.6229179369 -1.5149051871
H  -0.2593038090  3.1520193831  0.3535136630
H  -0.8610744637  2.1796313156  1.7302555667
H   2.5233371011  0.3761967438  1.6055896595
H   1.4717504844  1.1008648086 -1.7813679497
H   2.3834548817 -1.3700049343  1.3993049284
H   1.0263993687 -0.4539603292  2.0725102125
H   2.7751004720  1.3021937460 -0.5794338866
H   2.7564639430 -0.0974792559 -1.6628295024
22
Iteration 35  Energy = -72.4704490379
C  -0.7984089656 -1.5276743287  0.1350714960
C   1.3414038217 -0.2169944179 -0.0755880056
C  -0.5564172622  2.1817132982  0.6934299095
C   1.8255858360 -0.4272007483  1.3138373008
C   2.1176958456  0.5657910902 -1.0655072642
N   0.1976463605 -0.8393104297 -0.5355427098
N  -1.9012603217 -1.8335549083 -0.5261226883
O  -1.6073683446  1.7225551139 -0.2108105918
H  -2.0488083530  0.9592940900  0.1926580300
H  -0.0202081652 -0.6645691485 -1.5195937525
H  -0.7051908809 -1.8376638706  1.1748258437
H   0.3394914327  1.5690730784  0.6590142089
H  -2.6404524224 -2.3376328181 -0.0528453045
H  -2.0030555102 -1.6198753968 -1.5110053814
H  -0.2869383984  3.1830781303  0.3497582045
H  -0.8959265798  2.2300912722  1.7344214186
H   2.5311997744  0.3690323103  1.5994258308
H   1.4676714544  1.1130921859 -1.7676339784
H   2.3720535948 -1.3793425249  1.4210162639
H   1.0197631506 -0.4354713642  2.0647764731
H   2.7867492827  1.2916381407 -0.5783243442
H   2.7527019738 -0.0872663088 -1.6894804672
22
Iteration 36  Energy = -72.4721578435
C  -0.7967113381 -1.5317738864  0.1334843332
C   1.3469964654 -0.2324299571 -0.0838728106
C  -0.5812787562  2.2124682045  0.7013637776
C   1.8198586042 -0.4333364578  1.3112282677
C   2.1143991161  0.5619973446 -1.0716220758
N   0.1975223158 -0.8431520072 -0.5399472866
N  -1.9018611759 -1.8369578734 -0.5238874702
O  -1.6093429852  1.7174413865 -0.2108512499
H  -2.0393970310  0.9505177552  0.1981168856
H  -0.0207989133 -0.6691831105 -1.5239141713
H  -0.7008970422 -1.8410820587  1.1728509323
H   0.3251231898  1.6111028325  0.6941852155
H  -2.6402211870 -2.3395518269 -0.0477842347
H  -2.0078810112 -1.6207818176 -1.5077360482
H  -0.3235804415  3.2118252096  0.3436071026
H  -0.9398135749  2.2749015011  1.7347773075
H   2.5351440653  0.3563221316  1.5912060175
H   1.4561923068  1.1244797175 -1.7544643603
H   2.3497061028 -1.3927040756  1.4357791428
H   1.0081525391 -0.4185570392  2.0561821689
H   2.7935685382  1.2761844730 -0.5810927355
H   2.7355779240 -0.0830767224 -1.7175807623
22
Iteration 37  Energy = -72.4735456185
C  -0.7925979672 -1.5365284878  0.1315646582
C   1.3516066581 -0.2417369476 -0.0909773918
C  -0.6061762919  2.2435398260  0.7093299311
C   1.8163075169 -0.4389188786  1.3073506714
C   2.1143690198  0.5546367100 -1.0805199826
N   0.1991428446 -0.8475370175 -0.5446832492
N  -1.9006586624 -1.8407730441 -0.5210722802
O  -1.6097390807  1.7129931749 -0.2109368968
H  -2.0300642578  0.9438177377  0.2040903467
H  -0.0216487466 -0.6707605800 -1.5270955247
H  -0.6936223237 -1.8452078140  1.1704249259
H   0.3075242362  1.6486816880  0.7250542718
H  -2.6377826933 -2.3417297979 -0.0413808812
H  -2.0118306477 -1.6222004254 -1.5038072279
H  -0.3585533982  3.2404359725  0.3385030322
H  -0.9835647601  2.3169656007  1.7345651608
H   2.5473655713  0.3386421509  1.5803231560
H   1.4508787602  1.1378842217 -1.7413086720
H   2.3226025914 -1.4093508620  1.4458257402
H   1.0012177804 -0.3967308537  2.0482815386
H   2.8113019884  1.2511519768 -0.5896673431
H   2.7121316723 -0.0890905852 -1.7499993117
22
Iteration 38  Energy = -72.4746468739
C  -0.7855299055 -1.5396549744  0.1351428914
C   1.3567987912 -0.2462017428 -0.0983987384
C  -0.6276317054  2.2746681636  0.7160150003
C   1.8180659203 -0.4394423301  1.3019145329
C   2.1153126071  0.5470687434 -1.0936239848
N   0.2018972643 -0.8506415083 -0.5468855161
N  -1.8977035467 -1.8442229545 -0.5102372917
O  -1.6084799140  1.7102114376 -0.2089359384
H  -2.0194589288  0.9398685419  0.2134475251
H  -0.0255797980 -0.6699272401 -1.5264619440
H  -0.6809544495 -1.8461620810  1.1738321345
H   0.2944165493  1.6927872184  0.7536505351
H  -2.6322341458 -2.3438104573 -0.0251290545
H  -2.0156340010 -1.6251879886 -1.4920861945
H  -0.3901348315  3.2685013280  0.3310003402
H  -1.0198040494  2.3586613684  1.7344279879
H   2.5680916782  0.3230109169  1.5655701454
H   1.4488896725  1.1490391435 -1.7348284703
H   2.2978436008 -1.4218127104  1.4518048098
H   1.0033356522 -0.3684577261  2.0416678961
H   2.8312946228  1.2265490540 -0.6068285450
H   2.6880069997 -0.0987151062 -1.7830266639
22
Iteration 39  Energy = -72.4755663947
C  -0.7848312456 -1.5414229930  0.1339010490
C   1.3617563082 -0.2565234829 -0.0958631648
C  -0.6471171291  2.3016361273  0.7287877218
C   1.8171797120 -0.4592512153  1.3055497063
C   2.1228641812  0.5357344742 -1.0896674335
N   0.2035833247 -0.8527142614 -0.5464782173
N  -1.8988136623 -1.8404225173 -0.5110260542
O  -1.6052035041  1.7135373909 -0.2053926949
H  -2.0104522382  0.9411043844  0.2187199862
H  -0.0260808034 -0.6638484303 -1.5235470875
H  -0.6806351742 -1.8494195845  1.1720263343
H   0.2801031058  1.7282875059  0.7853014258
H  -2.6346418701 -2.3384625598 -0.0263006237
H  -2.0172697845 -1.6181008541 -1.4920656910
H  -0.4141687586  3.2929863606  0.3347999788
H  -1.0565353906  2.3943892594  1.7398570420
H   2.5888157599  0.2816104659  1.5677107850
H   1.4604043852  1.1626920057 -1.7114302056
H   2.2646149992 -1.4564899483  1.4586914358
H   1.0030934441 -0.3623910250  2.0435172131
H   2.8595999157  1.1917098904 -0.6018902614
H   2.6703448486 -0.1107684086 -1.7990818784
22
Iteration 40  Energy = -72.4764609412
C  -0.7740163232 -1.5448019866  0.1292041079
C   1.3699177962 -0.2590519064 -0.1003811932
C  -0.6649670326  2.3304025763  0.7309099860
C   1.8145726753 -0.4614215880  1.3045574041
C   2.1309457612  0.5324749719 -1.0942971128
N   0.2118455711 -0.8546357553 -0.5520652389
N  -1.8886615447 -1.8457563287 -0.5136699746
O  -1.6007171086  1.7085649451 -0.2046540484
H  -1.9948351937  0.9344758561  0.2272068584
H  -0.0206730111 -0.6625473315 -1.5274084858
H  -0.6682544995 -1.8505159452  1.1676726520
H   0.2699520216  1.7727604835  0.8115894720
H  -2.6228364539 -2.3447839523 -0.0274642898
H  -2.0097962019 -1.6224551309 -1.4941763112
H  -0.4430393776  3.3175420342  0.3194221846
H  -1.0905960828  2.4386423759  1.7342790405
H   2.6147196665  0.2508679945  1.5599919130
H   1.4718496464  1.1812883001 -1.6971815249
H   2.2150071210 -1.4768564453  1.4709592572
H   1.0013847793 -0.3229973398  2.0383908425
H   2.8875710024  1.1664907149 -0.6082009277
H   2.6540721004 -0.1136851065 -1.8225417886
22
Iteration 41  Energy = -72.4772476629
C  -0.7750657975 -1.5448621603  0.1282645932
C   1.3686273351 -0.2640404933 -0.1044653470
C  -0.6861788824  2.3591759395  0.7366140539
C   1.8086715352 -0.4732966671  1.3004958651
C   2.1301135894  0.5254380817 -1.0990844738
N   0.2092624902 -0.8572836068 -0.5561087076
N  -1.8915729318 -1.8458279424 -0.5109716850
O  -1.6018506610  1.7087167235 -0.1999507331
H  -1.9879095778  0.9348596988  0.2396657732
H  -0.0266144390 -0.6629116179 -1.5298373835
H  -0.6690617689 -1.8477799099  1.1675487138
H   0.2505465609  1.8094197336  0.8488336598
H  -2.6245761111 -2.3437963581 -0.0219584111
H  -2.0161297362 -1.6227972006 -1.4911309210
H  -0.4648646297  3.3377758126  0.3047289283
H  -1.1319993958  2.4896835504  1.7289791732
H   2.6367920888  0.2080851559  1.5493538881
H   1.4756438232  1.1998641552 -1.6790858857
H   2.1629693927 -1.5045528249  1.4743461067
H   1.0019502817 -0.2958319868  2.0335972535
H   2.9086077273  1.1340636919 -0.6149142769
H   2.6248487809 -0.1195385672 -1.8484642965
22
Iteration 42  Energy = -72.4778721408
C  -0.7658441628 -1.5445959476  0.1261764882
C   1.3745075223 -0.2641655006 -0.1061375710
C  -0.7004464758  2.3875924539  0.7405785660
C   1.8101183829 -0.4808209840  1.2988272966
C   2.1376495818  0.5236199528 -1.1004007887
N   0.2171979813 -0.8591199981 -0.5603355952
N  -1.8820669170 -1.8488255529 -0.5112071709
O  -1.5953856753  1.7060424782 -0.1946732057
H  -1.9745313199  0.9344938675  0.2550672477
H  -0.0189461507 -0.6669422844 -1.5343784110
H  -0.6614581180 -1.8431657124  1.1668628172
H   0.2318727136  1.8374880209  0.8930763791
H  -2.6141415263 -2.3457570576 -0.0198167190
H  -2.0087755086 -1.6271296894 -1.4914087787
H  -0.4684960516  3.3509717856  0.2803526332
H  -1.1711009048  2.5534330195  1.7166472734
H   2.6667446613  0.1668205184  1.5408902249
H   1.4899852861  1.2249093032 -1.6561750605
H   2.1190958442 -1.5254770332  1.4813541034
H   1.0122938195 -0.2635497123  2.0315440826
H   2.9377650949  1.1049091150 -0.6178865972
H   2.6029409954 -0.1185445904 -1.8710351166
22
Iteration 43  Energy = -72.4782930092
C  -0.7670583647 -1.5504488764  0.1313918525
C   1.3707084177 -0.2719625261 -0.1134763699
C  -0.7161696457  2.4065176036  0.7370373634
C   1.8112161140 -0.4895541980  1.2897243994
C   2.1297086391  0.5130965780 -1.1130486888
N   0.2119508646 -0.8676378214 -0.5623175240
N  -1.8860981799 -1.8576628486 -0.4990344935
O  -1.5962338311  1.6982004535 -0.1926440057
H  -1.9753211650  0.9343355525  0.2701444747
H  -0.0286633222 -0.6785481116 -1.5359368738
H  -0.6584740714 -1.8454466915  1.1727635776
H   0.2062853242  1.8521171004  0.9321656197
H  -2.6154337145 -2.3525077350 -0.0015213562
H  -2.0183970517 -1.6394935913 -1.4793329835
H  -0.4645908769  3.3495508047  0.2455308509
H  -1.2082913736  2.6154358942  1.6943630337
H   2.6885007429  0.1336289986  1.5204947246
H   1.4848469391  1.2334069381 -1.6471043298
H   2.0915879154 -1.5407000973  1.4793535086
H   1.0258690895 -0.2440245285  2.0266217648
H   2.9498265242  1.0731382613 -0.6392524352
H   2.5668883675 -0.1277508527 -1.9009266202
22
Iteration 44  Energy = -72.4787518458
C  -0.7616549165 -1.5520651455  0.1278438959
C   1.3754594320 -0.2746894180 -0.1130683219
C  -0.7285435498  2.4336362677  0.7421159162
C   1.8134977900 -0.4976040879  1.2899883240
C   2.1365018380  0.5101839657 -1.1112970315
N   0.2156218592 -0.8657873629 -0.5640174851
N  -1.8814015236 -1.8565461327 -0.5021064782
O  -1.5907607730  1.6960828036 -0.1820463059
H  -1.9728500355  0.9421309348  0.2944523907
H  -0.0271708475 -0.6700933507 -1.5358618644
H  -0.6519257604 -1.8541571408  1.1671803356
H   0.1761695897  1.8714581275  0.9976754649
H  -2.6094844365 -2.3539405262 -0.0054008446
H  -2.0157926234 -1.6338461386 -1.4811201189
H  -0.4435143237  3.3467048205  0.2123046909
H  -1.2494394718  2.7006783936  1.6706632327
H   2.7074212690  0.1029938446  1.5161150451
H   1.4991124275  1.2526596133 -1.6239149942
H   2.0668673162 -1.5548474570  1.4845887824
H   1.0362964812 -0.2283247252  2.0271107834
H   2.9752509459  1.0451662400 -0.6409382966
H   2.5470498430 -0.1265948538 -1.9165260494
22
Iteration 45  Energy = -72.4791631178
C  -0.7586064125 -1.5551922052  0.1272080558
C   1.3775173695 -0.2771916342 -0.1102138875
C  -0.7426724916  2.4586008850  0.7487243416
C   1.8166212068 -0.5073722505  1.2913353855
C   2.1401406486  0.5068030802 -1.1079500952
N   0.2156255769 -0.8627855154 -0.5619878955
N  -1.8803237609 -1.8542739424 -0.5013726555
O  -1.5879777622  1.6942363832 -0.1697157762
H  -1.9800515339  0.9545639498  0.3211245953
H  -0.0324724561 -0.6555533734 -1.5302540967
H  -0.6447083532 -1.8716273086  1.1620393699
H   0.1378800494  1.8875870305  1.0656864116
H  -2.6062194623 -2.3562127808 -0.0061187770
H  -2.0184142594 -1.6237536907 -1.4780882561
H  -0.4170789512  3.3370411297  0.1844175414
H  -1.2917823377  2.7860681300  1.6415452878
H   2.7269695864  0.0706444883  1.5114943281
H   1.5102702329  1.2670888425 -1.6033581102
H   2.0443901818 -1.5701344961  1.4880744684
H   1.0501210251 -0.2163026038  2.0313834210
H   2.9945726727  1.0203129494 -0.6418911824
H   2.5280273685 -0.1264862618 -1.9269200308
22
Iteration 46  Energy = -72.4795067982
C  -0.7530570800 -1.5635228300  0.1235643280
C   1.3809497222 -0.2816279087 -0.1100917332
C  -0.7647591026  2.4804159883  0.7429022019
C   1.8198543262 -0.5146796420  1.2908822992
C   2.1430303402  0.5031044415 -1.1072919597
N   0.2162921038 -0.8611348946 -0.5616288858
N  -1.8761418876 -1.8587643521 -0.5038626153
O  -1.5930303910  1.6866320727 -0.1667686949
H  -1.9944614516  0.9623376530  0.3393259735
H  -0.0379050116 -0.6419325831 -1.5257925129
H  -0.6346129927 -1.8941900995  1.1534279257
H   0.0943213817  1.9088802652  1.1138702844
H  -2.5985104562 -2.3680520390 -0.0110169115
H  -2.0185197021 -1.6193574459 -1.4778229889
H  -0.4056128488  3.3253613655  0.1493343052
H  -1.3365373930  2.8600169498  1.5998610674
H   2.7479628652  0.0383576354  1.5022648356
H   1.5201821956  1.2821715198 -1.5824074767
H   2.0179159340 -1.5822562751  1.4945925603
H   1.0658893344 -0.1948692698  2.0325141118
H   3.0144209050  0.9936827765 -0.6474197131
H   2.5059458724 -0.1249177370 -1.9418250887
22
Iteration 47  Energy = -72.4797530846
C  -0.7486736945 -1.5668845291  0.1222765997
C   1.3855925191 -0.2854526184 -0.1106897486
C  -0.7895281954  2.4993755908  0.7426381227
C   1.8272600579 -0.5243754142  1.2884049349
C   2.1466070961  0.5001723239 -1.1078461409
N   0.2151396406 -0.8544889834 -0.5597125555
N  -1.8722488023 -1.8613968496 -0.5042392743
O  -1.6045392907  1.6820382642 -0.1584130844
H  -2.0148221271  0.9714195852  0.3597882288
H  -0.0460160697 -0.6227410521 -1.5190805308
H  -0.6258680838 -1.9067508813  1.1485670348
H   0.0506885682  1.9292720491  1.1574318788
H  -2.5908726391 -2.3783361430 -0.0139185398
H  -2.0188801215 -1.6135745162 -1.4754286400
H  -0.4024630703  3.3156743617  0.1276921240
H  -1.3787277025  2.9198363882  1.5676317719
H   2.7726091114  0.0027971442  1.4900383196
H   1.5332519964  1.3021655177 -1.5573654162
H   1.9958477066 -1.5961796744  1.4965583423
H   1.0884623657 -0.1781135902  2.0335392953
H   3.0387204410  0.9617770300 -0.6568649376
H   2.4777109228 -0.1208143286 -1.9610175742
22
Iteration 48  Energy = -72.4799218253
C  -0.7441410132 -1.5658134295  0.1223271074
C   1.3918184653 -0.2885292634 -0.1136293645
C  -0.8163281596  2.5084288164  0.7492034541
C   1.8375968928 -0.5338726677  1.2830892112
C   2.1551578831  0.4917465635 -1.1133637810
N   0.2138105645 -0.8445753339 -0.5581076807
N  -1.8668465323 -1.8640157603 -0.5037811089
O  -1.6210373241  1.6790289733 -0.1503722562
H  -2.0453168069  0.9809219348  0.3735070111
H  -0.0544389417 -0.6018340101 -1.5126737389
H  -0.6163508721 -1.9109170457  1.1461541979
H   0.0021610066  1.9359851076  1.2027375472
H  -2.5815916279 -2.3878813503 -0.0151874063
H  -2.0169544755 -1.6105672859 -1.4729120210
H  -0.3997546478  3.3010397622  0.1230549524
H  -1.4202162982  2.9606090709  1.5456069545
H   2.7876321693 -0.0145855034  1.4804003264
H   1.5554461319  1.3164216530 -1.5401030387
H   1.9981782242 -1.6070110076  1.4893896188
H   1.1059558548 -0.1825642420  2.0321396118
H   3.0682851095  0.9226524582 -0.6737571947
H   2.4525806848 -0.1255129689 -1.9815008101
22
Iteration 49  Energy = -72.4800688700
C  -0.7393084063 -1.5642075010  0.1241866022
C   1.4012952029 -0.2962524522 -0.1163528688
C  -0.8418664986  2.5130960151  0.7562928346
C   1.8514575206 -0.5488715418  1.2776382135
C   2.1652478405  0.4818017298 -1.1170452078
N   0.2141531001 -0.8362933103 -0.5549929980
N  -1.8609608944 -1.8657653828 -0.5020021065
O  -1.6361369119  1.6763487732 -0.1464316908
H  -2.0859138030  0.9968520026  0.3810972152
H  -0.0611270405 -0.5821847336 -1.5044758810
H  -0.6073199905 -1.9146434333  1.1456570567
H  -0.0478831068  1.9381549491  1.2481289139
H  -2.5727360989 -2.3948447381 -0.0147678040
H  -2.0133635846 -1.6084248567 -1.4696871111
H  -0.3933658642  3.2831382164  0.1241513503
H  -1.4602091676  2.9946625626  1.5235561433
H   2.8053149144 -0.0355735494  1.4718838631
H   1.5756171210  1.3223644141 -1.5263692365
H   2.0063880784 -1.6235632828  1.4806002960
H   1.1256756806 -0.1947293190  2.0309241859
H   3.0912197544  0.8914379478 -0.6847886271
H   2.4396497241 -0.1303807733 -1.9959096103
22
Iteration 50  Energy = -72.4801481442
C  -0.7460986319 -1.5464212340  0.1289543218
C   1.4040018793 -0.2949200886 -0.1098013766
C  -0.8595070203  2.5290203044  0.7511822151
C   1.8525918257 -0.5546153597  1.2830866821
C   2.1725484757  0.4808408430 -1.1081233228
N   0.2091949023 -0.8181381489 -0.5468795318
N  -1.8644659680 -1.8500394433 -0.5020214509
O  -1.6513171642  1.6892065333 -0.1508738678
H  -2.1158218764  1.0227314592  0.3797224591
H  -0.0670266622 -0.5557536473 -1.4936348394
H  -0.6182544083 -1.8955379160  1.1513201502
H  -0.0787421063  1.9516699512  1.2598998019
H  -2.5777393076 -2.3797001449 -0.0176503034
H  -2.0126166924 -1.5937393918 -1.4706085036
H  -0.3935076370  3.2851456253  0.1157696287
H  -1.4818720244  3.0278663914  1.5029819583
H   2.8133587802 -0.0539506392  1.4764816599
H   1.5928576483  1.3336062782 -1.5062082984
H   1.9933668976 -1.6313809548  1.4856841695
H   1.1320160636 -0.1902899767  2.0366210682
H   3.1066491647  0.8733863614 -0.6779036237
H   2.4323502624 -0.1272935879 -1.9939848063
22
Iteration 51  Energy = -72.4802060799
C  -0.7411472732 -1.5386312807  0.1351484674
C   1.4141252659 -0.2994225345 -0.1157799768
C  -0.8733451419  2.5189496906  0.7460691984
C   1.8737419800 -0.5720194683  1.2708448861
C   2.1782753887  0.4783673609 -1.1155399903
N   0.2101013290 -0.8079939563 -0.5437425184
N  -1.8583560829 -1.8493493854 -0.4944433501
O  -1.6717919728  1.6810408012 -0.1517591715
H  -2.1426162249  1.0224659183  0.3826589269
H  -0.0748274076 -0.5355954955 -1.4849886371
H  -0.6116714839 -1.8833329627  1.1587760706
H  -0.1041207396  1.9357939040  1.2656578892
H  -2.5677530086 -2.3835422053 -0.0092343873
H  -2.0063216291 -1.5998140718 -1.4648361588
H  -0.3923851157  3.2614230334  0.1058871664
H  -1.4930025958  3.0349501297  1.4883669624
H   2.8443699889 -0.0872711579  1.4560774345
H   1.6037941967  1.3427772362 -1.4959375047
H   1.9997034659 -1.6517033166  1.4677245919
H   1.1668446596 -0.1988045231  2.0330883069
H   3.1227791568  0.8546462333 -0.6934656570
H   2.4185067546 -0.1226203976 -2.0118971218
22
Iteration 52  Energy = -72.4802282528
C  -0.7369158150 -1.5266757078  0.1457286655
C   1.4176746261 -0.2902103529 -0.1234430866
C  -0.8809782484  2.5141243739  0.7445628969
C   1.8930706246 -0.5727980524  1.2556649073
C   2.1722854273  0.4911967897 -1.1275175543
N   0.2070787246 -0.7923943217 -0.5395779207
N  -1.8545660799 -1.8464207152 -0.4787952554
O  -1.6873150008  1.6760096318 -0.1458621820
H  -2.1618575899  1.0249042929  0.3943316048
H  -0.0896186481 -0.5118892788 -1.4746871566
H  -0.6018251641 -1.8667538113  1.1702750813
H  -0.1253974658  1.9268625571  1.2793602081
H  -2.5581737508 -2.3850063131  0.0100930810
H  -2.0061366076 -1.6034851828 -1.4503148083
H  -0.3828648265  3.2378749459  0.0962020404
H  -1.4973641394  3.0524733886  1.4738524249
H   2.8730246521 -0.1022353897  1.4287747616
H   1.5964663349  1.3599983999 -1.4951728303
H   2.0070156537 -1.6545919862  1.4478400427
H   1.2018314058 -0.1919626853  2.0285063082
H   3.1230387900  0.8614021828 -0.7145782680
H   2.3993311936 -0.1045116300 -2.0306525324
22
Iteration 53  Energy = -72.4802343325
C  -0.7373659755 -1.5270606128  0.1492090321
C   1.4146463756 -0.2890613442 -0.1357442129
C  -0.8852426023  2.5052430033  0.7256327897
C   1.9040610638 -0.5792802942  1.2366376838
C   2.1593191567  0.4972550608 -1.1434253160
N   0.1997331782 -0.7888899010 -0.5417186156
N  -1.8561403964 -1.8533387287 -0.4700733437
O  -1.7022727958  1.6631545638 -0.1517071088
H  -2.1814696245  1.0242383703  0.3989932716
H  -0.1083618062 -0.5004303551 -1.4706621588
H  -0.5961665608 -1.8649725318  1.1737306032
H  -0.1460074379  1.9156620303  1.2805299225
H  -2.5545571703 -2.3954886377  0.0223126218
H  -2.0116064056 -1.6151600182 -1.4421474368
H  -0.3671810933  3.2032470319  0.0646719664
H  -1.4964943960  3.0732548916  1.4369456990
H   2.8885343111 -0.1150340736  1.4003128080
H   1.5815461590  1.3699220300 -1.4984844327
H   2.0137336615 -1.6622989967  1.4238629413
H   1.2236845965 -0.1970530300  2.0182427593
H   3.1156474491  0.8625117500 -0.7391519330
H   2.3741789991 -0.0928240014 -2.0531338918
22
Iteration 54  Energy = -72.4802352862
C  -0.7268691913 -1.5306453419  0.1475247287
C   1.4185226835 -0.2794165526 -0.1295316324
C  -0.8968586819  2.5016539152  0.7396121774
C   1.9080779351 -0.5730994791  1.2419611437
C   2.1594067272  0.5165344961 -1.1324554503
N   0.2072242731 -0.7849156610 -0.5393062161
N  -1.8431769375 -1.8601971136 -0.4743659441
O  -1.7073207300  1.6571807426 -0.1415020788
H  -2.1825501271  1.0131191755  0.4064401862
H  -0.1010311401 -0.4948189820 -1.4675963452
H  -0.5851587767 -1.8718710271  1.1708506274
H  -0.1533857845  1.9155002559  1.2919017432
H  -2.5395697122 -2.4074758837  0.0151767891
H  -1.9987764719 -1.6187782446 -1.4456025936
H  -0.3842260127  3.2063556684  0.0823056909
H  -1.5122398989  3.0615425113  1.4529921334
H   2.8896285214 -0.1039265946  1.4087515485
H   1.5769679740  1.3875442936 -1.4837444889
H   2.0236867554 -1.6563315980  1.4243727084
H   1.2247760227 -0.1983950301  2.0245682560
H   3.1131108304  0.8854798169 -0.7254650073
H   2.3787035208 -0.0676929140 -2.0448031673
22
Iteration 55  Energy = -72.4802353458
C  -0.7269712227 -1.5304917647  0.1475072541
C   1.4186672240 -0.2798020768 -0.1297866977
C  -0.8969989326  2.5015570403  0.7402278584
C   1.9084338129 -0.5736967334  1.2416299922
C   2.1593868367  0.5162386353 -1.1327027847
N   0.2072471573 -0.7850629227 -0.5394194224
N  -1.8434134448 -1.8598104288 -0.4742783784
O  -1.7071317663  1.6574226026 -0.1414882944
H  -2.1820158822  1.0127489322  0.4059881893
H  -0.1008997670 -0.4951549236 -1.4678033921
H  -0.5852840623 -1.8715954665  1.1708716235
H  -0.1526881718  1.9154417647  1.2914053250
H  -2.5398343546 -2.4069784796  0.0153154643
H  -1.9990333695 -1.6184663171 -1.4455258743
H  -0.3854200819  3.2075211643  0.0835118285
H  -1.5124866152  3.0599509751  1.4546260083
H   2.8901484522 -0.1048487689  1.4082420709
H   1.5769885412  1.3873921869 -1.4836653737
H   2.0237428285 -1.6569469852  1.4239463586
H   1.2254194935 -0.1988326176  2.0243659531
H   3.1132471711  0.8849257187 -0.7258702057
H   2.3783380083 -0.0678078674 -2.0452155176
22
Iteration 1  Energy = -72.4165074901
C  -0.8698243643 -1.1412312795  0.1596876965
C   1.2138721381  0.0865878421  0.0351821953
C  -0.8072849264  1.8063884878  0.7738900506
C   1.9317897015 -0.5236690625  1.2376962416
C   2.1785498883  0.5244320204 -1.0565037922
N   0.2414677232 -0.8984597881 -0.5597828863
N  -2.0082958104 -1.6002047352 -0.4234211890
O  -1.6068507963  1.4916100478 -0.2776655729
H  -2.0539635061  0.6296045577 -0.1756175384
H   0.0169769559 -0.6801209009 -1.5297322766
H  -0.8941724579 -0.8714784338  1.2090997757
H   0.5745725640  1.0033543139  0.4039141087
H  -2.6894072918 -1.9473647141  0.2497114565
H  -1.8853716697 -2.2485564372 -1.2025097708
H  -0.4115096180  2.8161708288  0.7226960368
H  -1.0197696885  1.4054028561  1.7698885331
H   2.6103815321  0.2077326706  1.6816906941
H   1.6507376340  1.0090840068 -1.8819940973
H   2.5196538970 -1.3952578257  0.9344634906
H   1.2273595590 -0.8353907063  2.0111044756
H   2.9130526531  1.2292351497 -0.6633582665
H   2.7118697068 -0.3454452161 -1.4511111077
22
Iteration 2  Energy = -72.4209617452
C  -0.8755965582 -1.1573615155  0.1717450837
C   1.2223095359  0.0832690571  0.0327619886
C  -0.8120054729  1.8084455111  0.7664511282
C   1.9372887943 -0.5205510066  1.2468456436
C   2.1848330870  0.5246539260 -1.0636696656
N   0.2357514876 -0.8985622152 -0.5530208811
N  -2.0073907899 -1.6117173537 -0.4241156188
O  -1.6091240086  1.5142658661 -0.2838612196
H  -2.1149970992  0.6825221066 -0.1877086081
H   0.0198944336 -0.7317967144 -1.5341569623
H  -0.8974830608 -0.9223580953  1.2318186271
H   0.5814621369  1.0004692385  0.3984248746
H  -2.7228149308 -1.9177092810  0.2321727267
H  -1.8867597804 -2.2532692800 -1.2077722195
H  -0.3897022035  2.8072297352  0.7306343552
H  -1.0146827902  1.3752458659  1.7509823033
H   2.6151510322  0.2152374692  1.6838793811
H   1.6506227308  1.0059307217 -1.8863185567
H   2.5292326392 -1.3917790795  0.9518993032
H   1.2377560040 -0.8275151911  2.0259817523
H   2.9159167230  1.2330380066 -0.6717632943
H   2.7223572763 -0.3407653388 -1.4615571359
22
Iteration 3  Energy = -72.4241164402
C  -0.8773251283 -1.1842369435  0.1828006432
C   1.2287444210  0.0813598927  0.0316919318
C  -0.8137964463  1.8207564954  0.7572045426
C   1.9439499862 -0.5171240794  1.2526089451
C   2.1883698344  0.5247123686 -1.0705309637
N   0.2281216685 -0.8959331164 -0.5429032220
N  -2.0082879936 -1.6219118486 -0.4231227216
O  -1.6119881340  1.5339834200 -0.2901615965
H  -2.1360914494  0.7157709525 -0.1809111208
H   0.0203248242 -0.7637447286 -1.5293760535
H  -0.8923248360 -1.0019628902  1.2571582909
H   0.5936703981  0.9954178751  0.3928789354
H  -2.7483502683 -1.9026541041  0.2138318773
H  -1.8995922476 -2.2392341025 -1.2278435877
H  -0.3668577655  2.8080851993  0.7236732242
H  -1.0041653372  1.3717113158  1.7356792042
H   2.6235625028  0.2216174669  1.6820820079
H   1.6484847280  1.0049560951 -1.8899378664
H   2.5350788372 -1.3912443271  0.9650896316
H   1.2455462200 -0.8151075604  2.0360415517
H   2.9174400836  1.2364238576 -0.6806887013
H   2.7287688583 -0.3370684589 -1.4717287246
22
Iteration 4  Energy = -72.4263909535
C  -0.8774526244 -1.2155557597  0.1899753047
C   1.2341893643  0.0808550001  0.0308992775
C  -0.8171775569  1.8309026447  0.7495926105
C   1.9511210081 -0.5106269289  1.2567415722
C   2.1899433675  0.5243572772 -1.0775427479
N   0.2230225290 -0.8956209829 -0.5317968489
N  -2.0059521086 -1.6374714303 -0.4271791395
O  -1.6190554468  1.5525011149 -0.2957358957
H  -2.1556837013  0.7433627360 -0.1794217201
H   0.0218703850 -0.7904406491 -1.5225314665
H  -0.8951419344 -1.0599862514  1.2693682151
H   0.6040851649  0.9928176216  0.3863266285
H  -2.7673665980 -1.9046906616  0.1879111953
H  -1.9090157960 -2.2112392001 -1.2651964539
H  -0.3509056534  2.8085999854  0.7162672586
H  -0.9940859049  1.3664002313  1.7218758411
H   2.6331233834  0.2305120057  1.6784720578
H   1.6441498001  1.0016079626 -1.8947291752
H   2.5394106629 -1.3890961539  0.9772416541
H   1.2519173840 -0.7979257826  2.0433716111
H   2.9166798398  1.2405593485 -0.6914155299
H   2.7332251886 -0.3346284094 -1.4802145868
22
Iteration 5  Energy = -72.4282063321
C  -0.8818741413 -1.2405377812  0.1949165988
C   1.2376230831  0.0790740244  0.0331372947
C  -0.8127625673  1.8449635637  0.7516040150
C   1.9572972124 -0.5109937145  1.2586945922
C   2.1891361655  0.5204000235 -1.0811304168
N   0.2158559072 -0.8944190843 -0.5205092549
N  -2.0071877031 -1.6442017595 -0.4321150102
O  -1.6213010174  1.5754860972 -0.2916036516
H  -2.1675033381  0.7731092361 -0.1701023647
H   0.0159637544 -0.7993763027 -1.5124603651
H  -0.9069563179 -1.1375708499  1.2829275975
H   0.6134824294  0.9920519866  0.3862149892
H  -2.7849194686 -1.9096403114  0.1613270748
H  -1.9238724807 -2.1539694153 -1.3127956901
H  -0.3318470204  2.8151427425  0.7198059978
H  -0.9806478764  1.3683800634  1.7182846061
H   2.6454610739  0.2282623976  1.6738272166
H   1.6390114254  0.9975991361 -1.8954465918
H   2.5383069511 -1.3951329853  0.9824195600
H   1.2587347735 -0.7879463236  2.0492628016
H   2.9170281187  1.2374271482 -0.6987731774
H   2.7310638165 -0.3380445092 -1.4865663084
22
Iteration 6  Energy = -72.4297654704
C  -0.8823659636 -1.2672981069  0.1953761462
C   1.2389386785  0.0820303327  0.0352726625
C  -0.8140679265  1.8571219436  0.7488150108
C   1.9648181752 -0.5028353673  1.2595584245
C   2.1857771516  0.5217268583 -1.0845579268
N   0.2133901349 -0.8949149030 -0.5113722240
N  -1.9999476397 -1.6595640596 -0.4400568950
O  -1.6274950802  1.5861842775 -0.2916158907
H  -2.1838282063  0.7938725117 -0.1541983939
H   0.0121678498 -0.8010634363 -1.5038045173
H  -0.9189581851 -1.2221094647  1.2883279609
H   0.6129064937  0.9937154325  0.3862138944
H  -2.7901398732 -1.9314315160  0.1322434061
H  -1.9312971958 -2.0856003618 -1.3659665706
H  -0.3256052435  2.8235710185  0.7104629817
H  -0.9801837078  1.3864700242  1.7175975615
H   2.6573981400  0.2370728906  1.6661352248
H   1.6313153117  0.9955934053 -1.8978817998
H   2.5408216322 -1.3909626997  0.9863108667
H   1.2694858547 -0.7707521232  2.0556939460
H   2.9134361026  1.2416284744 -0.7072116354
H   2.7279634207 -0.3364826705 -1.4900423786
22
Iteration 7  Energy = -72.4310148434
C  -0.8842592493 -1.2899496463  0.1946125681
C   1.2384500026  0.0829948360  0.0383297349
C  -0.8121522440  1.8659370265  0.7482364899
C   1.9743708825 -0.4944745925  1.2598499431
C   2.1793871938  0.5212067174 -1.0884750107
N   0.2126350979 -0.8988046454 -0.5028625143
N  -1.9911313419 -1.6807258931 -0.4480822487
O  -1.6326226362  1.5948227099 -0.2905943481
H  -2.2204762323  0.8319846097 -0.1198064723
H   0.0143317935 -0.8056960573 -1.4969303017
H  -0.9331742102 -1.2569396928  1.2847889950
H   0.6110313066  0.9935072164  0.3881674669
H  -2.7920583141 -1.9589751796  0.1042239674
H  -1.9428515296 -2.0014322967 -1.4172474734
H  -0.3137307337  2.8273484491  0.7039688978
H  -0.9774899364  1.3968765579  1.7171511484
H   2.6730496070  0.2466452792  1.6536672413
H   1.6194257147  0.9910877696 -1.9003739213
H   2.5443504302 -1.3872065129  0.9893635105
H   1.2849798859 -0.7518101182  2.0644446093
H   2.9075903454  1.2441030002 -0.7179759459
H   2.7211658066 -0.3372439184 -1.4940803949
22
Iteration 8  Energy = -72.4319505767
C  -0.8885045377 -1.3082290244  0.1923680699
C   1.2354145886  0.0840227058  0.0416074819
C  -0.8083380642  1.8795864966  0.7433891197
C   1.9810409922 -0.4839912293  1.2611195250
C   2.1701489973  0.5192035739 -1.0925887275
N   0.2114637414 -0.9039452696 -0.4958275509
N  -1.9838409636 -1.7053596818 -0.4599579639
O  -1.6364410206  1.6048612505 -0.2919791003
H  -2.2430118997  0.8628824646 -0.0990709915
H   0.0133860246 -0.8081032654 -1.4908230916
H  -0.9434292125 -1.2862033729  1.2816447070
H   0.6073368576  0.9943911688  0.3889206706
H  -2.7943533789 -1.9904515659  0.0737818812
H  -1.9518925926 -1.9256300350 -1.4554108700
H  -0.2978754561  2.8341547692  0.6869417789
H  -0.9754385135  1.4222936980  1.7174355862
H   2.6862733410  0.2586322123  1.6401684732
H   1.6044754975  0.9850386632 -1.9028815358
H   2.5445447359 -1.3820983169  0.9951745121
H   1.2967145709 -0.7289171082  2.0740348226
H   2.8999610025  1.2444849307 -0.7301053627
H   2.7097656836 -0.3407488695 -1.4979610712
22
Iteration 9  Energy = -72.4326126055
C  -0.8909237317 -1.3284949482  0.1922622907
C   1.2309398456  0.0844837347  0.0441986199
C  -0.7989975313  1.8985473064  0.7351914371
C   1.9836972669 -0.4731774296  1.2635174218
C   2.1604827138  0.5153799753 -1.0965000869
N   0.2084148507 -0.9086893935 -0.4893390535
N  -1.9779975687 -1.7304947162 -0.4685113379
O  -1.6365509263  1.6193547236 -0.2942047665
H  -2.2436725467  0.8823388065 -0.0879487708
H   0.0112531640 -0.8137612807 -1.4853696903
H  -0.9442242951 -1.3269690995  1.2820885790
H   0.6023297097  0.9970570767  0.3881973376
H  -2.7916589940 -2.0258075801  0.0544660264
H  -1.9606234772 -1.8754709480 -1.4754447402
H  -0.2822429163  2.8488942624  0.6668111030
H  -0.9646929751  1.4506317373  1.7137560794
H   2.6949254067  0.2710422694  1.6279139408
H   1.5908879766  0.9786525510 -1.9055143149
H   2.5412960024 -1.3768221742  1.0041841421
H   1.3037989019 -0.7044738269  2.0841778223
H   2.8925249772  1.2418129555 -0.7410020850
H   2.6974149892 -0.3465120506 -1.5014407197
22
Iteration 10  Energy = -72.4332914428
C  -0.8847602317 -1.3547054970  0.1945818682
C   1.2286122557  0.0858035826  0.0425711631
C  -0.7944680306  1.9180307116  0.7244015366
C   1.9846584937 -0.4651251509  1.2624363813
C   2.1562244846  0.5118012662 -1.1024219863
N   0.2063646182 -0.9097381790 -0.4868999220
N  -1.9767305115 -1.7390881918 -0.4697029584
O  -1.6369826189  1.6341132970 -0.3011707999
H  -2.2486649135  0.9038852845 -0.0831233659
H  -0.0005622703 -0.7978490397 -1.4795378777
H  -0.9136091843 -1.4283758863  1.2870346513
H   0.6027268218  1.0001590642  0.3806621625
H  -2.7835143790 -2.0584337868  0.0507787658
H  -1.9756037406 -1.8315415875 -1.4817097985
H  -0.2773477389  2.8678405260  0.6550479522
H  -0.9453463263  1.4546866764  1.6978989162
H   2.6999383640  0.2795718045  1.6177733193
H   1.5849791831  0.9733846466 -1.9112904614
H   2.5384450035 -1.3726219901  1.0085207488
H   1.3070396561 -0.6863677956  2.0876204179
H   2.8902599545  1.2386044887 -0.7517286708
H   2.6910533122 -0.3519124723 -1.5064523614
22
Iteration 11  Energy = -72.4335726575
C  -0.8816861654 -1.3694405240  0.1872228094
C   1.2315765084  0.0771853310  0.0338760000
C  -0.7875211659  1.9205740507  0.7000111517
C   1.9845541609 -0.4684933234  1.2579018492
C   2.1620896169  0.4946517717 -1.1120753796
N   0.2081385107 -0.9189807209 -0.4927683791
N  -1.9746885898 -1.7475359327 -0.4788170400
O  -1.6282257604  1.6359940438 -0.3265420867
H  -2.2563470730  0.9204204967 -0.1056143457
H   0.0000694208 -0.8044375411 -1.4848647726
H  -0.9076317376 -1.4533877096  1.2771540774
H   0.6078820958  0.9954049920  0.3643384364
H  -2.7787482040 -2.0772111904  0.0392952776
H  -1.9774135535 -1.8234101661 -1.4908015574
H  -0.2665153859  2.8681327670  0.6290822286
H  -0.9382592791  1.4578345678  1.6732818291
H   2.7023207662  0.2759442439  1.6087107428
H   1.5930437259  0.9537364279 -1.9239264679
H   2.5352694458 -1.3796641642  1.0106245524
H   1.3056161396 -0.6813110513  2.0841032774
H   2.8977080137  1.2212417136 -0.7642595592
H   2.6949297115 -0.3726286292 -1.5111253337
22
Iteration 12  Energy = -72.4341819362
C  -0.8705372542 -1.3933602132  0.1832302231
C   1.2339645697  0.0771332459  0.0335042389
C  -0.7775467266  1.9308092606  0.6920456257
C   1.9855998586 -0.4652005836  1.2594026104
C   2.1659746198  0.4915625123 -1.1126746201
N   0.2117050711 -0.9201232339 -0.4945860079
N  -1.9678267188 -1.7547568480 -0.4845319392
O  -1.6184703818  1.6551224073 -0.3380961587
H  -2.3035102084  0.9935568322 -0.1022306388
H  -0.0062177648 -0.7855091396 -1.4825431345
H  -0.8880451580 -1.5035552706  1.2716609777
H   0.6111373747  0.9970587251  0.3583604005
H  -2.7570518207 -2.1265308427  0.0301971819
H  -1.9796068232 -1.7949330947 -1.4988293049
H  -0.2435947013  2.8710854174  0.6245611140
H  -0.9275899226  1.4605762809  1.6613047731
H   2.7064718863  0.2783711174  1.6056225218
H   1.5972196876  0.9511967427 -1.9244138449
H   2.5327313664 -1.3797010311  1.0166719225
H   1.3064796952 -0.6704371441  2.0872839954
H   2.9032123036  1.2169667529 -0.7658266813
H   2.6965699937 -0.3772699427 -1.5113207035
22
Iteration 13  Energy = -72.4346247391
C  -0.8608206986 -1.4183500751  0.1796277811
C   1.2301022334  0.0800129074  0.0316748700
C  -0.7592417525  1.9430338455  0.6832588885
C   1.9813205973 -0.4558975254  1.2597372746
C   2.1613155073  0.4930252348 -1.1151505535
N   0.2106300115 -0.9192773314 -0.4973027304
N  -1.9617804702 -1.7703816374 -0.4860196981
O  -1.6130307746  1.6802325626 -0.3423728929
H  -2.2821015392  1.0072164964 -0.1065700311
H  -0.0174569666 -0.7676224057 -1.4806568326
H  -0.8706717620 -1.5502276630  1.2653306124
H   0.6022476602  1.0042420108  0.3534201865
H  -2.7424220080 -2.1610568354  0.0258464120
H  -1.9883979425 -1.7732012124 -1.5009551299
H  -0.2260688078  2.8844917978  0.6203369642
H  -0.9127524136  1.4738899800  1.6524303834
H   2.7054235329  0.2878657401  1.5986627004
H   1.5919798550  0.9520787580 -1.9267920784
H   2.5248115080 -1.3741712815  1.0232962998
H   1.3027722356 -0.6513687002  2.0904727432
H   2.8990603294  1.2185030227 -0.7696044934
H   2.6910538552 -0.3764950906 -1.5134806431
22
Iteration 14  Energy = -72.4349153713
C  -0.8596491790 -1.4401535016  0.1725733011
C   1.2194593682  0.0777214709  0.0322933115
C  -0.7362300188  1.9439296644  0.6801380858
C   1.9678696507 -0.4545340135  1.2625585663
C   2.1503559357  0.4963815253 -1.1114552126
N   0.2039051982 -0.9207986599 -0.5014881966
N  -1.9611638098 -1.7891440166 -0.4925438105
O  -1.6102477912  1.7023689181 -0.3372738379
H  -2.2502584844  0.9991210287 -0.1097757996
H  -0.0298417798 -0.7557014347 -1.4812137685
H  -0.8608346833 -1.5931197146  1.2558890192
H   0.5837489367  1.0076399506  0.3553784247
H  -2.7382340323 -2.1893650023  0.0167602133
H  -1.9988880896 -1.7621887233 -1.5063932249
H  -0.2128726085  2.8924571166  0.6287719535
H  -0.8931721306  1.4747179176  1.6488416863
H   2.6919470964  0.2901776954  1.5991780738
H   1.5808135495  0.9560999190 -1.9225305628
H   2.5109410462 -1.3740227141  1.0302720881
H   1.2881777346 -0.6455605761  2.0933204375
H   2.8850486817  1.2233028797 -0.7624943867
H   2.6833209798 -0.3704442346 -1.5113985929
22
Iteration 15  Energy = -72.4350935296
C  -0.8576013874 -1.4559945303  0.1613737526
C   1.2114598377  0.0781263041  0.0291154641
C  -0.7188134404  1.9518363426  0.6816710310
C   1.9545372032 -0.4531170068  1.2622414945
C   2.1420105832  0.5039943946 -1.1111276913
N   0.1969189813 -0.9154827298 -0.5096999009
N  -1.9563201928 -1.8111136569 -0.5039235333
O  -1.6052728935  1.7238298495 -0.3291594060
H  -2.2168346060  0.9920233425 -0.1154840004
H  -0.0390594802 -0.7432321971 -1.4873626164
H  -0.8516191293 -1.6238016992  1.2425126034
H   0.5786309977  1.0110244388  0.3539833956
H  -2.7281943697 -2.2244021191  0.0027615262
H  -2.0033194157 -1.7579141912 -1.5160839041
H  -0.2004458825  2.9037956456  0.6392002310
H  -0.8692163939  1.4736714918  1.6467777952
H   2.6776215551  0.2919767039  1.6001445759
H   1.5716759075  0.9648668154 -1.9210276257
H   2.4978145611 -1.3734717186  1.0341555699
H   1.2715172558 -0.6412259966  2.0909584058
H   2.8730911709  1.2328153676 -0.7582528999
H   2.6790308235 -0.3589221592 -1.5141622255
22
Iteration 16  Energy = -72.4351843671
C  -0.8554202103 -1.4681968017  0.1507906848
C   1.2056128811  0.0787854245  0.0284906396
C  -0.7003784947  1.9701111455  0.6742185512
C   1.9401926263 -0.4500428823  1.2669682148
C   2.1398955197  0.5072619481 -1.1069145837
N   0.1940965712 -0.9130693791 -0.5158109581
N  -1.9485183262 -1.8320507066 -0.5175796121
O  -1.6067011129  1.7247436535 -0.3167159775
H  -2.1921078757  0.9757609624 -0.0919736482
H  -0.0407437461 -0.7380586751 -1.4930464009
H  -0.8502067393 -1.6378612443  1.2316084459
H   0.5723146390  1.0164623696  0.3517778535
H  -2.7155441811 -2.2592269881 -0.0150340749
H  -1.9978402887 -1.7665086143 -1.5285547813
H  -0.1786144431  2.9188242647  0.5976755774
H  -0.8486432988  1.5313748416  1.6596592779
H   2.6620094561  0.2953885037  1.6067608545
H   1.5714402416  0.9680741829 -1.9181961536
H   2.4835976109 -1.3719271809  1.0454748114
H   1.2516605545 -0.6335895748  2.0922372655
H   2.8680071988  1.2372325672 -0.7501571796
H   2.6800963378 -0.3540243228 -1.5090961202
22
Iteration 17  Energy = -72.4352675752
C  -0.8508112407 -1.4788770492  0.1397584839
C   1.2024927372  0.0778755952  0.0258119612
C  -0.6788634579  1.9910099044  0.6617046210
C   1.9318136097 -0.4496478097  1.2669726515
C   2.1392100118  0.5119614928 -1.1047286888
N   0.1953051957 -0.9138093646 -0.5243841695
N  -1.9443208134 -1.8394988021 -0.5287204075
O  -1.6095469373  1.7209139516 -0.3021083743
H  -2.1781547039  0.9671619938 -0.0522237274
H  -0.0432069108 -0.7284349002 -1.4987063823
H  -0.8422696452 -1.6601454113  1.2186541362
H   0.5668110876  1.0190681912  0.3496442194
H  -2.7099503317 -2.2691183479 -0.0264485260
H  -1.9975076548 -1.7662428311 -1.5389954530
H  -0.1474382369  2.9296773853  0.5348358773
H  -0.8229637075  1.6065222234  1.6716294415
H   2.6544694831  0.2949575730  1.6068119727
H   1.5722652458  0.9745539315 -1.9160854667
H   2.4736992400 -1.3733986484  1.0495767983
H   1.2407384824 -0.6286774942  2.0911603908
H   2.8645452665  1.2423851804 -0.7431024813
H   2.6825997073 -0.3466529895 -1.5083095793
22
Iteration 18  Energy = -72.4354044870
C  -0.8447443397 -1.4994258379  0.1328800683
C   1.1999501774  0.0768090348  0.0276754809
C  -0.6646952738  2.0130201803  0.6509919464
C   1.9288999600 -0.4515799249  1.2679258912
C   2.1363953766  0.5158699061 -1.1010544626
N   0.1946022841 -0.9151634725 -0.5265128292
N  -1.9451054545 -1.8411115872 -0.5345040661
O  -1.6100545475  1.7173323744 -0.2920645309
H  -2.1707179143  0.9663642983 -0.0175053000
H  -0.0512898640 -0.7140229784 -1.4958441833
H  -0.8234891538 -1.7227099646  1.2048189981
H   0.5617635684  1.0184157830  0.3542488071
H  -2.7056761335 -2.2835306792 -0.0354930260
H  -2.0075794096 -1.7446256508 -1.5425725378
H  -0.1192717384  2.9351940449  0.4723130549
H  -0.8115380151  1.6910160624  1.6831719750
H   2.6548987524  0.2907771402  1.6057062995
H   1.5693572649  0.9839380191 -1.9092052018
H   2.4668515777 -1.3778214875  1.0514782692
H   1.2378107071 -0.6256089025  2.0932825924
H   2.8628941644  1.2435436737 -0.7361222434
H   2.6786889956 -0.3410556780 -1.5096152211
22
Iteration 19  Energy = -72.4355230407
C  -0.8404060270 -1.5144877000  0.1343433998
C   1.1951885155  0.0780297590  0.0313505139
C  -0.6442947130  2.0333775935  0.6322858520
C   1.9186355993 -0.4466027375  1.2753915212
C   2.1334006372  0.5161961516 -1.0953081435
N   0.1898088559 -0.9119102726 -0.5231911358
N  -1.9454028968 -1.8469776432 -0.5307077324
O  -1.6155089023  1.7148981949 -0.2780605363
H  -2.1641505842  0.9677558043  0.0293226492
H  -0.0632420542 -0.6993598823 -1.4881687700
H  -0.8065401094 -1.7630414573  1.2000593268
H   0.5576695071  1.0252597613  0.3524506380
H  -2.6944768966 -2.3159548964 -0.0376210255
H  -2.0173141224 -1.7271996230 -1.5356826623
H  -0.1075452927  2.9534112593  0.4222479871
H  -0.7598626576  1.7274145917  1.6706878369
H   2.6484284298  0.2935692858  1.6097043101
H   1.5678676344  0.9828058396 -1.9053426011
H   2.4510533416 -1.3775393945  1.0657442953
H   1.2250662411 -0.6107622229  2.1007801695
H   2.8581822144  1.2451683421 -0.7293896463
H   2.6774502964 -0.3405162699 -1.5019409565
22
Iteration 20  Energy = -72.4355875925
C  -0.8353660024 -1.5220795784  0.1348629853
C   1.1929295791  0.0767456281  0.0308547849
C  -0.6225325273  2.0455156697  0.6143948488
C   1.9060243295 -0.4409961028  1.2827395965
C   2.1355976220  0.5121454621 -1.0916589247
N   0.1879778621 -0.9095440276 -0.5237426606
N  -1.9411213594 -1.8576083990 -0.5270616122
O  -1.6228901400  1.7064960336 -0.2583730329
H  -2.1549661077  0.9612647398  0.0804134232
H  -0.0692683277 -0.6917469707 -1.4862395616
H  -0.7933840114 -1.7764419484  1.1982673404
H   0.5558177918  1.0328919175  0.3446345403
H  -2.6834682050 -2.3373485291 -0.0348581226
H  -2.0210364792 -1.7250022536 -1.5295879419
H  -0.0900783137  2.9580347288  0.3630996061
H  -0.7155899064  1.7756907070  1.6652126152
H   2.6393244571  0.2970543808  1.6140426370
H   1.5732119211  0.9761298099 -1.9054779955
H   2.4328914268 -1.3775936710  1.0844938048
H   1.2072945169 -0.5925028192  2.1063860122
H   2.8577162663  1.2432015818 -0.7243353182
H   2.6826655719 -0.3448483737 -1.4937456630
22
Iteration 21  Energy = -72.4356857614
C  -0.8277880279 -1.5309943637  0.1356449315
C   1.1883990573  0.0728435757  0.0296038781
C  -0.5878822744  2.0366912763  0.6033664725
C   1.8929181082 -0.4283920719  1.2886400179
C   2.1265670010  0.5238744350 -1.0851621323
N   0.1907387516 -0.9106485398 -0.5245127179
N  -1.9374700409 -1.8604503086 -0.5217911787
O  -1.6174164503  1.7050178128 -0.2479932744
H  -2.1389388611  0.9631447245  0.1085501893
H  -0.0689512274 -0.6910508447 -1.4860499360
H  -0.7758510951 -1.7970043971  1.1955447046
H   0.5335208117  1.0472571238  0.3470502223
H  -2.6764681978 -2.3442293388 -0.0286540942
H  -2.0247014769 -1.7184017089 -1.5223691165
H  -0.0609701789  2.9460099782  0.3326041905
H  -0.6941518535  1.8156045403  1.6647458319
H   2.6212361572  0.3154313432  1.6181431950
H   1.5612180873  0.9813024938 -1.9006160899
H   2.4248093878 -1.3647897670  1.1029630301
H   1.1884996232 -0.5744454504  2.1084628199
H   2.8362798996  1.2649957950 -0.7129988463
H   2.6880179835 -0.3242236762 -1.4868874660
22
Iteration 22  Energy = -72.4358792380
C  -0.8229842755 -1.5342397027  0.1382910998
C   1.1855670717  0.0647537362  0.0224911450
C  -0.5532520098  2.0261763947  0.5953802924
C   1.8768836652 -0.4130191990  1.2912754278
C   2.1146356909  0.5330449079 -1.0847145624
N   0.1893172578 -0.9029382507 -0.5242695217
N  -1.9341025076 -1.8624896466 -0.5152594914
O  -1.6163615940  1.7070131222 -0.2419160290
H  -2.1238359849  0.9653948731  0.1283691330
H  -0.0692742071 -0.6914544510 -1.4886016691
H  -0.7629228798 -1.8032066863  1.1963175991
H   0.4987281222  1.0864071104  0.3516378845
H  -2.6696882632 -2.3504014677 -0.0210727349
H  -2.0266247784 -1.7154300629 -1.5145645427
H  -0.0676930681  2.9603840512  0.3222401815
H  -0.6854530269  1.8629519795  1.6658667953
H   2.5969667904  0.3396082291  1.6196302073
H   1.5470072613  0.9860186268 -1.9015148682
H   2.4183767544 -1.3473862838  1.1216743243
H   1.1661398848 -0.5561610996  2.1066102570
H   2.8169957452  1.2802739483 -0.7097787337
H   2.6871859855 -0.3066760601 -1.4894502630
22
Iteration 23  Energy = -72.4363146500
C  -0.8227867676 -1.5368431128  0.1407418822
C   1.1850562990  0.0446539696  0.0120577274
C  -0.5223374280  2.0200010419  0.5922458023
C   1.8585419285 -0.4013227350  1.2979998556
C   2.1046557612  0.5424187163 -1.0854111284
N   0.1843475320 -0.8945009276 -0.5240454476
N  -1.9344255061 -1.8614351956 -0.5109919528
O  -1.6112007315  1.7107790682 -0.2336292988
H  -2.1150804254  0.9730818360  0.1462665489
H  -0.0702590382 -0.6925446189 -1.4919843016
H  -0.7542868558 -1.8133133338  1.1960567945
H   0.4762313249  1.1070084065  0.3504912767
H  -2.6683270994 -2.3532705083 -0.0181539205
H  -2.0308905484 -1.7035270612 -1.5081726694
H  -0.0538031203  2.9593668112  0.3048589193
H  -0.6657894036  1.8963929119  1.6676177670
H   2.5690347835  0.3624770658  1.6245889766
H   1.5334908988  0.9970444667 -1.9000588634
H   2.4112621942 -1.3352754347  1.1570958585
H   1.1379271910 -0.5349443793  2.1075298027
H   2.7970362965  1.2962394153 -0.7020301528
H   2.6932622231 -0.2815113549 -1.5028596761
22
Iteration 24  Energy = -72.4403218106
C  -0.8226937238 -1.5403751673  0.1411486858
C   1.1916308575  0.0260133729  0.0071427911
C  -0.5043645367  2.0030310973  0.5903232140
C   1.8502773563 -0.3957617013  1.3000629745
C   2.0989544817  0.5457564536 -1.0793300528
N   0.1865159758 -0.8908694710 -0.5214609853
N  -1.9312165451 -1.8659383276 -0.5129584069
O  -1.6178076302  1.7078909619 -0.2385126229
H  -2.1148777570  0.9693525598  0.1436560561
H  -0.0653846160 -0.6953215527 -1.4933015214
H  -0.7529108250 -1.8153567238  1.1951059797
H   0.3798113102  1.2035049830  0.3792980996
H  -2.6656928593 -2.3586891011 -0.0217243800
H  -2.0260174790 -1.7069948935 -1.5099314504
H  -0.0846386971  2.9743403349  0.3132981592
H  -0.6907172488  1.9238634493  1.6686788548
H   2.5598590445  0.3699859862  1.6249751151
H   1.5252167395  0.9982181241 -1.8934479538
H   2.4068379777 -1.3290393020  1.1670295587
H   1.1257968250 -0.5298787173  2.1061192931
H   2.7891719548  1.2999216009 -0.6922040078
H   2.6929553894 -0.2730326198 -1.5004509120
22
Iteration 25  Energy = -72.4435811714
C  -0.8214012487 -1.5399761871  0.1422586631
C   1.1971605271  0.0133603078  0.0035208836
C  -0.5049882466  2.0012306514  0.5913302967
C   1.8497831213 -0.3937257156  1.3019062746
C   2.0987861714  0.5483061820 -1.0773020191
N   0.1899564758 -0.8884609299 -0.5192159733
N  -1.9284846075 -1.8667624436 -0.5131953134
O  -1.6193102243  1.7077900284 -0.2445247483
H  -2.1165452081  0.9679512144  0.1355952085
H  -0.0594709294 -0.6969966221 -1.4926282840
H  -0.7528996868 -1.8133355589  1.1961529293
H   0.3401420594  1.2590866586  0.4024148519
H  -2.6636437396 -2.3590713303 -0.0223717036
H  -2.0216908297 -1.7097565784 -1.5105741130
H  -0.0997789933  2.9797776883  0.3199882610
H  -0.7076042706  1.9308337897  1.6669808249
H   2.5600858237  0.3734477876  1.6265165935
H   1.5238986294  1.0004843749 -1.8921782208
H   2.4091232263 -1.3278354259  1.1737160970
H   1.1241811100 -0.5290318285  2.1082551651
H   2.7884566036  1.3036701808 -0.6881238154
H   2.6967587088 -0.2675990511 -1.5020341203
22
Iteration 26  Energy = -72.4465540127
C  -0.8212871240 -1.5394275449  0.1439752315
C   1.2048575364 -0.0052836483 -0.0023276812
C  -0.5066058425  2.0054790501  0.5927423239
C   1.8474188515 -0.3915681666  1.3037535792
C   2.0981286123  0.5490816580 -1.0755760640
N   0.1920217379 -0.8846814674 -0.5165598157
N  -1.9266196091 -1.8668335883 -0.5129859488
O  -1.6217307985  1.7078305287 -0.2496381194
H  -2.1190013529  0.9677470129  0.1305412072
H  -0.0534712789 -0.6979198542 -1.4924771811
H  -0.7533952598 -1.8122869750  1.1976034030
H   0.3304138091  1.2924912810  0.4188001202
H  -2.6625791671 -2.3589847695 -0.0229120618
H  -2.0184854506 -1.7103266509 -1.5104932311
H  -0.1208389654  2.9924035908  0.3230227793
H  -0.7271658373  1.9486805499  1.6655423962
H   2.5580673142  0.3780339832  1.6260101210
H   1.5224285522  1.0016851633 -1.8913102554
H   2.4103687961 -1.3273333134  1.1865443442
H   1.1199382067 -0.5262761134  2.1103333685
H   2.7868741839  1.3051402922 -0.6826090274
H   2.7020113489 -0.2614244218 -1.5073155845
22
Iteration 27  Energy = -72.4491696433
C  -0.8210735761 -1.5386317988  0.1462008743
C   1.2132897714 -0.0248095008 -0.0084974356
C  -0.5088550429  2.0119066504  0.5946259557
C   1.8445346999 -0.3893677975  1.3054850015
C   2.0976601604  0.5492642537 -1.0742948799
N   0.1931127876 -0.8808164761 -0.5144718659
N  -1.9243654334 -1.8669044535 -0.5126912979
O  -1.6243796656  1.7073928308 -0.2546359574
H  -2.1207901507  0.9669038035  0.1265501181
H  -0.0479071281 -0.6983116985 -1.4924592197
H  -0.7534913154 -1.8111612171  1.1998215111
H   0.3353960624  1.3032528678  0.4259438910
H  -2.6611326361 -2.3590730110 -0.0236962101
H  -2.0147886887 -1.7103845376 -1.5102633506
H  -0.1416529492  3.0064625872  0.3247330878
H  -0.7455751330  1.9664039594  1.6646909705
H   2.5532382978  0.3845455591  1.6237138524
H   1.5196135528  1.0038761602 -1.8882383993
H   2.4115652461 -1.3258157696  1.2045004607
H   1.1136172250 -0.5198872369  2.1106969063
H   2.7829104489  1.3063140007 -0.6754370127
H   2.7089298992 -0.2519101290 -1.5158257329
22
Iteration 28  Energy = -72.4515110926
C  -0.8205999287 -1.5380157354  0.1483453997
C   1.2224279929 -0.0437616090 -0.0141366243
C  -0.5125107357  2.0186550788  0.5968832476
C   1.8417006411 -0.3876470835  1.3074880003
C   2.0973072166  0.5499242240 -1.0730081016
N   0.1933057964 -0.8776821555 -0.5131558942
N  -1.9218153949 -1.8671463132 -0.5125994710
O  -1.6271461705  1.7066205042 -0.2593540736
H  -2.1221924076  0.9655752358  0.1228774461
H  -0.0436171740 -0.6987832849 -1.4928903066
H  -0.7531979815 -1.8107459991  1.2018662343
H   0.3339565948  1.3175871346  0.4352428571
H  -2.6593707954 -2.3596831521 -0.0250566050
H  -2.0105854653 -1.7100234762 -1.5101354384
H  -0.1601418933  3.0184931269  0.3260770171
H  -0.7634266517  1.9826176593  1.6641601911
H   2.5472735391  0.3917296958  1.6213373120
H   1.5159436018  1.0076898106 -1.8837739272
H   2.4131013109 -1.3241844072  1.2248060803
H   1.1065159371 -0.5125105457  2.1107028584
H   2.7779319952  1.3083206823 -0.6670818572
H   2.7167085153 -0.2397896860 -1.5259975395
22
Iteration 29  Energy = -72.4537369684
C  -0.8209674653 -1.5377737027  0.1483141129
C   1.2317313671 -0.0625397490 -0.0221245964
C  -0.5138122537  2.0265890342  0.6024655032
C   1.8400094680 -0.3893085448  1.3051066804
C   2.0952651666  0.5507615820 -1.0746834065
N   0.1910827417 -0.8742527244 -0.5147214768
N  -1.9215254885 -1.8661946445 -0.5132564343
O  -1.6289962881  1.7070731278 -0.2563985734
H  -2.1210001492  0.9650973047  0.1279620339
H  -0.0441590205 -0.6962781939 -1.4950501168
H  -0.7515859569 -1.8127849104  1.2010341382
H   0.3313945890  1.3355811447  0.4482216507
H  -2.6592035755 -2.3598557095 -0.0269490891
H  -2.0107101081 -1.7055529687 -1.5101048626
H  -0.1715230896  3.0286392592  0.3276973847
H  -0.7726900614  1.9994130846  1.6680241981
H   2.5431746402  0.3946630710  1.6154274798
H   1.5092682141  1.0135537736 -1.8802746031
H   2.4150091117 -1.3257846857  1.2386429296
H   1.1011983338 -0.5089062936  2.1068029276
H   2.7725060004  1.3096524370 -0.6619876908
H   2.7213878285 -0.2268223951 -1.5413544729
22
Iteration 30  Energy = -72.4558463172
C  -0.8203025613 -1.5371412827  0.1504966762
C   1.2421048218 -0.0804464323 -0.0274078171
C  -0.5198160657  2.0342756424  0.6048744699
C   1.8375998654 -0.3881847563  1.3067876910
C   2.0951141027  0.5513961849 -1.0737236017
N   0.1906834295 -0.8721024843 -0.5141351167
N  -1.9189148860 -1.8667705234 -0.5128123271
O  -1.6312753814  1.7058908498 -0.2605922218
H  -2.1211406736  0.9630719813  0.1248119681
H  -0.0414748739 -0.6970310451 -1.4956778017
H  -0.7503814642 -1.8115703476  1.2031930482
H   0.3274866184  1.3515856433  0.4601970359
H  -2.6573538057 -2.3609121307 -0.0280497596
H  -2.0064336953 -1.7053270916 -1.5095867159
H  -0.1862332256  3.0383071095  0.3274106318
H  -0.7893000678  2.0136965555  1.6678637310
H   2.5373000877  0.4012501258  1.6133418495
H   1.5038343038  1.0180609299 -1.8739574474
H   2.4161212100 -1.3243507734  1.2602856196
H   1.0931615835 -0.5003570876  2.1051836649
H   2.7675306907  1.3118139957 -0.6543353861
H   2.7287464049 -0.2129109476 -1.5534399680
22
Iteration 31  Energy = -72.4577590303
C  -0.8198107609 -1.5362825687  0.1525709879
C   1.2523443325 -0.0978734971 -0.0325728340
C  -0.5263349961  2.0426633100  0.6070520672
C   1.8348407043 -0.3873278361  1.3086334604
C   2.0951064943  0.5519291776 -1.0729800849
N   0.1898320536 -0.8699871274 -0.5139417074
N  -1.9165863680 -1.8671782892 -0.5123668187
O  -1.6335421433  1.7050205738 -0.2649030659
H  -2.1207540240  0.9610667743  0.1215927605
H  -0.0394252372 -0.6975432706 -1.4965857844
H  -0.7492010574 -1.8100868297  1.2052973226
H   0.3230880687  1.3659782446  0.4724157619
H  -2.6557985502 -2.3618294441 -0.0292379309
H  -2.0024648113 -1.7046051299 -1.5090036315
H  -0.1995436425  3.0475806506  0.3259064172
H  -0.8052164791  2.0279892726  1.6673577191
H   2.5309446920  0.4075022501  1.6112051057
H   1.4972641463  1.0227258683 -1.8664613807
H   2.4160048697 -1.3230511739  1.2830693815
H   1.0836588636 -0.4906270105  2.1026059509
H   2.7623970462  1.3136732559 -0.6466227521
H   2.7356272562 -0.1984386783 -1.5663567689
22
Iteration 32  Energy = -72.4595397190
C  -0.8187262913 -1.5356180232  0.1545570868
C   1.2627705758 -0.1148731850 -0.0374823192
C  -0.5336030942  2.0511615498  0.6092791758
C   1.8325014002 -0.3868043505  1.3107512084
C   2.0955020544  0.5525286897 -1.0722263309
N   0.1895782435 -0.8682757395 -0.5139029386
N  -1.9138127927 -1.8680068903 -0.5117972113
O  -1.6354989295  1.7036229600 -0.2691219700
H  -2.1198786463  0.9583592078  0.1183192422
H  -0.0372970889 -0.6985489130 -1.4974882911
H  -0.7474038895 -1.8086122800  1.2073630837
H   0.3189912540  1.3836389292  0.4861099045
H  -2.6536823607 -2.3632320817 -0.0302014215
H  -1.9981798392 -1.7043746934 -1.5082899600
H  -0.2129934969  3.0567400030  0.3244100063
H  -0.8208951790  2.0409883852  1.6669401543
H   2.5252643619  0.4130455743  1.6095914403
H   1.4909574009  1.0274531090 -1.8587914573
H   2.4157400080 -1.3219585255  1.3054814282
H   1.0744942820 -0.4810506577  2.1001163973
H   2.7579076703  1.3154653028 -0.6392370414
H   2.7421751040 -0.1842239991 -1.5787403694
22
Iteration 33  Energy = -72.4611764030
C  -0.8197336289 -1.5350036098  0.1544376270
C   1.2715080831 -0.1322379954 -0.0451675135
C  -0.5357290792  2.0613462837  0.6149537428
C   1.8306432833 -0.3900209276  1.3087476262
C   2.0946336287  0.5513952410 -1.0751004719
N   0.1865363261 -0.8659857569 -0.5163613655
N  -1.9150403954 -1.8661833690 -0.5114892842
O  -1.6357192409  1.7048385896 -0.2646904106
H  -2.1158313171  0.9578268121  0.1246774113
H  -0.0399886965 -0.6963465507 -1.4999361584
H  -0.7456228327 -1.8100041297  1.2064570698
H   0.3202875802  1.4045547754  0.4991662411
H  -2.6551364336 -2.3619106976 -0.0307085581
H  -2.0005640567 -1.6983861634 -1.5071101933
H  -0.2203115411  3.0666436681  0.3251378454
H  -0.8246527182  2.0536175001  1.6715616832
H   2.5214083863  0.4133305520  1.6042818685
H   1.4833354513  1.0317871341 -1.8536179649
H   2.4145334068 -1.3249476128  1.3203176006
H   1.0668912973 -0.4758797080  2.0941180998
H   2.7544365274  1.3137847284 -0.6362287834
H   2.7445816016 -0.1733529468 -1.5951236697
22
Iteration 34  Energy = -72.4627018050
C  -0.8189682584 -1.5335103162  0.1575229295
C   1.2818417430 -0.1483860444 -0.0486865505
C  -0.5432318784  2.0715279504  0.6138468757
C   1.8282075453 -0.3891981805  1.3122800630
C   2.0965909198  0.5496417870 -1.0738759141
N   0.1869519157 -0.8651270857 -0.5153382777
N  -1.9127795909 -1.8662581511 -0.5095020362
O  -1.6381888216  1.7042481077 -0.2696891563
H  -2.1147027381  0.9557903277  0.1211978405
H  -0.0374420301 -0.6984567132 -1.4998215070
H  -0.7448184586 -1.8065654129  1.2099583883
H   0.3182161832  1.4238670704  0.5072528394
H  -2.6537181984 -2.3617940693 -0.0297749104
H  -1.9967364317 -1.6986183450 -1.5052019649
H  -0.2332296911  3.0767609255  0.3190697952
H  -0.8370646749  2.0672071042  1.6687895881
H   2.5158115101  0.4187018577  1.6040044253
H   1.4792565013  1.0327614383 -1.8463513068
H   2.4131682618 -1.3232002983  1.3438637960
H   1.0572951586 -0.4654034120  2.0922115904
H   2.7519252821  1.3133010102 -0.6297439099
H   2.7513571287 -0.1632683714 -1.6043438804
22
Iteration 35  Energy = -72.4641295747
C  -0.8173749088 -1.5330310935  0.1593349936
C   1.2914624827 -0.1635241579 -0.0528950015
C  -0.5526477133  2.0824432837  0.6158497279
C   1.8259911212 -0.3897708985  1.3145938202
C   2.0974875801  0.5494876831 -1.0734084530
N   0.1873303722 -0.8641774015 -0.5155048341
N  -1.9100732999 -1.8673942840 -0.5081369730
O  -1.6401829475  1.7022594262 -0.2736497297
H  -2.1127900795  0.9519337226  0.1183472551
H  -0.0350192504 -0.7003225916 -1.5006371899
H  -0.7423794923 -1.8051225863  1.2119022337
H   0.3158102459  1.4422585178  0.5184709358
H  -2.6512023530 -2.3633956109 -0.0291606672
H  -1.9935883136 -1.6990116811 -1.5036831940
H  -0.2500075014  3.0884855438  0.3168328767
H  -0.8538549017  2.0811721494  1.6685291346
H   2.5117193640  0.4214142744  1.6024125707
H   1.4733059915  1.0373159970 -1.8377470927
H   2.4100792266 -1.3234145881  1.3651379129
H   1.0480704036 -0.4551003916  2.0889567185
H   2.7495202445  1.3128019233 -0.6234106149
H   2.7551169034 -0.1513187045 -1.6162221160
22
Iteration 36  Energy = -72.4654001669
C  -0.8152823022 -1.5323396389  0.1608714083
C   1.3011756108 -0.1775116490 -0.0564114367
C  -0.5621112541  2.0943821343  0.6174174339
C   1.8238350482 -0.3905267110  1.3174159249
C   2.0993532656  0.5492216071 -1.0724205377
N   0.1884775745 -0.8631631337 -0.5156671202
N  -1.9069720230 -1.8681870924 -0.5069038589
O  -1.6416580553  1.7006488059 -0.2777805226
H  -2.1101643163  0.9483789697  0.1154101087
H  -0.0318703743 -0.7023736146 -1.5016434418
H  -0.7395592362 -1.8034488852  1.2135591673
H   0.3131723336  1.4623776618  0.5294954414
H  -2.6482068370 -2.3645851519 -0.0284878946
H  -1.9902601769 -1.6991186758 -1.5022954861
H  -0.2673695322  3.1013638292  0.3141279349
H  -0.8707387910  2.0963617575  1.6678129156
H   2.5087632987  0.4229048820  1.6016161657
H   1.4689505961  1.0418188480 -1.8289028936
H   2.4057644397 -1.3243804139  1.3860806726
H   1.0389838866 -0.4444658706  2.0860958267
H   2.7487859763  1.3116605421 -0.6167483981
H   2.7590419514 -0.1405489354 -1.6266814423
22
Iteration 37  Energy = -72.4665032105
C  -0.8140092463 -1.5314524434  0.1632899409
C   1.3104035765 -0.1917079613 -0.0592050309
C  -0.5695043323  2.1078045793  0.6148357636
C   1.8213158101 -0.3921211330  1.3207827279
C   2.1024869832  0.5459742303 -1.0714693857
N   0.1890241078 -0.8625245157 -0.5151458278
N  -1.9055029395 -1.8676855352 -0.5040669016
O  -1.6436252290  1.7002544382 -0.2821071843
H  -2.1076024522  0.9470015680  0.1145786699
H  -0.0302013397 -0.7037015120 -1.5016038403
H  -0.7370180861 -1.8022240909  1.2158972098
H   0.3117877519  1.4831385286  0.5353223587
H  -2.6467407594 -2.3641533855 -0.0257240919
H  -1.9891787061 -1.6978479251 -1.4992511140
H  -0.2824781544  3.1150018256  0.3050361278
H  -0.8824746484  2.1150857040  1.6637918126
H   2.5063222103  0.4227811983  1.6013960692
H   1.4670002528  1.0424617598 -1.8214422147
H   2.4000587952 -1.3265731734  1.4068240261
H   1.0297132127 -0.4342451324  2.0836868369
H   2.7498674842  1.3075480244 -0.6110159599
H   2.7636841502 -0.1347398142 -1.6349198965
22
Iteration 38  Energy = -72.4675237612
C  -0.8124042101 -1.5309825794  0.1651558051
C   1.3190435846 -0.2049122134 -0.0617950130
C  -0.5780724323  2.1218085334  0.6129116806
C   1.8191642839 -0.3950525854  1.3236428187
C   2.1057022012  0.5426727246 -1.0706782453
N   0.1899120870 -0.8622232930 -0.5150031220
N  -1.9040575518 -1.8673352333 -0.5013869815
O  -1.6457394433  1.6998332658 -0.2865060596
H  -2.1049921074  0.9453251534  0.1133066531
H  -0.0280055175 -0.7056826642 -1.5020561716
H  -0.7339461277 -1.8015746817  1.2176127693
H   0.3094862992  1.5034832906  0.5416375088
H  -2.6450668712 -2.3639107594 -0.0228010117
H  -1.9885385529 -1.6967550137 -1.4963429161
H  -0.2997219528  3.1297204040  0.2973020911
H  -0.8965319634  2.1343825119  1.6602079504
H   2.5061342007  0.4196279584  1.6009094426
H   1.4654095371  1.0437630860 -1.8137971160
H   2.3925857172 -1.3312846024  1.4254276947
H   1.0213964847 -0.4246285645  2.0811407487
H   2.7522069782  1.3023986647 -0.6055903986
H   2.7670475736 -0.1300012299 -1.6434767183
22
Iteration 39  Energy = -72.4684920982
C  -0.8110870996 -1.5314247697  0.1667694161
C   1.3259842022 -0.2167788658 -0.0639409173
C  -0.5858017638  2.1378534523  0.6121017152
C   1.8162134249 -0.3980055219  1.3264815631
C   2.1081748182  0.5387770590 -1.0702483209
N   0.1907880583 -0.8631993157 -0.5149690793
N  -1.9033093832 -1.8673553018 -0.4985700849
O  -1.6459128223  1.6989667623 -0.2894776039
H  -2.0993203784  0.9428467947  0.1139935221
H  -0.0248738552 -0.7104246187 -1.5030831314
H  -0.7313507119 -1.8018783131  1.2190601030
H   0.3082932992  1.5262470674  0.5501259450
H  -2.6443802712 -2.3631123350 -0.0192463458
H  -1.9891620542 -1.6956516058 -1.4931910550
H  -0.3168871440  3.1462476323  0.2895889491
H  -0.9104401278  2.1574639739  1.6576243489
H   2.5064712673  0.4152780830  1.6004084936
H   1.4636166555  1.0453856752 -1.8062372663
H   2.3827207650 -1.3368823508  1.4427314646
H   1.0128411867 -0.4143966789  2.0788847390
H   2.7556968220  1.2954424433 -0.6012801068
H   2.7675821502 -0.1276219302 -1.6525258419
22
Iteration 40  Energy = -72.4694435076
C  -0.8094634700 -1.5329735198  0.1669005848
C   1.3317191946 -0.2270408048 -0.0667669966
C  -0.5921878426  2.1555640091  0.6118721434
C   1.8132780737 -0.4008215039  1.3279805736
C   2.1097150803  0.5355846082 -1.0710770514
N   0.1919764268 -0.8650569354 -0.5161301467
N  -1.9028039441 -1.8675212642 -0.4968291203
O  -1.6444084027  1.6977024344 -0.2905155478
H  -2.0904779112  0.9395124498  0.1172957808
H  -0.0216110329 -0.7160212953 -1.5052999344
H  -0.7282289090 -1.8042259328  1.2187143955
H   0.3089597264  1.5529833548  0.5603897164
H  -2.6440270199 -2.3619833406 -0.0164529862
H  -1.9907538288 -1.6937348570 -1.4908870017
H  -0.3332050408  3.1638624064  0.2808326667
H  -0.9226713570  2.1839564072  1.6556932738
H   2.5075496965  0.4101704323  1.5990097099
H   1.4612551751  1.0486201981 -1.7994388318
H   2.3721470274 -1.3426986859  1.4565481134
H   1.0052343693 -0.4044606745  2.0758599930
H   2.7598873587  1.2881841812 -0.5990147728
H   2.7653642013 -0.1258670414 -1.6631352994
22
Iteration 41  Energy = -72.4703733997
C  -0.8069371952 -1.5329797895  0.1659289543
C   1.3376905270 -0.2350033927 -0.0710010779
C  -0.6041157951  2.1686898313  0.6208779936
C   1.8131491164 -0.4041290448  1.3267975195
C   2.1112816565  0.5341600323 -1.0737104759
N   0.1942309915 -0.8659377658 -0.5186718260
N  -1.9006280013 -1.8683853415 -0.4964913720
O  -1.6437660397  1.6965139746 -0.2893234014
H  -2.0845101728  0.9344175279  0.1169807558
H  -0.0176702616 -0.7199444262 -1.5086149892
H  -0.7251068085 -1.8027739369  1.2179267385
H   0.3038870874  1.5749682218  0.5813418032
H  -2.6417047862 -2.3618381456 -0.0148707200
H  -1.9901072237 -1.6940423211 -1.4902898164
H  -0.3525514866  3.1779436989  0.2873410234
H  -0.9454641647  2.2009956918  1.6613122515
H   2.5112605868  0.4043974138  1.5955812414
H   1.4586669618  1.0540466539 -1.7937160890
H   2.3650338436 -1.3489034454  1.4641400518
H   1.0018059806 -0.3974517548  2.0713225633
H   2.7652726049  1.2818884818 -0.5991038841
H   2.7617560576 -0.1232110801 -1.6760594328
22
Iteration 42  Energy = -72.4712390379
C  -0.8053632951 -1.5351538073  0.1658116700
C   1.3417310545 -0.2433147942 -0.0727906582
C  -0.6105198309  2.1872647454  0.6209487054
C   1.8105396626 -0.4080620585  1.3280691098
C   2.1121699073  0.5309609640 -1.0741121867
N   0.1958302823 -0.8687497715 -0.5196113760
N  -1.9004733359 -1.8685155495 -0.4950438893
O  -1.6409818994  1.6951587590 -0.2895881077
H  -2.0743133354  0.9313821477  0.1216004090
H  -0.0148693390 -0.7241894583 -1.5099591850
H  -0.7224952442 -1.8060008631  1.2172856542
H   0.3031634946  1.5995431677  0.5930867500
H  -2.6420236463 -2.3600274156 -0.0122183158
H  -1.9919380204 -1.6920554175 -1.4882697868
H  -0.3667777961  3.1950062502  0.2772257678
H  -0.9586082390  2.2297947598  1.6588305792
H   2.5146399349  0.3961819233  1.5942860328
H   1.4564196390  1.0584124850 -1.7860058970
H   2.3525754949 -1.3572152678  1.4747619194
H   0.9957156413 -0.3884877771  2.0689197438
H   2.7708551128  1.2731268600 -0.5972168425
H   2.7565182637 -0.1232273322 -1.6864795637
22
Iteration 43  Energy = -72.4720426873
C  -0.8033742716 -1.5374404754  0.1657893621
C   1.3453038530 -0.2499623416 -0.0742875379
C  -0.6181137688  2.2055177521  0.6220662807
C   1.8086486339 -0.4120679896  1.3288324818
C   2.1125204583  0.5278319383 -1.0753166619
N   0.1975683163 -0.8716355489 -0.5205018268
N  -1.8999124499 -1.8691075659 -0.4933626254
O  -1.6377513533  1.6937268163 -0.2901431288
H  -2.0644902247  0.9285749427  0.1254234432
H  -0.0125129604 -0.7275219031 -1.5109206497
H  -0.7195213502 -1.8087058899  1.2168896336
H   0.3002635180  1.6218852484  0.6056995687
H  -2.6418435890 -2.3586206297 -0.0091411149
H  -1.9933933816 -1.6909002203 -1.4860669599
H  -0.3810112584  3.2115729142  0.2692455021
H  -0.9742120488  2.2565041933  1.6567005870
H   2.5198511922  0.3867975709  1.5922404013
H   1.4534254774  1.0665858829 -1.7760060885
H   2.3395911514 -1.3662863370  1.4835464142
H   0.9911966960 -0.3790459627  2.0666348971
H   2.7799952103  1.2610329917 -0.5968827047
H   2.7457596678 -0.1248257095 -1.7009578013
22
Iteration 44  Energy = -72.4727707581
C  -0.8011913025 -1.5397061571  0.1661349671
C   1.3483694735 -0.2552775100 -0.0751876722
C  -0.6266851892  2.2236153745  0.6233877370
C   1.8070420027 -0.4161174548  1.3297173126
C   2.1134149352  0.5241614917 -1.0764687457
N   0.1994187702 -0.8743657490 -0.5210037037
N  -1.8991257447 -1.8698866115 -0.4912376192
O  -1.6349309667  1.6924172727 -0.2907033624
H  -2.0556995079  0.9263022086  0.1292425445
H  -0.0107473941 -0.7296702709 -1.5111042928
H  -0.7164344864 -1.8109163925  1.2169489372
H   0.2954997581  1.6439990146  0.6190803864
H  -2.6413326020 -2.3573866178 -0.0054556037
H  -1.9946832333 -1.6902270060 -1.4834674949
H  -0.3953408316  3.2277035754  0.2615049865
H  -0.9912927938  2.2823114465  1.6544141510
H   2.5268779955  0.3758657167  1.5902692480
H   1.4519554250  1.0742819296 -1.7663481085
H   2.3250820237 -1.3763672124  1.4914184544
H   0.9876742879 -0.3686387393  2.0649437542
H   2.7901176376  1.2480890783 -0.5971082894
H   2.7348004514 -0.1280895879 -1.7144199330
22
Iteration 45  Energy = -72.4734327273
C  -0.7980122709 -1.5417971836  0.1626982786
C   1.3516303588 -0.2588810130 -0.0785465635
C  -0.6381889944  2.2383543397  0.6304676998
C   1.8059844373 -0.4196167509  1.3278954294
C   2.1165468421  0.5201957954 -1.0800538626
N   0.2018871161 -0.8757749682 -0.5246341401
N  -1.8972655327 -1.8703752196 -0.4931375966
O  -1.6335214776  1.6914340516 -0.2886771424
H  -2.0488868575  0.9227645265  0.1320591464
H  -0.0088747170 -0.7289952226 -1.5140362699
H  -0.7121193850 -1.8140172326  1.2129593984
H   0.2879124586  1.6639902050  0.6378264190
H  -2.6394750896 -2.3567263433 -0.0062365697
H  -1.9951154011 -1.6881430806 -1.4846653764
H  -0.4116845286  3.2416026022  0.2635507009
H  -1.0124239222  2.3004129132  1.6575582648
H   2.5335403256  0.3657592163  1.5867322701
H   1.4543531183  1.0797932998 -1.7617494380
H   2.3124038542 -1.3851921268  1.4950922877
H   0.9850756420 -0.3599416543  2.0607649333
H   2.8010989716  1.2360374563 -0.5999967878
H   2.7278834486 -0.1327360116 -1.7270880572
22
Iteration 46  Energy = -72.4740344957
C  -0.7953498613 -1.5443158618  0.1593367272
C   1.3539937434 -0.2621483515 -0.0820088103
C  -0.6470595458  2.2537800111  0.6378174244
C   1.8049389074 -0.4238067946  1.3256231963
C   2.1187410105  0.5162531870 -1.0841605039
N   0.2034865025 -0.8771406073 -0.5282155125
N  -1.8964235449 -1.8703241132 -0.4946288084
O  -1.6300954316  1.6912372802 -0.2852450154
H  -2.0406210467  0.9209309191  0.1373236437
H  -0.0090137145 -0.7267508955 -1.5164226767
H  -0.7076808173 -1.8185989898  1.2087415121
H   0.2833986640  1.6861106377  0.6557100303
H  -2.6384691540 -2.3558516200 -0.0066763028
H  -1.9969988195 -1.6846797040 -1.4852446395
H  -0.4260794319  3.2563261691  0.2658225717
H  -1.0294562423  2.3184317116  1.6614718268
H   2.5413538223  0.3537990362  1.5825583742
H   1.4560765213  1.0873472001 -1.7561168130
H   2.2984632729 -1.3953737630  1.4971872755
H   0.9832105622 -0.3515693339  2.0567161659
H   2.8133267665  1.2220009432 -0.6038040751
H   2.7176088884 -0.1378330759 -1.7418394458
22
Iteration 47  Energy = -72.4745782689
C  -0.7927173967 -1.5476863318  0.1569799595
C   1.3556579493 -0.2651212447 -0.0850142071
C  -0.6560117381  2.2685008385  0.6462352967
C   1.8038025260 -0.4274793359  1.3236985310
C   2.1205708128  0.5115518914 -1.0884474352
N   0.2044853305 -0.8786639341 -0.5309582282
N  -1.8957398429 -1.8712133589 -0.4948691520
O  -1.6273225412  1.6905612158 -0.2797833648
H  -2.0321238831  0.9181751525  0.1446162974
H  -0.0103203530 -0.7247019538 -1.5178253382
H  -0.7027312385 -1.8244535749  1.2054214033
H   0.2799701096  1.7094545777  0.6710332655
H  -2.6373278323 -2.3563705389 -0.0058602174
H  -1.9993863659 -1.6817906791 -1.4844498607
H  -0.4431893543  3.2714830588  0.2706464816
H  -1.0445155588  2.3332299190  1.6674322702
H   2.5489095551  0.3423674863  1.5785484575
H   1.4582127488  1.0943426834 -1.7508903008
H   2.2845716101 -1.4047801939  1.4992443223
H   0.9817359330 -0.3429890306  2.0533492292
H   2.8258329627  1.2067381977 -0.6085580009
H   2.7062972771 -0.1443444303 -1.7562982180
22
Iteration 48  Energy = -72.4750949220
C  -0.7892180816 -1.5504450850  0.1547254659
C   1.3580814985 -0.2672386670 -0.0873259563
C  -0.6671009566  2.2827300022  0.6529191199
C   1.8036437313 -0.4326835137  1.3220067458
C   2.1225901655  0.5089887999 -1.0913002914
N   0.2061637378 -0.8791605773 -0.5333495203
N  -1.8937983346 -1.8722560967 -0.4953700206
O  -1.6264111108  1.6897271333 -0.2761722470
H  -2.0256883435  0.9154287868  0.1500550255
H  -0.0109754913 -0.7216422840 -1.5189020416
H  -0.6971664159 -1.8291731312  1.2023415318
H   0.2737953735  1.7315520663  0.6850816667
H  -2.6347400600 -2.3575368523 -0.0055060677
H  -1.9999908184 -1.6798952395 -1.4841140633
H  -0.4616517253  3.2856828695  0.2730920082
H  -1.0622482071  2.3488524517  1.6714506321
H   2.5619011863  0.3248844667  1.5745878024
H   1.4607094824  1.1038140279 -1.7436883673
H   2.2652982247 -1.4186708694  1.5009267410
H   0.9822660147 -0.3314632503  2.0507455652
H   2.8383758416  1.1931559603 -0.6114726511
H   2.6953710037 -0.1476017090 -1.7698738457
22
Iteration 49  Energy = -72.4755793289
C  -0.7864835873 -1.5522442757  0.1559584335
C   1.3605431783 -0.2701708298 -0.0873954357
C  -0.6775207622  2.2987103151  0.6529265814
C   1.8025733386 -0.4360911231  1.3230606873
C   2.1255634120  0.5034854071 -1.0927779943
N   0.2077444833 -0.8806544724 -0.5329887728
N  -1.8920369762 -1.8738626591 -0.4926226376
O  -1.6255691194  1.6885228731 -0.2767381909
H  -2.0196551382  0.9139332846  0.1538704083
H  -0.0109327506 -0.7217918753 -1.5177517075
H  -0.6932865783 -1.8300576716  1.2035964773
H   0.2675364582  1.7549789671  0.6950503623
H  -2.6327167735 -2.3582897724 -0.0015159957
H  -1.9997695804 -1.6810927084 -1.4811217892
H  -0.4784897439  3.2998856374  0.2647351019
H  -1.0796429517  2.3712234734  1.6684367416
H   2.5743591107  0.3085666023  1.5723891585
H   1.4652459608  1.1094488755 -1.7366145214
H   2.2433849531 -1.4305956318  1.5073891704
H   0.9819097239 -0.3160034667  2.0501537708
H   2.8520887296  1.1769004735 -0.6141387091
H   2.6854162206 -0.1551127967 -1.7803856521
22
Iteration 50  Energy = -72.4760425762
C  -0.7839560400 -1.5537098715  0.1572588609
C   1.3629666832 -0.2734698175 -0.0876308137
C  -0.6866230354  2.3145513024  0.6530016101
C   1.8010595083 -0.4397680245  1.3239789005
C   2.1286464024  0.4976641573 -1.0941954531
N   0.2091726455 -0.8823390712 -0.5327988453
N  -1.8905071838 -1.8752581188 -0.4896820015
O  -1.6243368421  1.6874905259 -0.2761300891
H  -2.0128766759  0.9127296971  0.1592827261
H  -0.0111620461 -0.7222078371 -1.5167921726
H  -0.6897106367 -1.8302429401  1.2050544067
H   0.2624120521  1.7784817626  0.7053785969
H  -2.6307918273 -2.3589546308  0.0027311270
H  -1.9998461582 -1.6821744208 -1.4779531491
H  -0.4938488521  3.3135285444  0.2558933188
H  -1.0953175333  2.3942652265  1.6655165042
H   2.5873408489  0.2904836070  1.5697680281
H   1.4703276500  1.1151070987 -1.7293056492
H   2.2186760452 -1.4431410688  1.5142614787
H   0.9816976955 -0.2990300441  2.0492617660
H   2.8662042627  1.1597584561 -0.6167834741
H   2.6752746289 -0.1627250169 -1.7909331373
22
Iteration 51  Energy = -72.4764636830
C  -0.7791320425 -1.5557382404  0.1553561276
C   1.3662449292 -0.2747099738 -0.0901560130
C  -0.6991754629  2.3260666914  0.6598948052
C   1.8028824307 -0.4452823647  1.3212462503
C   2.1306263857  0.4972785927 -1.0967637422
N   0.2116599020 -0.8822689384 -0.5352687367
N  -1.8870654671 -1.8765199356 -0.4895555656
O  -1.6239450396  1.6871665252 -0.2745085214
H  -2.0094943064  0.9111679803  0.1613652290
H  -0.0113881177 -0.7188513486 -1.5179038261
H  -0.6829047088 -1.8335237459  1.2026171494
H   0.2528403997  1.7964489231  0.7240380587
H  -2.6259019779 -2.3615796316  0.0036882628
H  -1.9989174053 -1.6816075940 -1.4772004227
H  -0.5101245029  3.3242134905  0.2589003769
H  -1.1182638293  2.4090413222  1.6681119870
H   2.6017170654  0.2715754770  1.5648401932
H   1.4731558079  1.1281024464 -1.7197482425
H   2.2002781796 -1.4564035416  1.5135128713
H   0.9860989767 -0.2883679313  2.0463253007
H   2.8798017908  1.1466212003 -0.6199717641
H   2.6628131497 -0.1622785493 -1.8056805447
22
Iteration 52  Energy = -72.4768598751
C  -0.7744402719 -1.5573624265  0.1540804888
C   1.3691081384 -0.2757330960 -0.0916655078
C  -0.7118728335  2.3377012730  0.6635793696
C   1.8038554603 -0.4513380479  1.3195246038
C   2.1330428153  0.4966923362 -1.0980206499
N   0.2141783397 -0.8823249056 -0.5372415714
N  -1.8832737294 -1.8783674804 -0.4890270750
O  -1.6247281920  1.6865768679 -0.2745194847
H  -2.0075873343  0.9101856296  0.1630763117
H  -0.0112921325 -0.7160774362 -1.5186853416
H  -0.6771005294 -1.8351189424  1.2011990359
H   0.2413442953  1.8117740290  0.7423501815
H  -2.6205944420 -2.3648239052  0.0050939638
H  -1.9972419278 -1.6826552712 -1.4762788380
H  -0.5234005926  3.3331178481  0.2555341604
H  -1.1421987316  2.4284486301  1.6666009285
H   2.6176374353  0.2491758909  1.5605242644
H   1.4773340676  1.1415433831 -1.7085938167
H   2.1773158143 -1.4711810374  1.5145320974
H   0.9905333903 -0.2748849357  2.0444212892
H   2.8936985833  1.1326504566 -0.6214367693
H   2.6504954866 -0.1617048632 -1.8190430121
22
Iteration 53  Energy = -72.4772203044
C  -0.7711385134 -1.5579492381  0.1537116440
C   1.3713805582 -0.2773269024 -0.0922411954
C  -0.7228269518  2.3502645895  0.6642944021
C   1.8040753734 -0.4582842265  1.3187637540
C   2.1361472605  0.4942166673 -1.0983936555
N   0.2159373008 -0.8824537261 -0.5384758425
N  -1.8804094178 -1.8798367524 -0.4878995416
O  -1.6263355191  1.6862822092 -0.2742635112
H  -2.0061826023  0.9104671530  0.1670413807
H  -0.0114800532 -0.7139916276 -1.5189807669
H  -0.6737867323 -1.8343037879  1.2011538067
H   0.2296270428  1.8249300509  0.7591735932
H  -2.6165257199 -2.3670916011  0.0072106503
H  -1.9959987202 -1.6841370962 -1.4749728760
H  -0.5316767928  3.3405922370  0.2452041619
H  -1.1637389063  2.4541156358  1.6616183990
H   2.6346769250  0.2231546213  1.5567441023
H   1.4835081945  1.1536773615 -1.6967373116
H   2.1512033478 -1.4869350591  1.5172901287
H   0.9954023596 -0.2597620986  2.0435462496
H   2.9085271063  1.1159429261 -0.6219569526
H   2.6382378416 -0.1634985421 -1.8309751262
22
Iteration 54  Energy = -72.4775397853
C  -0.7689569068 -1.5587545983  0.1523536865
C   1.3717406031 -0.2784445198 -0.0940374895
C  -0.7303873382  2.3646283903  0.6676837495
C   1.8010673979 -0.4606991120  1.3177837200
C   2.1378211021  0.4911286708 -1.1005010941
N   0.2179968313 -0.8857347693 -0.5415116660
N  -1.8783342140 -1.8822421636 -0.4878914636
O  -1.6226951228  1.6840648129 -0.2700780386
H  -1.9978624783  0.9087968290  0.1762829214
H  -0.0093453229 -0.7192363572 -1.5222655196
H  -0.6727112918 -1.8312985682  1.2008448987
H   0.2212672519  1.8407976734  0.7818960413
H  -2.6141882767 -2.3681309222  0.0089177900
H  -1.9952789484 -1.6873398988 -1.4749709997
H  -0.5363953411  3.3483973326  0.2346287584
H  -1.1834501765  2.4845560639  1.6578755110
H   2.6460214517  0.2038513850  1.5524843365
H   1.4885358107  1.1630138006 -1.6886863077
H   2.1254336088 -1.4956710074  1.5223894337
H   0.9963778892 -0.2414814315  2.0412344909
H   2.9204721363  1.1003411709 -0.6247886362
H   2.6263088266 -0.1665626743 -1.8423163877
22
Iteration 55  Energy = -72.4778199867
C  -0.7672703790 -1.5595162947  0.1509355725
C   1.3719392265 -0.2796553011 -0.0956269460
C  -0.7374775780  2.3787625652  0.6703479840
C   1.7983010062 -0.4629528183  1.3169124346
C   2.1389131452  0.4886342358 -1.1021740220
N   0.2196667682 -0.8887296472 -0.5443123447
N  -1.8764766448 -1.8848330757 -0.4882572920
O  -1.6187366746  1.6815063229 -0.2658305460
H  -1.9906652354  0.9080922438  0.1864957319
H  -0.0070394650 -0.7247809815 -1.5256289786
H  -0.6721786180 -1.8286044895  1.2004099269
H   0.2114060108  1.8545059143  0.8073154162
H  -2.6120568012 -2.3695606049  0.0100561787
H  -1.9945056447 -1.6907605247 -1.4753826515
H  -0.5367016666  3.3537942755  0.2208742577
H  -1.2039995347  2.5185302237  1.6517052452
H   2.6568545360  0.1851084970  1.5482672581
H   1.4929599245  1.1734689916 -1.6791894298
H   2.1013722870 -1.5033264551  1.5274715630
H   0.9980514760 -0.2238861804  2.0392106844
H   2.9326017457  1.0844706124 -0.6277387199
H   2.6129215991 -0.1685320391 -1.8539075787
22
Iteration 56  Energy = -72.4780619816
C  -0.7657737122 -1.5605874569  0.1490338178
C   1.3719493886 -0.2811713866 -0.0976560815
C  -0.7438103613  2.3928692012  0.6729329302
C   1.7950850638 -0.4637161611  1.3159234229
C   2.1397264442  0.4859555118 -1.1043866880
N   0.2211685826 -0.8918943652 -0.5474712550
N  -1.8747453558 -1.8876103411 -0.4893198361
O  -1.6139873020  1.6784573123 -0.2607928709
H  -1.9829152708  0.9073376852  0.1979299339
H  -0.0044653727 -0.7309020817 -1.5295381613
H  -0.6715669219 -1.8270967936  1.1992330004
H   0.2017872706  1.8686551079  0.8335124824
H  -2.6101764776 -2.3711472158  0.0103376078
H  -1.9937860298 -1.6940579286 -1.4764364199
H  -0.5354173429  3.3581954746  0.2063142664
H  -1.2236407487  2.5537697600  1.6445757258
H   2.6646688614  0.1705212399  1.5440035697
H   1.4970376451  1.1830786025 -1.6703690352
H   2.0801961931 -1.5079234176  1.5329857662
H   0.9987910461 -0.2070787264  2.0366720043
H   2.9441617435  1.0686824089 -0.6317205948
H   2.5993664204 -0.1704958493 -1.8656529557
22
Iteration 57  Energy = -72.4782754258
C  -0.7642778660 -1.5621951937  0.1466211194
C   1.3720217683 -0.2829938864 -0.0998388520
C  -0.7497976377  2.4066016213  0.6755916030
C   1.7914328585 -0.4630165489  1.3151514661
C   2.1409107630  0.4825563436 -1.1069397267
N   0.2226493710 -0.8950708216 -0.5507119537
N  -1.8729658943 -1.8904506725 -0.4912484721
O  -1.6086522821  1.6749586552 -0.2553090157
H  -1.9749492582  0.9064292062  0.2098699012
H  -0.0019880789 -0.7364041914 -1.5334011423
H  -0.6706669437 -1.8275787966  1.1971632029
H   0.1922169229  1.8832791036  0.8604235273
H  -2.6084251659 -2.3729313311  0.0093617788
H  -1.9928284553 -1.6968661724 -1.4782676729
H  -0.5333024952  3.3615852168  0.1917478471
H  -1.2429971197  2.5893676848  1.6366488689
H   2.6694871669  0.1603750585  1.5403621333
H   1.5017045241  1.1913408001 -1.6624323673
H   2.0619667212 -1.5097059682  1.5391462104
H   0.9980699873 -0.1912814705  2.0336658234
H   2.9556013668  1.0525567977 -0.6362789590
H   2.5864364489 -0.1732795906 -1.8770672062
22
Iteration 58  Energy = -72.4784656242
C  -0.7633200904 -1.5646397981  0.1449365673
C   1.3714779341 -0.2847585609 -0.1014726609
C  -0.7545244108  2.4204038898  0.6787843522
C   1.7869289003 -0.4605414152  1.3151978242
C   2.1416519955  0.4785009550 -1.1093978655
N   0.2231103487 -0.8978133164 -0.5529066128
N  -1.8721653956 -1.8930106630 -0.4922928436
O  -1.6026029527  1.6712763279 -0.2480632310
H  -1.9668603477  0.9061804283  0.2243838373
H  -0.0018995880 -0.7391482097 -1.5355096162
H  -0.6693008303 -1.8312210798  1.1951627151
H   0.1837152298  1.8986158356  0.8875459165
H  -2.6073859649 -2.3751760342  0.0089393250
H  -1.9932711863 -1.6982251917 -1.4789289405
H  -0.5298423626  3.3644252127  0.1775248357
H  -1.2603030926  2.6253803652  1.6288320329
H   2.6708026080  0.1553453206  1.5380743063
H   1.5061667778  1.1978967058 -1.6555795244
H   2.0467106293 -1.5084672935  1.5462713985
H   0.9951187883 -0.1766871366  2.0307915898
H   2.9659971348  1.0365748801 -0.6411886805
H   2.5736546584 -0.1771812301 -1.8872715116
22
Iteration 59  Energy = -72.4786484913
C  -0.7618924482 -1.5681511577  0.1426633340
C   1.3708843631 -0.2860138189 -0.1027725874
C  -0.7589290426  2.4341575621  0.6805711922
C   1.7826029035 -0.4579409947  1.3153755380
C   2.1429715314  0.4742688935 -1.1115230692
N   0.2233825471 -0.8997005351 -0.5549358611
N  -1.8713523125 -1.8953284896 -0.4938713908
O  -1.5972856717  1.6672347705 -0.2405211006
H  -1.9601112738  0.9066575516  0.2403066453
H  -0.0027210268 -0.7390255578 -1.5369724335
H  -0.6663498613 -1.8388019298  1.1917659012
H   0.1741118079  1.9130234029  0.9146230166
H  -2.6058649531 -2.3785076140  0.0073908600
H  -1.9942114808 -1.6976867899 -1.4797337146
H  -0.5238116629  3.3652848267  0.1602702720
H  -1.2771973571  2.6640382450  1.6182611328
H   2.6705001189  0.1526372253  1.5367893122
H   1.5116450307  1.2033143060 -1.6498305750
H   2.0344964350 -1.5065128824  1.5524126938
H   0.9913714384 -0.1648352809  2.0279175426
H   2.9761849888  1.0211517361 -0.6457127706
H   2.5625179790 -0.1817445969 -1.8958545799
22
Iteration 60  Energy = -72.4788180665
C  -0.7602323400 -1.5723317137  0.1399272754
C   1.3704074271 -0.2870509900 -0.1039353508
C  -0.7628608234  2.4474917523  0.6807647064
C   1.7780058067 -0.4546596576  1.3157971554
C   2.1451866853  0.4690588751 -1.1137150307
N   0.2233845687 -0.9007676938 -0.5567942490
N  -1.8705187098 -1.8976166323 -0.4959562482
O  -1.5934258648  1.6627592240 -0.2322609597
H  -1.9537537235  0.9068320068  0.2577660539
H  -0.0045293848 -0.7364463857 -1.5378393488
H  -0.6622834687 -1.8494679986  1.1871521930
H   0.1652265463  1.9276667671  0.9376129988
H  -2.6039993600 -2.3827313011  0.0049110387
H  -1.9955819017 -1.6957515648 -1.4806978528
H  -0.5183074795  3.3653013621  0.1415706813
H  -1.2913165793  2.7016867878  1.6064199951
H   2.6688405596  0.1519694945  1.5362554320
H   1.5190308185  1.2078194223 -1.6449543062
H   2.0235283297 -1.5034452342  1.5587661568
H   0.9864872794 -0.1535564582  2.0247423751
H   2.9875443258  1.0042286647 -0.6506044774
H   2.5518801518 -0.1880456819 -1.9038610623
22
Iteration 61  Energy = -72.4789726214
C  -0.7584333067 -1.5769693697  0.1367766018
C   1.3700036276 -0.2879625328 -0.1049298515
C  -0.7659384225  2.4603049654  0.6799936277
C   1.7731369992 -0.4508115931  1.3164881639
C   2.1480467409  0.4632754659 -1.1157432851
N   0.2230426325 -0.9009713289 -0.5584668871
N  -1.8697653509 -1.8996948902 -0.4983920769
O  -1.5906387622  1.6582006193 -0.2230516790
H  -1.9473927192  0.9068650717  0.2766323188
H  -0.0071160985 -0.7319600973 -1.5382310574
H  -0.6574251265 -1.8622263047  1.1815514262
H   0.1578842599  1.9426604790  0.9567662536
H  -2.6018956567 -2.3875772995  0.0017171731
H  -1.9974879157 -1.6922939756 -1.4816470470
H  -0.5134451108  3.3648237006  0.1224229961
H  -1.3022769848  2.7376070852  1.5944160501
H   2.6661444542  0.1528566355  1.5363382188
H   1.5276941036  1.2115670976 -1.6405915307
H   2.0133611101 -1.4994693908  1.5654684242
H   0.9807620262 -0.1425264304  2.0214499160
H   2.9993971685  0.9866063166 -0.6553991743
H   2.5420379919 -0.1953063427 -1.9110618530
22
Iteration 62  Energy = -72.4791377262
C  -0.7561872313 -1.5826849499  0.1336751034
C   1.3689234781 -0.2881021325 -0.1054243856
C  -0.7678613473  2.4717427212  0.6782761366
C   1.7696540468 -0.4488695937  1.3168016285
C   2.1488120934  0.4607042413 -1.1165018627
N   0.2222403634 -0.9006701062 -0.5597319335
N  -1.8693865789 -1.9014007799 -0.5000658192
O  -1.5868886322  1.6533197502 -0.2153269669
H  -1.9459459709  0.9102103070  0.2949847573
H  -0.0113187884 -0.7250537086 -1.5376046979
H  -0.6511273360 -1.8772425244  1.1754878349
H   0.1453793211  1.9512011837  0.9850321491
H  -2.5994428117 -2.3933188865 -0.0009291355
H  -2.0004751983 -1.6874995895 -1.4814837460
H  -0.4960643510  3.3568961311  0.0986848218
H  -1.3165445996  2.7820088040  1.5751842310
H   2.6639686593  0.1529811858  1.5363885759
H   1.5324277668  1.2159559335 -1.6360894183
H   2.0068426140 -1.4975210395  1.5687760689
H   0.9769092161 -0.1366864885  2.0196311016
H   3.0064245717  0.9753913698 -0.6580019344
H   2.5337733301 -0.1980870530 -1.9160168391
22
Iteration 63  Energy = -72.4792971090
C  -0.7539501480 -1.5886068670  0.1305683052
C   1.3675365084 -0.2880304183 -0.1057028572
C  -0.7689148528  2.4826223829  0.6759937049
C   1.7665805802 -0.4476453560  1.3170553713
C   2.1487530333  0.4593512581 -1.1166956277
N   0.2212057528 -0.9002118875 -0.5608636028
N  -1.8691725814 -1.9031305507 -0.5015306930
O  -1.5828615817  1.6485139050 -0.2079787168
H  -1.9464419567  0.9152077790  0.3132518944
H  -0.0159969597 -0.7176168618 -1.5366528110
H  -0.6445693786 -1.8924018936  1.1692855628
H   0.1316722705  1.9589876209  1.0142658410
H  -2.5969973073 -2.3993181632 -0.0034300859
H  -2.0038521960 -1.6824039981 -1.4809409048
H  -0.4752317678  3.3463617062  0.0750921927
H  -1.3298540339  2.8274968790  1.5528212072
H   2.6614313466  0.1534429500  1.5366496033
H   1.5355701309  1.2205711100 -1.6314318158
H   2.0023325862 -1.4962365638  1.5707643556
H   0.9733493152 -0.1335025512  2.0184671405
H   3.0116040644  0.9666795248 -0.6597045130
H   2.5261408923 -0.1991378934 -1.9200657331
22
Iteration 64  Energy = -72.4794423060
C  -0.7517441548 -1.5945971196  0.1275232589
C   1.3659268861 -0.2878868847 -0.1058227186
C  -0.7697187981  2.4934637967  0.6730998606
C   1.7641253143 -0.4476191811  1.3171225834
C   2.1479145777  0.4591729242 -1.1163976716
N   0.2199935232 -0.8997090053 -0.5619127031
N  -1.8689271660 -1.9052264986 -0.5028454867
O  -1.5785649270  1.6437457957 -0.2010675717
H  -1.9478857862  0.9212781226  0.3311757522
H  -0.0209434921 -0.7101242479 -1.5355161323
H  -0.6381052797 -1.9070668665  1.1632222674
H   0.1169812925  1.9674348673  1.0436032059
H  -2.5944422382 -2.4057566125 -0.0057898899
H  -2.0074087227 -1.6774061326 -1.4800888344
H  -0.4531816558  3.3346620912  0.0521380708
H  -1.3425282312  2.8727874229  1.5280469685
H   2.6597802364  0.1523474430  1.5366627436
H   1.5373622874  1.2257478345 -1.6263716260
H   1.9984000365 -1.4964045275  1.5715678557
H   0.9708821966 -0.1317551260  2.0177945487
H   3.0153100608  0.9599254997 -0.6606290239
H   2.5186325291 -0.1983574810 -1.9236612920
22
Iteration 65  Energy = -72.4795635418
C  -0.7496992178 -1.6004128400  0.1240844305
C   1.3641744318 -0.2876610869 -0.1060827058
C  -0.7708263885  2.5048227446  0.6696978044
C   1.7620014861 -0.4485209929  1.3168354847
C   2.1468541502  0.4594854794 -1.1160577121
N   0.2185492271 -0.8989067053 -0.5632097368
N  -1.8683756166 -1.9081317203 -0.5048331613
O  -1.5741751688  1.6388603761 -0.1940476373
H  -1.9494596343  0.9279480845  0.3494726905
H  -0.0259989737 -0.7024971018 -1.5345990632
H  -0.6323469033 -1.9202131034  1.1570942223
H   0.1025305168  1.9787427225  1.0710699874
H  -2.5915674067 -2.4130571652 -0.0089053876
H  -2.0107343104 -1.6729035484 -1.4797464599
H  -0.4332963874  3.3237910494  0.0304623912
H  -1.3544045806  2.9158709795  1.5024405712
H   2.6598726472  0.1483755492  1.5359179219
H   1.5391359726  1.2318017124 -1.6208258614
H   1.9926839462 -1.4980188718  1.5718364417
H   0.9697675862 -0.1291538367  2.0171534053
H   3.0189054893  0.9531941739 -0.6613632576
H   2.5105430152 -0.1966407557 -1.9276750838
22
Iteration 66  Energy = -72.4796632604
C  -0.7481663648 -1.6059501949  0.1205055929
C   1.3626233265 -0.2878316899 -0.1057160171
C  -0.7724122897  2.5173169510  0.6643372374
C   1.7607541858 -0.4518103047  1.3167812124
C   2.1457976998  0.4604310593 -1.1146098345
N   0.2166752878 -0.8973370881 -0.5639909261
N  -1.8677137994 -1.9113793852 -0.5077636057
O  -1.5715867417  1.6344208683 -0.1865925549
H  -1.9500181181  0.9343902795  0.3686949418
H  -0.0311616568 -0.6940341835 -1.5331425491
H  -0.6274034909 -1.9339561029  1.1505271001
H   0.0909965608  1.9948554901  1.0911408825
H  -2.5888667124 -2.4207266788 -0.0134474480
H  -2.0137161377 -1.6680189022 -1.4801222723
H  -0.4200289987  3.3161453223  0.0081379671
H  -1.3635572037  2.9553770494  1.4775375693
H   2.6641301569  0.1373723498  1.5345521085
H   1.5409198988  1.2391266648 -1.6130240187
H   1.9827127633 -1.5031700374  1.5721388077
H   0.9719812304 -0.1247971817  2.0176086362
H   3.0228219055  0.9462845150 -0.6608882453
H   2.5020267004 -0.1933714306 -1.9314326958
22
Iteration 67  Energy = -72.4797483758
C  -0.7463097203 -1.6108003305  0.1177151704
C   1.3625437535 -0.2887803495 -0.1051468831
C  -0.7750293470  2.5310467601  0.6578598311
C   1.7612181100 -0.4560726489  1.3168099776
C   2.1465640825  0.4597451801 -1.1133164695
N   0.2150173992 -0.8947703512 -0.5638255917
N  -1.8666532782 -1.9138190430 -0.5101137910
O  -1.5709504568  1.6310517790 -0.1786132020
H  -1.9491452024  0.9404260695  0.3884324967
H  -0.0361912957 -0.6844912162 -1.5306095764
H  -0.6216683502 -1.9487509558  1.1441177968
H   0.0823786464  2.0155003388  1.1047339908
H  -2.5858724654 -2.4276804022 -0.0176978421
H  -2.0162604072 -1.6619409932 -1.4797330379
H  -0.4138832213  3.3124227628 -0.0141402618
H  -1.3713947696  2.9910503565  1.4547079829
H   2.6710894266  0.1238421549  1.5328229219
H   1.5456345139  1.2464745217 -1.6039620882
H   1.9727038386 -1.5094840878  1.5728623424
H   0.9767657927 -0.1199545193  2.0182566602
H   3.0301659308  0.9354636077 -0.6614243454
H   2.4929011351 -0.1917893286 -1.9362394153
22
Iteration 68  Energy = -72.4798198418
C  -0.7441329563 -1.6159106208  0.1147791330
C   1.3628901312 -0.2904241155 -0.1048175064
C  -0.7788116340  2.5453636155  0.6511607437
C   1.7615615950 -0.4604790506  1.3168410489
C   2.1481320981  0.4580519750 -1.1121890011
N   0.2135164996 -0.8923398387 -0.5638014193
N  -1.8655284459 -1.9161358724 -0.5123988544
O  -1.5707590893  1.6276020071 -0.1700492604
H  -1.9460146917  0.9449473942  0.4084500388
H  -0.0410200130 -0.6751153082 -1.5281572457
H  -0.6150620307 -1.9639237216  1.1373517537
H   0.0766003985  2.0402476295  1.1136538362
H  -2.5827219820 -2.4346741856 -0.0219668759
H  -2.0187613019 -1.6557614748 -1.4791805614
H  -0.4148732893  3.3124644718 -0.0354058329
H  -1.3794444240  3.0216798290  1.4347783297
H   2.6761080553  0.1124286546  1.5319499981
H   1.5517230238  1.2532378241 -1.5947989677
H   1.9652076162 -1.5153511014  1.5733950294
H   0.9800418738 -0.1178463625  2.0183815550
H   3.0384483905  0.9229850046 -0.6621302301
H   2.4841167546 -0.1911644295 -1.9412288168
22
Iteration 69  Energy = -72.4798743800
C  -0.7430065498 -1.6183696125  0.1123415948
C   1.3640897805 -0.2928550655 -0.1040948964
C  -0.7813270397  2.5584280660  0.6410862444
C   1.7623789381 -0.4662279751  1.3173309147
C   2.1505428543  0.4564119371 -1.1099437324
N   0.2124773836 -0.8897510812 -0.5636512909
N  -1.8641292461 -1.9181023783 -0.5154481478
O  -1.5746725707  1.6243355652 -0.1603543646
H  -1.9402250760  0.9469152518  0.4304294715
H  -0.0439412809 -0.6671627396 -1.5262185509
H  -0.6124290840 -1.9702689868  1.1333059419
H   0.0788793213  2.0649559967  1.1073309525
H  -2.5801956509 -2.4398607708 -0.0268236586
H  -2.0190629520 -1.6523038994 -1.4804216143
H  -0.4247678323  3.3156865571 -0.0600166270
H  -1.3795642310  3.0445690159  1.4200998113
H   2.6816186326  0.0993713840  1.5320246064
H   1.5582288554  1.2590600147 -1.5852549303
H   1.9579545913 -1.5226727565  1.5738660451
H   0.9838441835 -0.1174480861  2.0191440986
H   3.0461353244  0.9118853419 -0.6607055203
H   2.4780837231 -0.1900256368 -1.9444800129
22
Iteration 70  Energy = -72.4799182490
C  -0.7424222976 -1.6180193590  0.1106741135
C   1.3667585691 -0.2957382018 -0.1034667253
C  -0.7846084263  2.5684711783  0.6311587120
C   1.7642351236 -0.4718396400  1.3179003637
C   2.1550806520  0.4530665434 -1.1081160213
N   0.2120633662 -0.8863110583 -0.5631854863
N  -1.8621995130 -1.9191866743 -0.5187520880
O  -1.5830087127  1.6219463290 -0.1503211553
H  -1.9351837723  0.9469474580  0.4512845838
H  -0.0450951538 -0.6599176301 -1.5246055381
H  -0.6124081219 -1.9701071068  1.1315621040
H   0.0833712726  2.0842283762  1.0929169825
H  -2.5777702181 -2.4430854408 -0.0317044549
H  -2.0170663603 -1.6510948779 -1.4830615230
H  -0.4400775364  3.3194277337 -0.0825917772
H  -1.3760740323  3.0602800730  1.4116589838
H   2.6882996782  0.0861588545  1.5319686719
H   1.5679734472  1.2640307854 -1.5758336559
H   1.9512160738 -1.5297283277  1.5749812860
H   0.9888635650 -0.1161353788  2.0197406737
H   3.0567790566  0.8976846129 -0.6601609111
H   2.4728066319 -0.1910890948 -1.9481716360
22
Iteration 71  Energy = -72.4799583630
C  -0.7422562363 -1.6160366540  0.1096263113
C   1.3703181087 -0.2990553541 -0.1030664491
C  -0.7890186140  2.5771903611  0.6223572624
C   1.7668638766 -0.4771599187  1.3183508281
C   2.1608474460  0.4482962258 -1.1069617936
N   0.2121270056 -0.8827545696 -0.5625261854
N  -1.8600871523 -1.9195920900 -0.5220515557
O  -1.5926266148  1.6201793854 -0.1406025798
H  -1.9305597020  0.9462183528  0.4702573047
H  -0.0450874965 -0.6536702843 -1.5232401032
H  -0.6140912839 -1.9663404955  1.1312901133
H   0.0874240586  2.1011374084  1.0769045603
H  -2.5757249245 -2.4446668134 -0.0363700294
H  -2.0134670350 -1.6517241121 -1.4866390664
H  -0.4578590112  3.3237433372 -0.1022480820
H  -1.3728546456  3.0724526229  1.4063465368
H   2.6955112922  0.0735682630  1.5315270906
H   1.5797246512  1.2680296399 -1.5669458777
H   1.9453951244 -1.5362653831  1.5764685306
H   0.9946962271 -0.1143846001  2.0200872397
H   3.0691141064  0.8812177148 -0.6607762037
H   2.4678066793 -0.1939435503 -1.9524406879
22
Iteration 72  Energy = -72.4799951390
C  -0.7424615968 -1.6130159611  0.1087880766
C   1.3743468050 -0.3026742010 -0.1029981439
C  -0.7939705759  2.5851626028  0.6142536569
C   1.7698771211 -0.4823289390  1.3185508286
C   2.1672635635  0.4426117192 -1.1064519557
N   0.2124149665 -0.8791374026 -0.5619193566
N  -1.8580108281 -1.9194250632 -0.5255015918
O  -1.6026865278  1.6188417091 -0.1310791601
H  -1.9266972885  0.9457178457  0.4881657646
H  -0.0444747933 -0.6479708803 -1.5221733837
H  -0.6169019715 -1.9604682417  1.1316846973
H   0.0904267651  2.1164795045  1.0612613293
H  -2.5740776384 -2.4450626296 -0.0410604916
H  -2.0088815283 -1.6535864710 -1.4910338174
H  -0.4756678323  3.3275975816 -0.1202821516
H  -1.3700885248  3.0836222204  1.4018692500
H   2.7027600619  0.0615666517  1.5308410115
H   1.5923757220  1.2708245809 -1.5591536882
H   1.9402448048 -1.5424589762  1.5779775196
H   1.0007493740 -0.1125168164  2.0199311078
H   3.0818519343  0.8640110926 -0.6621609912
H   2.4635468521 -0.1979942695 -1.9569371044
22
Iteration 73  Energy = -72.4800220803
C  -0.7430168638 -1.6098686084  0.1081413998
C   1.3783091555 -0.3064026794 -0.1025288462
C  -0.7976219240  2.5922494393  0.6045654027
C   1.7734431621 -0.4885369542  1.3188247235
C   2.1722641355  0.4385244183 -1.1052454122
N   0.2126755531 -0.8756722664 -0.5609420655
N  -1.8559316623 -1.9193706317 -0.5292409561
O  -1.6130359085  1.6174799467 -0.1219819718
H  -1.9229012899  0.9457620265  0.5059706242
H  -0.0437196564 -0.6425430597 -1.5208210357
H  -0.6206309544 -1.9541276269  1.1324606790
H   0.0958628543  2.1303373967  1.0407434135
H  -2.5727215209 -2.4452874591 -0.0461794787
H  -2.0034192426 -1.6567260338 -1.4961631819
H  -0.4942264017  3.3312791191 -0.1397191933
H  -1.3638069109  3.0931281057  1.3978372178
H   2.7105059722  0.0484711582  1.5302920045
H   1.6016764922  1.2744338184 -1.5493928136
H   1.9358087531 -1.5498013495  1.5786883463
H   1.0076711208 -0.1123297601  2.0204516461
H   3.0925751300  0.8495083039 -0.6630589386
H   2.4584441618 -0.1991430237 -1.9613436128
22
Iteration 74  Energy = -72.4800419883
C  -0.7437934368 -1.6066875029  0.1076277747
C   1.3817678667 -0.3096959453 -0.1018395913
C  -0.8009836592  2.5994690334  0.5939404989
C   1.7772728046 -0.4955395107  1.3189443239
C   2.1765853312  0.4353510406 -1.1036496628
N   0.2127101338 -0.8721347431 -0.5598169332
N  -1.8539836567 -1.9193432954 -0.5329381362
O  -1.6232161131  1.6161476425 -0.1129791298
H  -1.9196570772  0.9470201039  0.5241355411
H  -0.0433576888 -0.6368143455 -1.5192205969
H  -0.6245817762 -1.9479029833  1.1333118636
H   0.1007928690  2.1441309449  1.0199645723
H  -2.5715440302 -2.4454933402 -0.0512886814
H  -1.9977384605 -1.6604707244 -1.5014324472
H  -0.5117237234  3.3339860497 -0.1603821187
H  -1.3571028956  3.1040693616  1.3919299137
H   2.7179534796  0.0353324806  1.5297842424
H   1.6097928235  1.2776592962 -1.5406145449
H   1.9329269689 -1.5580169867  1.5778848517
H   1.0148270266 -0.1147456934  2.0216529733
H   3.1015288999  0.8375513583 -0.6631033116
H   2.4545361286 -0.1995062270 -1.9644878118
22
Iteration 75  Energy = -72.4800584392
C  -0.7446044996 -1.6037985465  0.1071451818
C   1.3849266711 -0.3131969960 -0.1012261969
C  -0.8074004112  2.6086981973  0.5832468829
C   1.7813742633 -0.5037438268  1.3186866157
C   2.1807896672  0.4318466988 -1.1021054989
N   0.2126252107 -0.8689277096 -0.5588010631
N  -1.8523370971 -1.9192010231 -0.5363118718
O  -1.6317471091  1.6143469476 -0.1052599363
H  -1.9171143284  0.9493524091  0.5411226564
H  -0.0434273701 -0.6309313337 -1.5175155935
H  -0.6281411641 -1.9424257627  1.1339724455
H   0.1003096329  2.1619899507  1.0057731919
H  -2.5705615041 -2.4456827172 -0.0560267115
H  -1.9926081148 -1.6637674877 -1.5062155270
H  -0.5284842586  3.3362661702 -0.1815636988
H  -1.3581609026  3.1192878054  1.3810005073
H   2.7244911027  0.0228014975  1.5294010561
H   1.6174249369  1.2796135858 -1.5330461636
H   1.9327646657 -1.5674238323  1.5752334195
H   1.0215938149 -0.1211696163  2.0232118063
H   3.1095982277  0.8264593006 -0.6628302352
H   2.4519270621 -0.2005369801 -1.9669310796
22
Iteration 76  Energy = -72.4800644592
C  -0.7452470980 -1.6023969044  0.1067594362
C   1.3873823567 -0.3167274272 -0.1000793610
C  -0.8140422340  2.6157309829  0.5702386635
C   1.7858819672 -0.5140499282  1.3183017347
C   2.1834402914  0.4299193287 -1.0995208955
N   0.2122556610 -0.8664188479 -0.5574820347
N  -1.8512320789 -1.9193744908 -0.5389310991
O  -1.6414122968  1.6121795984 -0.1007103510
H  -1.9148522515  0.9500948365  0.5537592789
H  -0.0439748413 -0.6254979019 -1.5153882043
H  -0.6305309280 -1.9401675817  1.1340422246
H   0.1003191260  2.1766242726  0.9864153437
H  -2.5696888893 -2.4468588444 -0.0600980472
H  -1.9894036009 -1.6650011770 -1.5093935162
H  -0.5466764044  3.3379496892 -0.2036752278
H  -1.3581367766  3.1305992471  1.3697729951
H   2.7302951764  0.0099407480  1.5295386834
H   1.6222093353  1.2820082256 -1.5247312653
H   1.9358282127 -1.5791482070  1.5699184009
H   1.0282499794 -0.1333989321  2.0260839035
H   3.1150866026  0.8186434763 -0.6610160809
H   2.4495524201 -0.1993180528 -1.9682069657
22
Iteration 77  Energy = -72.4800656513
C  -0.7489048663 -1.6015152338  0.1063560940
C   1.3874170305 -0.3220021488 -0.1002336878
C  -0.8240949741  2.6206229909  0.5558998191
C   1.7867148474 -0.5231012901  1.3173449647
C   2.1846254861  0.4240569289 -1.0991333250
N   0.2098225005 -0.8665632149 -0.5572055313
N  -1.8534312814 -1.9198688695 -0.5411828223
O  -1.6498712703  1.6106880701 -0.1070740879
H  -1.9189941784  0.9513394446  0.5518214310
H  -0.0458665926 -0.6245395250 -1.5149479861
H  -0.6364004346 -1.9371223479  1.1345882035
H   0.0909135290  2.1862393141  0.9754732238
H  -2.5727331584 -2.4468561375 -0.0630675225
H  -1.9892023885 -1.6678289349 -1.5125912204
H  -0.5579440816  3.3372808349 -0.2234398336
H  -1.3688911722  3.1406983996  1.3515141269
H   2.7326763996 -0.0019136503  1.5286339512
H   1.6260552853  1.2796431241 -1.5208914567
H   1.9341653646 -1.5891108306  1.5666997534
H   1.0308347781 -0.1419123725  2.0266639276
H   3.1187317189  0.8077543153 -0.6614196593
H   2.4464580978 -0.2038627078 -1.9700881029
22
Iteration 78  Energy = -72.4800614790
C  -0.7503766553 -1.6046088183  0.1043908432
C   1.3853882792 -0.3233783984 -0.1005985104
C  -0.8317548860  2.6111463363  0.5484634087
C   1.7863190732 -0.5282946075  1.3159636483
C   2.1806226299  0.4263577355 -1.0982225427
N   0.2074494001 -0.8672003049 -0.5577763257
N  -1.8532698539 -1.9255523908 -0.5446520448
O  -1.6645751479  1.6063639338 -0.1135304972
H  -1.9288429920  0.9435979493  0.5439207961
H  -0.0480061962 -0.6249827221 -1.5155368664
H  -0.6385560675 -1.9402356227  1.1327141951
H   0.0858195491  2.1723461189  0.9578261981
H  -2.5719827069 -2.4542493505 -0.0675300128
H  -1.9883530193 -1.6738440564 -1.5162411809
H  -0.5704819644  3.3317774595 -0.2289309248
H  -1.3690984850  3.1280236301  1.3514103215
H   2.7324315354 -0.0075343176  1.5275603260
H   1.6201419990  1.2815862596 -1.5179935914
H   1.9341536097 -1.5949678625  1.5621913607
H   1.0312108701 -0.1491427775  2.0272013163
H   3.1141436336  0.8109671156 -0.6601252643
H   2.4433366911 -0.1991854923 -1.9705899702
22
Iteration 79  Energy = -72.4800584988
C  -0.7544687837 -1.6018395314  0.1043795089
C   1.3848883999 -0.3265417518 -0.1019372077
C  -0.8167172846  2.6150877030  0.5366655069
C   1.7866297867 -0.5332971744  1.3141168653
C   2.1811555631  0.4215849080 -1.0998679065
N   0.2050784000 -0.8671331058 -0.5583381901
N  -1.8584871562 -1.9199780140 -0.5441257926
O  -1.6614054552  1.6120758367 -0.1131675213
H  -1.9197043288  0.9512175795  0.5485666062
H  -0.0502172373 -0.6243999378 -1.5160195914
H  -0.6431566700 -1.9374435973  1.1327691073
H   0.1054492204  2.1739085245  0.9330125627
H  -2.5784672091 -2.4465109262 -0.0665261561
H  -1.9935189709 -1.6676920228 -1.5155683711
H  -0.5644397885  3.3345838133 -0.2448004073
H  -1.3413597517  3.1339300687  1.3468464561
H   2.7345320800 -0.0154921382  1.5249679161
H   1.6221004306  1.2775408869 -1.5199089331
H   1.9314816753 -1.6005280057  1.5596659602
H   1.0334843990 -0.1522586122  2.0264033780
H   3.1153840411  0.8047228570 -0.6620056124
H   2.4427096154 -0.2046469381 -1.9720610828
22
Iteration 80  Energy = -72.4800535516
C  -0.7580373852 -1.5983004900  0.1050551384
C   1.3838615194 -0.3262347232 -0.0992316800
C  -0.8066205418  2.6146446668  0.5251111087
C   1.7871093210 -0.5389247408  1.3155095354
C   2.1794005519  0.4250538626 -1.0952079908
N   0.2023006189 -0.8630638265 -0.5560032801
N  -1.8619027272 -1.9147715400 -0.5445066061
O  -1.6688347843  1.6175952775 -0.1108535141
H  -1.9159698570  0.9552579912  0.5537206009
H  -0.0528221043 -0.6181165602 -1.5131885800
H  -0.6475728964 -1.9355722706  1.1330136881
H   0.1232947811  2.1682528687  0.8973386862
H  -2.5825262490 -2.4414366763 -0.0680307244
H  -1.9964739496 -1.6605555249 -1.5155101522
H  -0.5699967414  3.3376341124 -0.2582133986
H  -1.3109992372  3.1311206844  1.3499803042
H   2.7366291522 -0.0242850472  1.5267848147
H   1.6213573253  1.2841629661 -1.5099984549
H   1.9295212427 -1.6073834654  1.5570598706
H   1.0360939840 -0.1585175166  2.0303565719
H   3.1153766631  0.8040748076 -0.6575071774
H   2.4377126798 -0.1975712199 -1.9708866913
22
Iteration 81  Energy = -72.4800499157
C  -0.7539591035 -1.6015425304  0.1092438498
C   1.3854276054 -0.3261161871 -0.1002659905
C  -0.8000533066  2.6135242933  0.5137523996
C   1.7935367735 -0.5403445733  1.3128507216
C   2.1764894520  0.4282318884 -1.0974215280
N   0.2033120393 -0.8643283989 -0.5541051841
N  -1.8593919785 -1.9189343441 -0.5371899539
O  -1.6728363266  1.6125524344 -0.1011019283
H  -1.9065580317  0.9527523273  0.5708657659
H  -0.0554049259 -0.6182918058 -1.5100459667
H  -0.6399311208 -1.9393091653  1.1366353436
H   0.1378088781  2.1704776558  0.8692028448
H  -2.5776810254 -2.4472706233 -0.0590272064
H  -1.9973048464 -1.6639873197 -1.5075319978
H  -0.5802278864  3.3339772284 -0.2768294288
H  -1.2888855463  3.1323858459  1.3462657753
H   2.7434810138 -0.0254639021  1.5215718194
H   1.6160422368  1.2874950922 -1.5085643225
H   1.9372909206 -1.6090055485  1.5525907435
H   1.0448054281 -0.1611678000  2.0307078491
H   3.1134238201  0.8075608036 -0.6620923753
H   2.4326639802 -0.1922798636 -1.9751792745
22
Iteration 82  Energy = -72.4800497965
C  -0.7571201661 -1.6032929918  0.1171681857
C   1.3816026512 -0.3278353524 -0.0993431616
C  -0.7957553365  2.6162382258  0.5127893340
C   1.7899545516 -0.5342828354  1.3148563498
C   2.1727111721  0.4206091867 -1.1009260111
N   0.1995578441 -0.8688456859 -0.5501268170
N  -1.8647760652 -1.9201976224 -0.5257077552
O  -1.6694090988  1.6096513777 -0.0910890004
H  -1.9005390606  0.9548606361  0.5864698087
H  -0.0605761028 -0.6258631556 -1.5064614337
H  -0.6407434925 -1.9392846718  1.1448657567
H   0.1437266036  2.1768938631  0.8680885818
H  -2.5823358905 -2.4470291599 -0.0447959920
H  -2.0051084350 -1.6664248483 -1.4960048074
H  -0.5797938085  3.3307975084 -0.2839971797
H  -1.2820656339  3.1408488495  1.3429617244
H   2.7397290946 -0.0179077819  1.5207006122
H   1.6110612532  1.2756677821 -1.5191674565
H   1.9342630825 -1.6015775391  1.5602999240
H   1.0411680970 -0.1516965481  2.0308282014
H   3.1082813414  0.8049622530 -0.6670461799
H   2.4313626841 -0.2058527605 -1.9737701924
22
Iteration 83  Energy = -72.4800435380
C  -0.7573992286 -1.6021089199  0.1224217051
C   1.3825013954 -0.3288955679 -0.0978148825
C  -0.7956204158  2.6124421025  0.5027167556
C   1.7980053985 -0.5443728028  1.3129644483
C   2.1693402771  0.4244401324 -1.0989653615
N   0.1977462890 -0.8664477909 -0.5458127706
N  -1.8651927350 -1.9204859077 -0.5194608409
O  -1.6818564087  1.6102980743 -0.0902509625
H  -1.9038215574  0.9542901109  0.5892573497
H  -0.0651261799 -0.6209385190 -1.5007592097
H  -0.6398256610 -1.9378850327  1.1500740061
H   0.1470825324  2.1690776187  0.8444895764
H  -2.5817617434 -2.4479985393 -0.0378259451
H  -2.0065980216 -1.6671810117 -1.4897197864
H  -0.5878838555  3.3273846401 -0.2959569809
H  -1.2682098775  3.1381260725  1.3403341264
H   2.7499107690 -0.0310795976  1.5165924096
H   1.6046043835  1.2790449534 -1.5137424906
H   1.9412986739 -1.6133729536  1.5514982305
H   1.0538876338 -0.1641275785  2.0350474769
H   3.1047858284  0.8100066857 -0.6659660958
H   2.4280013281 -0.1987653592 -1.9741256714
22
Iteration 84  Energy = -72.4800389485
C  -0.7568611755 -1.5976139463  0.1283081965
C   1.3867665562 -0.3316957802 -0.0968553768
C  -0.8044443698  2.6125057300  0.5024621674
C   1.8085006564 -0.5554360012  1.3107357376
C   2.1708341797  0.4245056305 -1.0979545393
N   0.1981210439 -0.8631902550 -0.5415323674
N  -1.8643748017 -1.9179825490 -0.5130980519
O  -1.6890572196  1.6133353130 -0.0979032150
H  -1.9149005854  0.9558718206  0.5789446156
H  -0.0667330155 -0.6156811523 -1.4953863947
H  -0.6395409543 -1.9308020360  1.1568447870
H   0.1339807649  2.1663320424  0.8520821466
H  -2.5809759435 -2.4444297950 -0.0303301233
H  -2.0049458734 -1.6684507221 -1.4844695357
H  -0.5879726465  3.3273338490 -0.2940076808
H  -1.2821323319  3.1391958615  1.3364438179
H   2.7636145131 -0.0470969865  1.5117855723
H   1.6062281404  1.2822639966 -1.5063981523
H   1.9481661556 -1.6261445850  1.5438495486
H   1.0696435112 -0.1747513372  2.0380210035
H   3.1090513769  0.8059945962 -0.6672730513
H   2.4244164539 -0.1951773388 -1.9771607744
22
Iteration 85  Energy = -72.4800275640
C  -0.7499898472 -1.5948830701  0.1257220428
C   1.3924564394 -0.3268620096 -0.0981864993
C  -0.8029229655  2.6128905922  0.4973965059
C   1.8189113675 -0.5597830428  1.3064674955
C   2.1732549789  0.4359738100 -1.0967565111
N   0.2030705877 -0.8567116710 -0.5427277350
N  -1.8571096569 -1.9159112096 -0.5160347794
O  -1.6929283237  1.6119815601 -0.0920411885
H  -1.9137225418  0.9572095771  0.5890802371
H  -0.0646658239 -0.6037230102 -1.4943385606
H  -0.6315671590 -1.9305139252  1.1533527921
H   0.1373712831  2.1675199836  0.8428435112
H  -2.5722183618 -2.4454971781 -0.0344720543
H  -1.9982099963 -1.6649273115 -1.4869440948
H  -0.5913007341  3.3239576703 -0.3037283526
H  -1.2742332161  3.1440412665  1.3322053997
H   2.7755417036 -0.0541261545  1.5070199019
H   1.6050294492  1.2924172236 -1.5027114411
H   1.9576368359 -1.6320926197  1.5326848385
H   1.0834409569 -0.1820591681  2.0386933308
H   3.1097072010  0.8201585975 -0.6646722530
H   2.4298615489 -0.1796879584 -1.9779279462
22
Iteration 86  Energy = -72.4800199346
C  -0.7423570360 -1.5934017810  0.1210334769
C   1.3973843793 -0.3206599410 -0.1027457924
C  -0.8014126552  2.6131532248  0.4964371036
C   1.8273914788 -0.5583835576  1.2999618339
C   2.1748901092  0.4469170939 -1.1001762626
N   0.2079773116 -0.8510523284 -0.5467152904
N  -1.8503266464 -1.9139363667 -0.5195378736
O  -1.6948884851  1.6097941156 -0.0833491975
H  -1.9086367108  0.9558508543  0.6008045986
H  -0.0628349535 -0.5939824511 -1.4963459200
H  -0.6211193616 -1.9326565380  1.1471559627
H   0.1417917482  2.1697817669  0.8365234407
H  -2.5631978810 -2.4471110418 -0.0386025327
H  -1.9937216302 -1.6600328055 -1.4893577266
H  -0.5964013963  3.3221196698 -0.3082713270
H  -1.2671181541  3.1463858598  1.3330594556
H   2.7836745162 -0.0519748926  1.5002378235
H   1.6029687156  1.3013534620 -1.5050633978
H   1.9682438352 -1.6313168419  1.5217746864
H   1.0929884288 -0.1844948173  2.0352081318
H   3.1096409646  0.8345176352 -0.6674720005
H   2.4343008563 -0.1663258874 -1.9822275998
22
Iteration 87  Energy = -72.4800056891
C  -0.7351258192 -1.5901175255  0.1192114602
C   1.4025868469 -0.3140642119 -0.1060945951
C  -0.8010612088  2.6145856263  0.4900332264
C   1.8375744955 -0.5577953297  1.2940141259
C   2.1760250185  0.4587459822 -1.1025836301
N   0.2127528089 -0.8447025147 -0.5487181286
N  -1.8433878447 -1.9118161740 -0.5202929648
O  -1.6988231466  1.6088364104 -0.0788555446
H  -1.9059820962  0.9567726160  0.6091094461
H  -0.0612022357 -0.5843207459 -1.4965262934
H  -0.6117353371 -1.9307877851  1.1446023353
H   0.1445195297  2.1728358212  0.8255817995
H  -2.5542640495 -2.4476765844 -0.0393831177
H  -1.9884854514 -1.6569894396 -1.4896098433
H  -0.6018582084  3.3201762749 -0.3191014949
H  -1.2607938808  3.1515296340  1.3276114372
H   2.7947993685 -0.0526369063  1.4929810558
H   1.5992509871  1.3098654271 -1.5074469663
H   1.9786396453 -1.6316938493  1.5109266869
H   1.1059928788 -0.1863816525  2.0333278338
H   3.1081748725  0.8516063932 -0.6690099541
H   2.4398290495 -0.1522846880 -1.9849172174
22
Iteration 88  Energy = -72.4799907879
C  -0.7310931331 -1.5864896625  0.1173515026
C   1.4074753391 -0.3116319063 -0.1078886647
C  -0.7945666472  2.6198217475  0.4866874986
C   1.8439014061 -0.5586432866  1.2911458226
C   2.1803714672  0.4622836105 -1.1038439491
N   0.2158976040 -0.8391175914 -0.5496940204
N  -1.8411060189 -1.9045406198 -0.5210029716
O  -1.6981220599  1.6090303358 -0.0636324598
H  -1.8939121896  0.9601221222  0.6306742769
H  -0.0603236601 -0.5741967008 -1.4955732378
H  -0.6056856873 -1.9312857640  1.1411234404
H   0.1551990168  2.1815039555  0.8149201613
H  -2.5509107516 -2.4427077135 -0.0410731929
H  -1.9878927252 -1.6460091025 -1.4890869241
H  -0.6054903831  3.3192775510 -0.3302431704
H  -1.2450039378  3.1629634195  1.3253613158
H   2.8024836946 -0.0558737019  1.4897018820
H   1.6047555305  1.3159106669 -1.5051016993
H   1.9828665829 -1.6331721114  1.5062130415
H   1.1140018402 -0.1866669561  2.0318321261
H   3.1144201171  0.8516740370 -0.6712583371
H   2.4406400836 -0.1468300941 -1.9885479222
22
Iteration 89  Energy = -72.4799748139
C  -0.7296119123 -1.5803550644  0.1172483382
C   1.4119702229 -0.3111596281 -0.1118248024
C  -0.7896256729  2.6258186996  0.4862541423
C   1.8521222182 -0.5626255902  1.2852267940
C   2.1838065846  0.4628729678 -1.1084356445
N   0.2168264387 -0.8330153437 -0.5506373998
N  -1.8422601037 -1.8943008194 -0.5186207059
O  -1.6977959398  1.6128882545 -0.0519119156
H  -1.8867894430  0.9662731130  0.6463122083
H  -0.0623193437 -0.5638832705 -1.4944552060
H  -0.6018114210 -1.9281002307  1.1397299344
H   0.1623288101  2.1885907414  0.8094861751
H  -2.5513350749 -2.4331497010 -0.0383598533
H  -1.9910488282 -1.6334717757 -1.4857783098
H  -0.6065374189  3.3210873132 -0.3355143856
H  -1.2333283776  3.1733827247  1.3256019133
H   2.8137024618 -0.0645798654  1.4813289813
H   1.6103217222  1.3206421986 -1.5039814856
H   1.9868510009 -1.6381447511  1.4980802963
H   1.1264412358 -0.1883445649  2.0289238022
H   3.1216307177  0.8463832534 -0.6787169165
H   2.4371649830 -0.1442243256 -1.9965473577
22
Iteration 90  Energy = -72.4799695090
C  -0.7317235195 -1.5792721204  0.1138779124
C   1.4102871132 -0.3117396468 -0.1195472632
C  -0.7864371980  2.6304883516  0.4849235007
C   1.8509853790 -0.5597421007  1.2779385622
C   2.1824217637  0.4583984349 -1.1189082863
N   0.2135501858 -0.8320381103 -0.5557202280
N  -1.8476975514 -1.8888859127 -0.5183239774
O  -1.6978752126  1.6129188429 -0.0384327882
H  -1.8756885476  0.9674845970  0.6638265288
H  -0.0675039004 -0.5622943055 -1.4987860355
H  -0.6004364707 -1.9300963692  1.1348580895
H   0.1707073363  2.1971671100  0.7981350187
H  -2.5556322188 -2.4282977662 -0.0370023232
H  -1.9999759068 -1.6246671655 -1.4840202211
H  -0.6154451466  3.3231158073 -0.3417160473
H  -1.2216193568  3.1798115222  1.3275737334
H   2.8129981111 -0.0618181033  1.4721473673
H   1.6109195429  1.3177191095 -1.5140197469
H   1.9851701768 -1.6347298108  1.4937604136
H   1.1258752586 -0.1829762041  2.0209171967
H   3.1225918527  0.8391944602 -0.6919487439
H   2.4314307983 -0.1506753662 -2.0068603780
22
Iteration 91  Energy = -72.4799614028
C  -0.7309146448 -1.5744974253  0.1120818034
C   1.4152700522 -0.3153556494 -0.1279231327
C  -0.7876126077  2.6330642049  0.4864160506
C   1.8606794404 -0.5673971005  1.2673493756
C   2.1858913231  0.4540998384 -1.1289111997
N   0.2140032546 -0.8287380058 -0.5596130106
N  -1.8486469534 -1.8825268706 -0.5178059055
O  -1.6980434527  1.6165667323 -0.0404222130
H  -1.8784926871  0.9710019803  0.6609600437
H  -0.0697486848 -0.5564211303 -1.5011201824
H  -0.5981515384 -1.9252326411  1.1329095871
H   0.1680032749  2.1985931071  0.8024848789
H  -2.5564265735 -2.4208087115 -0.0349790149
H  -2.0017562533 -1.6196433722 -1.4837293706
H  -0.6131810315  3.3259177431 -0.3392046427
H  -1.2249776283  3.1823379584  1.3279111877
H   2.8263036622 -0.0750126288  1.4579778982
H   1.6183896224  1.3205183558 -1.5145235192
H   1.9897766548 -1.6433767243  1.4814754393
H   1.1408172495 -0.1872414808  2.0137617671
H   3.1325285085  0.8247865473 -0.7071602214
H   2.4228511601 -0.1520290793 -2.0222354376
22
Iteration 92  Energy = -72.4799594359
C  -0.7323834447 -1.5765070083  0.1072272974
C   1.4114620145 -0.3131251798 -0.1317401921
C  -0.7805851771  2.6346662545  0.4828815051
C   1.8536095731 -0.5585504664  1.2657767120
C   2.1840516955  0.4521745215 -1.1343909878
N   0.2119450738 -0.8299258206 -0.5643764897
N  -1.8525964059 -1.8800185951 -0.5204828755
O  -1.6965458941  1.6144874788 -0.0269473730
H  -1.8644758783  0.9699141997  0.6785042544
H  -0.0716144247 -0.5585260265 -1.5062165652
H  -0.5970843520 -1.9314086054  1.1262766086
H   0.1809094960  2.2034942557  0.7857123204
H  -2.5595249998 -2.4196209720 -0.0378794089
H  -2.0086446731 -1.6120995942 -1.4845625326
H  -0.6204724941  3.3252467937 -0.3476675923
H  -1.2065259373  3.1855303777  1.3292755283
H   2.8164474980 -0.0613025572  1.4576945389
H   1.6158993630  1.3148378045 -1.5273084780
H   1.9869020238 -1.6332007737  1.4839124285
H   1.1297859728 -0.1793330663  2.0087619873
H   3.1281415591  0.8276292822 -0.7113416622
H   2.4257908718 -0.1586384089 -2.0231683906
22
Iteration 93  Energy = -72.4799566344
C  -0.7320014249 -1.5712845473  0.1088270281
C   1.4166124711 -0.3169340419 -0.1348939108
C  -0.7880631510  2.6356750030  0.4892099999
C   1.8624347979 -0.5670601702  1.2606122166
C   2.1880774975  0.4486039547 -1.1381907815
N   0.2128282746 -0.8264961387 -0.5640352474
N  -1.8520478569 -1.8757487012 -0.5187266668
O  -1.6988130329  1.6186572980 -0.0359404232
H  -1.8767551970  0.9723186251  0.6654347499
H  -0.0721429918 -0.5532044387 -1.5048875914
H  -0.5974251374 -1.9238794913  1.1287882771
H   0.1688380474  2.2018785194  0.8025335849
H  -2.5596480562 -2.4135405631 -0.0350795302
H  -2.0065486334 -1.6119266932 -1.4841886039
H  -0.6162536883  3.3290667471 -0.3365994235
H  -1.2237841021  3.1840444314  1.3322118589
H   2.8287345604 -0.0755071602  1.4499836675
H   1.6253084098  1.3204222194 -1.5189272702
H   1.9903739709 -1.6428182466  1.4766377949
H   1.1432916547 -0.1847701801  2.0066265003
H   3.1397509335  0.8111099862 -0.7205699752
H   2.4155262816 -0.1575956274 -2.0339587605
22
Iteration 94  Energy = -72.4799575881
C  -0.7323623468 -1.5729137006  0.1065833490
C   1.4145484975 -0.3153886488 -0.1358030824
C  -0.7837468225  2.6360741908  0.4863136039
C   1.8584559910 -0.5621704544  1.2609121528
C   2.1870352947  0.4484808361 -1.1395942595
N   0.2122549276 -0.8276096737 -0.5659966380
N  -1.8531711354 -1.8757837205 -0.5203842846
O  -1.6971691934  1.6170773086 -0.0301372294
H  -1.8702550661  0.9723120970  0.6737997332
H  -0.0723141591 -0.5550663739 -1.5071936543
H  -0.5969489470 -1.9272473924  1.1258222426
H   0.1755963587  2.2038241366  0.7940897892
H  -2.5603784287 -2.4143990271 -0.0370811936
H  -2.0088541218 -1.6095241050 -1.4849741076
H  -0.6182662071  3.3275471148 -0.3423238113
H  -1.2142058371  3.1861299198  1.3308647673
H   2.8233715634 -0.0682548553  1.4510568608
H   1.6229514514  1.3169795582 -1.5256046359
H   1.9884266484 -1.6372564926  1.4789476817
H   1.1372929179 -0.1803617824  2.0051617742
H   3.1361705016  0.8154311142 -0.7203730583
H   2.4192272927 -0.1604428775 -2.0321682442
22
Iteration 95  Energy = -72.4799491243
C  -0.7332980526 -1.5724325691  0.1034669654
C   1.4134347718 -0.3142345253 -0.1381381442
C  -0.7798955726  2.6360169773  0.4811420436
C   1.8566987552 -0.5603607446  1.2588794366
C   2.1867442829  0.4484628529 -1.1421499703
N   0.2114459263 -0.8269366273 -0.5687835151
N  -1.8552697122 -1.8726152457 -0.5227463873
O  -1.6983407162  1.6163470458 -0.0248473467
H  -1.8664603878  0.9736795357  0.6821767634
H  -0.0733568281 -0.5534777801 -1.5096514154
H  -0.5969978653 -1.9290853512  1.1217899561
H   0.1814558890  2.2039536391  0.7828419892
H  -2.5622588617 -2.4119378074 -0.0399045473
H  -2.0119090985 -1.6039591624 -1.4865152252
H  -0.6203441134  3.3246681747 -0.3510136289
H  -1.2032435512  3.1892345607  1.3272497430
H   2.8210500136 -0.0655339583  1.4494596430
H   1.6217667265  1.3146438117 -1.5319245783
H   1.9875659140 -1.6352726691  1.4771645989
H   1.1348181807 -0.1791744756  2.0027134041
H   3.1341060993  0.8184904674 -0.7216617613
H   2.4223666944 -0.1623659914 -2.0325204444
22
Iteration 96  Energy = -72.4799380378
C  -0.7336434987 -1.5690834811  0.1022168382
C   1.4159876038 -0.3160105180 -0.1404665588
C  -0.7835936428  2.6371413097  0.4805746538
C   1.8602727709 -0.5648838176  1.2557277268
C   2.1896168980  0.4464692945 -1.1443477782
N   0.2117661292 -0.8243547773 -0.5699560329
N  -1.8560229027 -1.8678834764 -0.5239712846
O  -1.7013078289  1.6174974496 -0.0264761380
H  -1.8709928189  0.9755019835  0.6807705674
H  -0.0736033075 -0.5489004788 -1.5100613820
H  -0.5976826145 -1.9260537735  1.1204853061
H   0.1766162367  2.2047942246  0.7854518059
H  -2.5634420623 -2.4067906941 -0.0412847676
H  -2.0118439839 -1.6000673876 -1.4881089410
H  -0.6212712685  3.3246185443 -0.3519889465
H  -1.2087889674  3.1917534342  1.3248136692
H   2.8265834165 -0.0735537156  1.4455520349
H   1.6276813855  1.3170058485 -1.5289397520
H   1.9876599827 -1.6404397084  1.4729877459
H   1.1405629725 -0.1816914220  2.0006716858
H   3.1402934799  0.8102351430 -0.7258223278
H   2.4190002654 -0.1623296338 -2.0377416524
22
Iteration 97  Energy = -72.4799383358
C  -0.7340811998 -1.5702333980  0.0987662636
C   1.4140860809 -0.3142463494 -0.1418812806
C  -0.7792935438  2.6368381253  0.4779960616
C   1.8559524597 -0.5597401795  1.2556944146
C   2.1891839320  0.4464008408 -1.1460318273
N   0.2114794833 -0.8252191226 -0.5728814312
N  -1.8573344593 -1.8667640517 -0.5269387882
O  -1.6999339693  1.6163725606 -0.0220702349
H  -1.8656478381  0.9753237948  0.6869553431
H  -0.0731281733 -0.5505015943 -1.5134411607
H  -0.5974655132 -1.9292695331  1.1162197970
H   0.1829027448  2.2051519322  0.7775211387
H  -2.5646380205 -2.4062569030 -0.0447346152
H  -2.0140485570 -1.5964750906 -1.4902420630
H  -0.6223077952  3.3231800525 -0.3565452760
H  -1.1994567379  3.1925030641  1.3240718406
H   2.8203271359 -0.0651836678  1.4469050465
H   1.6262488058  1.3139361786 -1.5358300588
H   1.9862310235 -1.6345761280  1.4747500497
H   1.1335047126 -0.1778781992  1.9986284409
H   3.1374709771  0.8142051071 -0.7256715564
H   2.4231975687 -0.1651451362 -2.0363374499
22
Iteration 98  Energy = -72.4799322561
C  -0.7344058948 -1.5670755634  0.0980911802
C   1.4164255125 -0.3158610592 -0.1436925289
C  -0.7842287427  2.6378259636  0.4793891060
C   1.8591604965 -0.5636439006  1.2531852710
C   2.1916800349  0.4446976983 -1.1477474898
N   0.2117575565 -0.8228296903 -0.5735501979
N  -1.8576545694 -1.8631649598 -0.5278650977
O  -1.7025437889  1.6179646358 -0.0260205365
H  -1.8721103074  0.9767600448  0.6819696826
H  -0.0732482397 -0.5466357245 -1.5135485664
H  -0.5983938154 -1.9257240313  1.1157746039
H   0.1761334169  2.2055611042  0.7839410682
H  -2.5654388062 -2.4020475441 -0.0456763483
H  -2.0132652111 -1.5944623509 -1.4917964238
H  -0.6223212764  3.3244343976 -0.3539870145
H  -1.2086697297  3.1933458977  1.3234199897
H   2.8252970443 -0.0722393452  1.4437071686
H   1.6320552698  1.3171194008 -1.5315480916
H   1.9862724254 -1.6390326121  1.4714541778
H   1.1386334481 -0.1798878976  1.9970404916
H   3.1437121453  0.8055026273 -0.7297226974
H   2.4185799794 -0.1644638479 -2.0415228301
22
Iteration 99  Energy = -72.4799310044
C  -0.7347528864 -1.5681815771  0.0945865258
C   1.4146988215 -0.3140907748 -0.1447385574
C  -0.7797076499  2.6372688988  0.4766958670
C   1.8550117891 -0.5590049663  1.2534265206
C   2.1914760562  0.4449153757 -1.1488030146
N   0.2116514056 -0.8235550819 -0.5763053043
N  -1.8588529843 -1.8617888180 -0.5310251116
O  -1.7013420742  1.6166811987 -0.0211613252
H  -1.8667970257  0.9765998728  0.6887891809
H  -0.0725523958 -0.5477985254 -1.5166837522
H  -0.5981778580 -1.9291327322  1.1113799542
H   0.1826189159  2.2055284849  0.7757252464
H  -2.5665671191 -2.4013679471 -0.0495085431
H  -2.0152587765 -1.5904067081 -1.4940769091
H  -0.6232510083  3.3224962485 -0.3588686309
H  -1.1987239772  3.1941661160  1.3225360326
H   2.8192667380 -0.0645352310  1.4454766327
H   1.6307320340  1.3142279608 -1.5378750306
H   1.9849041156 -1.6337593761  1.4731311541
H   1.1318045162 -0.1767455687  1.9954077581
H   3.1409366574  0.8099454196 -0.7286724582
H   2.4233725289 -0.1668570253 -2.0394954998
22
Iteration 100  Energy = -72.4799383954
C  -0.7350654454 -1.5704029076  0.0923567179
C   1.4121482296 -0.3120090758 -0.1449145119
C  -0.7742157306  2.6359206969  0.4763954070
C   1.8503244330 -0.5535235377  1.2545267413
C   2.1896732362  0.4461337267 -1.1490742631
N   0.2113742958 -0.8255396133 -0.5782330017
N  -1.8595578629 -1.8630171332 -0.5329819358
O  -1.6980878168  1.6159854578 -0.0186065311
H  -1.8619845008  0.9758840545  0.6916402285
H  -0.0718648504 -0.5514056133 -1.5193923207
H  -0.5980413848 -1.9324748367  1.1086852452
H   0.1893068894  2.2038043455  0.7709602033
H  -2.5671985778 -2.4028388590 -0.0516379104
H  -2.0168281007 -1.5896846180 -1.4953364426
H  -0.6212153254  3.3218375834 -0.3592375249
H  -1.1896570692  3.1921411066  1.3244307795
H   2.8122194511 -0.0550576390  1.4480018179
H   1.6266100319  1.3111962584 -1.5441405167
H   1.9840519754 -1.6275014775  1.4756651474
H   1.1241716645 -0.1735131434  1.9947340680
H   3.1358140183  0.8171212846 -0.7266669881
H   2.4279156478 -0.1683616130 -2.0362249259
22
Iteration 101  Energy = -72.4799368457
C  -0.7353071830 -1.5722062807  0.0894820909
C   1.4101035818 -0.3100961523 -0.1451438052
C  -0.7689849660  2.6347727964  0.4738745590
C   1.8460266860 -0.5489991512  1.2554584438
C   2.1886552731  0.4473790030 -1.1490211808
N   0.2114265615 -0.8270590224 -0.5804152588
N  -1.8603428623 -1.8629996129 -0.5357292913
O  -1.6958756433  1.6143531439 -0.0144771982
H  -1.8570462390  0.9757721552  0.6977265179
H  -0.0708493201 -0.5538151624 -1.5221333258
H  -0.5979740540 -1.9360286757  1.1051474799
H   0.1961276308  2.2029841213  0.7636471125
H  -2.5679674388 -2.4033725104 -0.0549798293
H  -2.0183083487 -1.5872447957 -1.4972772517
H  -0.6206413653  3.3194033837 -0.3636674630
H  -1.1796141494  3.1923505952  1.3233650729
H   2.8061041165 -0.0476320400  1.4504040351
H   1.6234053050  1.3081473173 -1.5501776129
H   1.9824808113 -1.6223688686  1.4777808058
H   1.1173817848 -0.1706453956  1.9940106244
H   3.1312505821  0.8243318645 -0.7239967374
H   2.4336096124 -0.1696496867 -2.0325887553
22
Iteration 102  Energy = -72.4799377994
C  -0.7347672172 -1.5737822180  0.0865129199
C   1.4086943522 -0.3079085885 -0.1458931534
C  -0.7630621776  2.6343406219  0.4732016745
C   1.8424319931 -0.5439243290  1.2558885674
C   2.1879713648  0.4491617004 -1.1495314591
N   0.2122229196 -0.8285939126 -0.5829921716
N  -1.8604512021 -1.8628423728 -0.5383296849
O  -1.6912473755  1.6132638397 -0.0113028719
H  -1.8518004305  0.9762716359  0.7024161033
H  -0.0690773953 -0.5566486612 -1.5253901743
H  -0.5970438593 -1.9390535657  1.1016059653
H   0.2029486261  2.2030410704  0.7606002294
H  -2.5680442848 -2.4035587447 -0.0579203342
H  -2.0192022320 -1.5849786595 -1.4991388858
H  -0.6173442987  3.3179918539 -0.3655930318
H  -1.1713397905  3.1928569521  1.3231842977
H   2.8008072198 -0.0398155773  1.4521274586
H   1.6207584559  1.3061924291 -1.5557706354
H   1.9814268327 -1.6166557673  1.4796356296
H   1.1114261954 -0.1669495082  1.9927661375
H   3.1275004413  0.8312900612 -0.7223777965
H   2.4386420560 -0.1699222823 -2.0300428492
22
Iteration 103  Energy = -72.4799292163
C  -0.7330350572 -1.5743456736  0.0834562195
C   1.4091913343 -0.3059496325 -0.1460425203
C  -0.7579150162  2.6347281295  0.4716197407
C   1.8405872579 -0.5401791084  1.2567720453
C   2.1897050065  0.4508019276 -1.1489652991
N   0.2144282509 -0.8289179972 -0.5851196636
N  -1.8594936826 -1.8607474686 -0.5412360923
O  -1.6873612692  1.6114218369 -0.0057466059
H  -1.8460905848  0.9774634383  0.7110479096
H  -0.0658838141 -0.5572800106 -1.5279020034
H  -0.5950296909 -1.9418317975  1.0977114045
H   0.2093284862  2.2049743597  0.7571168898
H  -2.5670954354 -2.4022678080 -0.0617359155
H  -2.0187443416 -1.5802847206 -1.5012066248
H  -0.6156421716  3.3153201792 -0.3702596530
H  -1.1634472402  3.1961893716  1.3209631737
H   2.7978035234 -0.0344453897  1.4544823152
H   1.6215815238  1.3053964439 -1.5589474079
H   1.9809508431 -1.6125072591  1.4815232613
H   1.1076499342 -0.1640184047  1.9921049155
H   3.1269357208  0.8362479072 -0.7197870792
H   2.4446897780 -0.1696322608 -2.0272713823
22
Iteration 104  Energy = -72.4799262957
C  -0.7307673153 -1.5741392727  0.0793582003
C   1.4106579033 -0.3040389929 -0.1472460497
C  -0.7532448054  2.6356587616  0.4719393478
C   1.8394627491 -0.5363917234  1.2566860019
C   2.1925298436  0.4523696442 -1.1493914815
N   0.2174410460 -0.8288529828 -0.5882885927
N  -1.8576801363 -1.8583246877 -0.5455297717
O  -1.6820184537  1.6109210408 -0.0036252206
H  -1.8417652527  0.9789527916  0.7146655100
H  -0.0615132655 -0.5579513867 -1.5316863963
H  -0.5929795453 -1.9432238098  1.0930585060
H   0.2142313755  2.2069119497  0.7581518573
H  -2.5655885860 -2.4001816863 -0.0668583278
H  -2.0168975114 -1.5760542397 -1.5049732785
H  -0.6113928003  3.3147798684 -0.3711783308
H  -1.1591603585  3.1983778395  1.3202321650
H   2.7954208212 -0.0289162011  1.4560133443
H   1.6244021176  1.3059670075 -1.5614056662
H   1.9811987808 -1.6083006586  1.4825475860
H   1.1044159346 -0.1610294891  1.9902944894
H   3.1285262006  0.8391561705 -0.7187522855
H   2.4498450717 -0.1687651330 -2.0265004204
22
Iteration 105  Energy = -72.4799183683
C  -0.7287143735 -1.5743258409  0.0747148038
C   1.4118395797 -0.3023536264 -0.1488060656
C  -0.7496560706  2.6359301197  0.4715843327
C   1.8378382691 -0.5326129195  1.2563328116
C   2.1951636089  0.4536117234 -1.1501543646
N   0.2202433236 -0.8291005941 -0.5919082734
N  -1.8563435561 -1.8556986441 -0.5501760806
O  -1.6780815379  1.6090465876 -0.0000384529
H  -1.8379548199  0.9798087854  0.7205928486
H  -0.0572850959 -0.5589409375 -1.5359400689
H  -0.5909496914 -1.9455202744  1.0876495505
H   0.2185272659  2.2087488207  0.7577253958
H  -2.5644574244 -2.3981409722 -0.0724632748
H  -2.0156928717 -1.5712080800 -1.5089431621
H  -0.6094511477  3.3128044149 -0.3736141340
H  -1.1550518520  3.2006055337  1.3187968293
H   2.7924619342 -0.0233005969  1.4573746882
H   1.6269815749  1.3060452085 -1.5644802262
H   1.9810143690 -1.6040559056  1.4834682015
H   1.1005197781 -0.1580395268  1.9880344917
H   3.1297746567  0.8419689440 -0.7179286923
H   2.4550857034 -0.1683622298 -2.0258895601
22
Iteration 106  Energy = -72.4799044208
C  -0.7269548585 -1.5745158803  0.0702440616
C   1.4129198273 -0.3010612856 -0.1503373353
C  -0.7474712493  2.6356397605  0.4698474677
C   1.8359175530 -0.5289591539  1.2560952306
C   2.1978382986  0.4542083227 -1.1509407305
N   0.2229046560 -0.8296394993 -0.5954701531
N  -1.8556369054 -1.8523516305 -0.5543712083
O  -1.6759192178  1.6058173855  0.0046741813
H  -1.8353645680  0.9805799838  0.7288598094
H  -0.0530449539 -0.5604439485 -1.5402394357
H  -0.5890848221 -1.9480960173  1.0822929305
H   0.2216572311  2.2105304049  0.7558462333
H  -2.5639931202 -2.3953270738 -0.0776109500
H  -2.0151669969 -1.5655145568 -1.5124106643
H  -0.6096212594  3.3088465254 -0.3786684613
H  -1.1516654655  3.2036725816  1.3153594833
H   2.7892269862 -0.0178654233  1.4588603497
H   1.6297681590  1.3055322878 -1.5676805988
H   1.9803824502 -1.5998947374  1.4847873756
H   1.0962639844 -0.1549160087  1.9856813929
H   3.1311154087  0.8440222510 -0.7171544012
H   2.4602728348 -0.1687390378 -2.0252227166
22
Iteration 107  Energy = -72.4799034671
C  -0.7250433079 -1.5750683211  0.0647686877
C   1.4138071014 -0.2996283951 -0.1529942347
C  -0.7460118430  2.6350184042  0.4725975640
C   1.8342346719 -0.5256004132  1.2545274588
C   2.1996283948  0.4559713239 -1.1526502033
N   0.2255230119 -0.8303775297 -0.6000948146
N  -1.8544154902 -1.8502894576 -0.5597735876
O  -1.6719464005  1.6040483615  0.0049194230
H  -1.8345263116  0.9799543090  0.7293789991
H  -0.0490149720 -0.5621870093 -1.5455649784
H  -0.5872811289 -1.9503731226  1.0761945393
H   0.2229844779  2.2109747768  0.7606155230
H  -2.5631762758 -2.3932933815 -0.0836450857
H  -2.0137813295 -1.5621529025 -1.5174520545
H  -0.6070128849  3.3085683031 -0.3754361459
H  -1.1529412247  3.2022538870  1.3172894387
H   2.7861176664 -0.0125193586  1.4589845204
H   1.6314953554  1.3068638340 -1.5701902319
H   1.9803452957 -1.5960780060  1.4843043434
H   1.0922939366 -0.1526129024  1.9823195822
H   3.1320432106  0.8465045585 -0.7176615944
H   2.4636282754 -0.1669488484 -2.0264604137
22
Iteration 108  Energy = -72.4799023346
C  -0.7233435614 -1.5752663839  0.0585131737
C   1.4148152067 -0.2983086055 -0.1565258848
C  -0.7457999835  2.6342361451  0.4740695820
C   1.8339161235 -0.5246021063  1.2513363264
C   2.2009477124  0.4586780377 -1.1548962428
N   0.2275637516 -0.8300019725 -0.6052052954
N  -1.8532879496 -1.8481231351 -0.5660624926
O  -1.6700149036  1.6027982155  0.0039880795
H  -1.8341290186  0.9786006845  0.7280061829
H  -0.0464041273 -0.5611945973 -1.5506694997
H  -0.5854973136 -1.9526689685  1.0691495630
H   0.2232163902  2.2108055732  0.7629171698
H  -2.5622554338 -2.3915766662 -0.0907518235
H  -2.0125275811 -1.5585723638 -1.5233405781
H  -0.6062781658  3.3088138010 -0.3730591081
H  -1.1544730956  3.2001355234  1.3187942035
H   2.7849776231 -0.0105596786  1.4571887003
H   1.6326248210  1.3096900266 -1.5719468996
H   1.9810134863 -1.5950417613  1.4806447540
H   1.0907167290 -0.1529638291  1.9785298173
H   3.1328405498  0.8493013483 -0.7188714062
H   2.4658754209 -0.1632477135 -2.0291253414
22
Iteration 109  Energy = -72.4799005465
C  -0.7217863231 -1.5747939177  0.0523405258
C   1.4162193635 -0.2971534828 -0.1599882184
C  -0.7461012546  2.6334418115  0.4745693152
C   1.8347365533 -0.5254035698  1.2477317629
C   2.2024729513  0.4617349663 -1.1568147334
N   0.2294029521 -0.8286737962 -0.6100263416
N  -1.8521551274 -1.8454715245 -0.5724455696
O  -1.6695710174  1.6022603148  0.0024632684
H  -1.8343637400  0.9773789909  0.7257409805
H  -0.0443361487 -0.5583473747 -1.5551272186
H  -0.5839115431 -1.9543795266  1.0621593448
H   0.2228587320  2.2100091967  0.7636110716
H  -2.5612959830 -2.3895364876 -0.0980907295
H  -2.0111554895 -1.5545394957 -1.5293496884
H  -0.6061710409  3.3091691067 -0.3715771068
H  -1.1556255394  3.1980969887  1.3197101811
H   2.7854514354 -0.0112307434  1.4548491997
H   1.6340124501  1.3132343941 -1.5726874479
H   1.9822170197 -1.5961243118  1.4754745419
H   1.0909877359 -0.1552325591  1.9751132791
H   3.1340562739  0.8519750158 -0.7197861804
H   2.4679579516 -0.1586677233 -2.0319552784
22
Iteration 110  Energy = -72.4798871950
C  -0.7205438183 -1.5741811071  0.0463775096
C   1.4175467300 -0.2961501674 -0.1626875048
C  -0.7452829210  2.6332110084  0.4718752644
C   1.8347349369 -0.5257516481  1.2452017690
C   2.2047990338  0.4635350080 -1.1580865033
N   0.2311014485 -0.8271532047 -0.6143191795
N  -1.8512606596 -1.8423854167 -0.5788637155
O  -1.6701815844  1.6007282127  0.0054401564
H  -1.8327532264  0.9777212753  0.7308346246
H  -0.0419031544 -0.5556328693 -1.5592867325
H  -0.5827354827 -1.9564035032  1.0552161514
H   0.2245916701  2.2106377353  0.7590865392
H  -2.5604908218 -2.3875999889 -0.1059534849
H  -2.0103025186 -1.5486990124 -1.5349213004
H  -0.6080562361  3.3066864069 -0.3765165369
H  -1.1522257778  3.2000972988  1.3167684366
H   2.7851234123 -0.0115691037  1.4537944599
H   1.6365814008  1.3150497150 -1.5742424776
H   1.9822692998 -1.5966654521  1.4719931830
H   1.0901834311 -0.1565307968  1.9722296951
H   3.1357010251  0.8538372665 -0.7196684433
H   2.4715990561 -0.1562986689 -2.0332307056
22
Iteration 111  Energy = -72.4798710422
C  -0.7196229659 -1.5731891999  0.0408936036
C   1.4188105780 -0.2951857138 -0.1648728833
C  -0.7437805995  2.6337789634  0.4681791998
C   1.8343704818 -0.5257716078  1.2433335026
C   2.2075846224  0.4644610290 -1.1590587035
N   0.2324921004 -0.8251803365 -0.6180260505
N  -1.8504476294 -1.8392952839 -0.5850626807
O  -1.6707428233  1.5997807081  0.0092851157
H  -1.8300278598  0.9789640585  0.7372747371
H  -0.0397076406 -0.5524285077 -1.5628673898
H  -0.5820136546 -1.9579150140  1.0488109290
H   0.2272026093  2.2121391768  0.7529760783
H  -2.5597491457 -2.3858136718 -0.1137546624
H  -2.0095242579 -1.5425855622 -1.5401774297
H  -0.6100065645  3.3042013292 -0.3831840858
H  -1.1472083566  3.2037270590  1.3126996687
H   2.7845158372 -0.0117313399  1.4533871235
H   1.6402304829  1.3163006887 -1.5757184832
H   1.9816846617 -1.5968346266  1.4695707059
H   1.0889838049 -0.1570830561  1.9697557698
H   3.1381042885  0.8542559338 -0.7193868691
H   2.4752038112 -0.1552391095 -2.0340460786
22
Iteration 112  Energy = -72.4798675851
C  -0.7184154842 -1.5719682313  0.0348252955
C   1.4203935310 -0.2940678132 -0.1676594717
C  -0.7423830121  2.6344159039  0.4674042924
C   1.8350138860 -0.5268454532  1.2404626851
C   2.2101630217  0.4664902439 -1.1603434970
N   0.2339673989 -0.8226316838 -0.6221966136
N  -1.8487604016 -1.8372460648 -0.5923406354
O  -1.6698457989  1.6008707620  0.0086082018
H  -1.8283803450  0.9794099407  0.7361887780
H  -0.0378484676 -0.5479399114 -1.5665879531
H  -0.5813515086 -1.9584552657  1.0421403136
H   0.2286333182  2.2124258239  0.7515444325
H  -2.5581826516 -2.3849024565 -0.1225341946
H  -2.0073596632 -1.5386487907 -1.5469406723
H  -0.6089063273  3.3051439461 -0.3837469799
H  -1.1452320526  3.2041268597  1.3123525270
H   2.7851646450 -0.0133662155  1.4518620940
H   1.6437676386  1.3195854055 -1.5757497852
H   1.9819156833 -1.5982772888  1.4652325229
H   1.0892722170 -0.1590207434  1.9669534121
H   3.1409422027  0.8546446409 -0.7197696695
H   2.4773952242 -0.1520142983 -2.0362930126
22
Iteration 113  Energy = -72.4798612074
C  -0.7171526422 -1.5711141526  0.0285310946
C   1.4218712596 -0.2930324089 -0.1705413027
C  -0.7409352096  2.6347523260  0.4660880555
C   1.8352802435 -0.5275755399  1.2376411045
C   2.2126565257  0.4684376798 -1.1617048594
N   0.2356395953 -0.8206823543 -0.6266403527
N  -1.8473039867 -1.8349145179 -0.5996092866
O  -1.6689389615  1.6010259106  0.0088087376
H  -1.8264903515  0.9797092572  0.7367191148
H  -0.0355436860 -0.5444728560 -1.5707688675
H  -0.5805408521 -1.9596447056  1.0351223851
H   0.2303631735  2.2128729797  0.7494130706
H  -2.5568970706 -2.3836327108 -0.1312976259
H  -2.0055612458 -1.5341393554 -1.5535814369
H  -0.6083669093  3.3050638287 -0.3855331406
H  -1.1428684435  3.2048804450  1.3111889503
H   2.7852554583 -0.0143744077  1.4505063492
H   1.6468954096  1.3222441992 -1.5765120089
H   1.9819923989 -1.5992859582  1.4612077912
H   1.0889161748 -0.1606620285  1.9639464052
H   3.1432536330  0.8557056052 -0.7199723268
H   2.4802945276 -0.1491065061 -2.0382055590
22
Iteration 114  Energy = -72.4798488692
C  -0.7158643069 -1.5705849133  0.0222914704
C   1.4231942008 -0.2920087615 -0.1730474913
C  -0.7395707592  2.6349232072  0.4634470482
C   1.8348145422 -0.5275967882  1.2354831016
C   2.2153348320  0.4699810889 -1.1627082314
N   0.2374376186 -0.8191388450 -0.6309769469
N  -1.8461434948 -1.8321258091 -0.6065786646
O  -1.6683868032  1.5999775009  0.0105852323
H  -1.8240571688  0.9800904830  0.7401098333
H  -0.0328837194 -0.5416623669 -1.5749799183
H  -0.5795258725 -1.9616631281  1.0279378845
H   0.2324332184  2.2138949855  0.7455927411
H  -2.5558459861 -2.3821204200 -0.1399205860
H  -2.0042154107 -1.5286915869 -1.5597394971
H  -0.6090691995  3.3033571706 -0.3899722947
H  -1.1397691707  3.2068452358  1.3081553651
H   2.7843172306 -0.0142327447  1.4500650837
H   1.6502050747  1.3240944941 -1.5777386754
H   1.9816541628 -1.5994370155  1.4583517637
H   1.0873401396 -0.1616031136  1.9610975466
H   3.1454078776  0.8568666107 -0.7195450808
H   2.4840157705 -0.1470573443 -2.0392435970
22
Iteration 115  Energy = -72.4798329548
C  -0.7145293650 -1.5708996741  0.0162872520
C   1.4240971571 -0.2910899645 -0.1751743814
C  -0.7381154189  2.6349763474  0.4600559392
C   1.8335031639 -0.5269061478  1.2339675779
C   2.2177673767  0.4710863185 -1.1634490827
N   0.2391210230 -0.8182456039 -0.6350800324
N  -1.8451096796 -1.8299531258 -0.6130882095
O  -1.6675992731  1.5977631161  0.0137611614
H  -1.8202689033  0.9800424286  0.7457401858
H  -0.0302993269 -0.5397196909 -1.5790298520
H  -0.5781794432 -1.9648399021  1.0208174098
H   0.2350839342  2.2156484500  0.7405782518
H  -2.5547027612 -2.3815793720 -0.1481741470
H  -2.0033127086 -1.5233772478 -1.5652214142
H  -0.6108927228  3.3005866231 -0.3960677553
H  -1.1360932913  3.2094597126  1.3040657927
H   2.7821604876 -0.0127667416  1.4504358748
H   1.6532445683  1.3251911920 -1.5793167681
H   1.9809961456 -1.5986979057  1.4566582665
H   1.0844223703 -0.1619564899  1.9584339438
H   3.1470992688  0.8579819179 -0.7187502117
H   2.4878838540 -0.1458327327 -2.0396229089
22
Iteration 116  Energy = -72.4798278288
C  -0.7135734528 -1.5729916168  0.0106219204
C   1.4232406201 -0.2897941669 -0.1770247785
C  -0.7356019652  2.6360105275  0.4592625832
C   1.8299881740 -0.5241557406  1.2331646907
C   2.2182205788  0.4724926918 -1.1641929663
N   0.2399368505 -0.8187712189 -0.6390988037
N  -1.8439491735 -1.8312233086 -0.6194369732
O  -1.6633003026  1.5963390726  0.0149611687
H  -1.8135417095  0.9787114221  0.7474787161
H  -0.0285394260 -0.5401437055 -1.5832899077
H  -0.5771465636 -1.9688345442  1.0143764422
H   0.2389567727  2.2189744049  0.7384387593
H  -2.5531366779 -2.3846300385 -0.1560086047
H  -2.0024831842 -1.5219504348 -1.5706376646
H  -0.6113012013  3.3014577452 -0.3973999733
H  -1.1336706831  3.2099452947  1.3035711896
H   2.7769963526 -0.0078182028  1.4516331991
H   1.6538376667  1.3259487045 -1.5815888277
H   1.9794615505 -1.5955221238  1.4566350201
H   1.0784245473 -0.1606948878  1.9557963042
H   3.1464256052  0.8603154766 -0.7179550857
H   2.4904329966 -0.1446966313 -2.0395213252
22
Iteration 117  Energy = -72.4798383192
C  -0.7136741047 -1.5756547663  0.0081440524
C   1.4209001356 -0.2887684548 -0.1779561802
C  -0.7331056450  2.6381519484  0.4620185084
C   1.8259551660 -0.5205652112  1.2331977803
C   2.2162296974  0.4734446923 -1.1649712301
N   0.2393205923 -0.8205137256 -0.6411882272
N  -1.8432884163 -1.8355915766 -0.6225394599
O  -1.6571873112  1.5972307401  0.0130326286
H  -1.8072463636  0.9772388709  0.7435681289
H  -0.0282829379 -0.5435260937 -1.5861080964
H  -0.5772304115 -1.9710432085  1.0120558513
H   0.2422484569  2.2227750077  0.7408661466
H  -2.5519773244 -2.3899336179 -0.1594719476
H  -2.0021951292 -1.5255837774 -1.5734306551
H  -0.6096472564  3.3067824557 -0.3922772513
H  -1.1338877784  3.2080629347  1.3077516751
H   2.7713230150 -0.0016588753  1.4526744199
H   1.6514022646  1.3259260865 -1.5837816027
H   1.9777644733 -1.5913086300  1.4581346690
H   1.0722889465 -0.1582200341  1.9541986624
H   3.1435367661  0.8626602810 -0.7180790695
H   2.4900527988 -0.1443014445 -2.0393973839
22
Iteration 118  Energy = -72.4798422531
C  -0.7138512551 -1.5781605283  0.0054037380
C   1.4186911051 -0.2879362170 -0.1791909119
C  -0.7302542300  2.6410091509  0.4638606823
C   1.8215421123 -0.5164321834  1.2331925014
C   2.2147956035  0.4735251577 -1.1662266267
N   0.2388195993 -0.8223859208 -0.6435937535
N  -1.8429969118 -1.8390831150 -0.6256721842
O  -1.6508817296  1.5979037241  0.0127554919
H  -1.7995604487  0.9764456199  0.7423013235
H  -0.0277745891 -0.5471913553 -1.5893199570
H  -0.5773920722 -1.9733667418  1.0093676843
H   0.2464333768  2.2280612677  0.7416456678
H  -2.5512162825 -2.3943771801 -0.1630231333
H  -2.0024002755 -1.5279517240 -1.5761098296
H  -0.6090411375  3.3117249406 -0.3891023612
H  -1.1328555884  3.2077988652  1.3107790178
H   2.7650939751  0.0052942319  1.4538061680
H   1.6498872353  1.3251092227 -1.5868006963
H   1.9757608199 -1.5864091771  1.4602027820
H   1.0654038432 -0.1549569717  1.9520460544
H   3.1412957799  0.8639427172 -0.7187047549
H   2.4900862612 -0.1451933466 -2.0394974149
22
Iteration 119  Energy = -72.4798496441
C  -0.7143744276 -1.5796982984  0.0027767747
C   1.4168808320 -0.2874428819 -0.1810366551
C  -0.7270613029  2.6446260173  0.4666656314
C   1.8181231431 -0.5133234233  1.2322769556
C   2.2135695616  0.4733155358 -1.1682112191
N   0.2381527577 -0.8237339475 -0.6461486348
N  -1.8429416927 -1.8419118755 -0.6287591641
O  -1.6442821719  1.6003828898  0.0111244394
H  -1.7927491576  0.9766811714  0.7387944476
H  -0.0275676532 -0.5501758104 -1.5925933537
H  -0.5781214376 -1.9741687837  1.0070383766
H   0.2505117216  2.2333258248  0.7437855116
H  -2.5509754616 -2.3975077304 -0.1661922499
H  -2.0026391569 -1.5302075835 -1.5789549362
H  -0.6069341377  3.3184670941 -0.3839673279
H  -1.1320142626  3.2073503377  1.3151351106
H   2.7604628947  0.0102975202  1.4535801936
H   1.6488434526  1.3246437263 -1.5896079285
H   1.9738588806 -1.5827178771  1.4610410509
H   1.0602694417 -0.1521609892  1.9494891796
H   3.1398360150  0.8640581682 -0.7204790910
H   2.4892922451 -0.1460318849 -2.0408923483
22
Iteration 120  Energy = -72.4798568563
C  -0.7150358580 -1.5807909026 -0.0001025943
C   1.4152252585 -0.2870025596 -0.1834854225
C  -0.7242127956  2.6486510269  0.4688738565
C   1.8152937784 -0.5107468703  1.2305427359
C   2.2123272882  0.4731496911 -1.1708594140
N   0.2373182940 -0.8246584037 -0.6490279591
N  -1.8428201482 -1.8447768378 -0.6322558819
O  -1.6381221456  1.6033789520  0.0088734496
H  -1.7867651712  0.9776660181  0.7347751076
H  -0.0276466994 -0.5526111860 -1.5961164118
H  -0.5791205970 -1.9741792031  1.0046083509
H   0.2540606427  2.2388994103  0.7458426868
H  -2.5506613665 -2.4006504259 -0.1697308434
H  -2.0027602016 -1.5326524630 -1.5822672549
H  -0.6047046334  3.3252965778 -0.3795899639
H  -1.1316812852  3.2076532448  1.3185500363
H   2.7568212549  0.0141809001  1.4522202287
H   1.6478139909  1.3244579871 -1.5926444803
H   1.9720031748 -1.5796882797  1.4608053275
H   1.0562550255 -0.1495646167  1.9465020021
H   3.1385895271  0.8639058440 -0.7231153069
H   2.4880603776 -0.1466394408 -2.0432201785
22
Iteration 121  Energy = -72.4798605518
C  -0.7155206182 -1.5827598388 -0.0039304749
C   1.4133497911 -0.2866734928 -0.1862337276
C  -0.7226897118  2.6522563490  0.4708897007
C   1.8124170503 -0.5090107398  1.2283406037
C   2.2106271213  0.4736197709 -1.1734233360
N   0.2363640879 -0.8257116722 -0.6524244152
N  -1.8422566785 -1.8488875106 -0.6370099513
O  -1.6328877682  1.6050032436  0.0078015416
H  -1.7808797789  0.9777482687  0.7325029140
H  -0.0279291226 -0.5547682247 -1.6000128684
H  -0.5798968546 -1.9753843161  1.0010942934
H   0.2566019138  2.2449239238  0.7478693205
H  -2.5495916828 -2.4058259674 -0.1749876576
H  -2.0025842994 -1.5356825201 -1.5865929537
H  -0.6044566889  3.3308920279 -0.3761266997
H  -1.1327142990  3.2081519303  1.3213162290
H   2.7530831235  0.0172380895  1.4505707297
H   1.6460089657  1.3248479337 -1.5952867274
H   1.9702684529 -1.5776032476  1.4595013931
H   1.0522243036 -0.1482865440  1.9433156255
H   3.1366892379  0.8645821534 -0.7254280271
H   2.4867010691 -0.1461211199 -2.0457113739
22
Iteration 122  Energy = -72.4798620419
C  -0.7161960689 -1.5849963467 -0.0079281935
C   1.4111533987 -0.2864070493 -0.1889905391
C  -0.7223482563  2.6562915650  0.4730058402
C   1.8093797684 -0.5077174984  1.2260237692
C   2.2084271123  0.4744454868 -1.1758203390
N   0.2351056972 -0.8267950907 -0.6558801078
N  -1.8420530988 -1.8528917972 -0.6417897123
O  -1.6280829704  1.6060968838  0.0075289276
H  -1.7751134530  0.9777720727  0.7315015596
H  -0.0286246520 -0.5566745922 -1.6038557474
H  -0.5806428437 -1.9773152904  0.9972020115
H   0.2582165781  2.2523315921  0.7504871102
H  -2.5488025242 -2.4110666981 -0.1803603225
H  -2.0029750934 -1.5381632273 -1.5907617527
H  -0.6057431651  3.3363233014 -0.3730759938
H  -1.1354125323  3.2094298012  1.3236912274
H   2.7491866909  0.0198351680  1.4488335976
H   1.6435749379  1.3256872367 -1.5974053206
H   1.9684403627 -1.5760182846  1.4577770443
H   1.0481043011 -0.1476621210  1.9401912375
H   3.1342926385  0.8655591506 -0.7275261667
H   2.4848252492 -0.1449136095 -2.0482819346
22
Iteration 123  Energy = -72.4798604921
C  -0.7167484132 -1.5875100093 -0.0112110391
C   1.4089501902 -0.2863252431 -0.1913420649
C  -0.7231070425  2.6617290311  0.4746516366
C   1.8063175445 -0.5061535518  1.2241948715
C   2.2061619740  0.4749786728 -1.1779495009
N   0.2338860126 -0.8282165633 -0.6588143803
N  -1.8420268342 -1.8568042034 -0.6454943307
O  -1.6228045070  1.6067030968  0.0080351670
H  -1.7682849268  0.9781695209  0.7321461397
H  -0.0294523078 -0.5588467571 -1.6071108739
H  -0.5809510099 -1.9796925160  0.9939144991
H   0.2592465177  2.2630076728  0.7535114981
H  -2.5481096231 -2.4162000999 -0.1845205307
H  -2.0038027618 -1.5403654805 -1.5937463125
H  -0.6088633131  3.3420830190 -0.3714414039
H  -1.1401980597  3.2126767168  1.3247055691
H   2.7451786312  0.0229167212  1.4474510612
H   1.6411552600  1.3263956016 -1.5990605523
H   1.9667420831 -1.5740715684  1.4568745098
H   1.0438895160 -0.1466456796  1.9374138517
H   3.1320048512  0.8660418712 -0.7295284928
H   2.4825661462 -0.1439996654 -2.0506880715
22
Iteration 124  Energy = -72.4798759297
C  -0.7170534240 -1.5888347986 -0.0110775908
C   1.4078604120 -0.2867985834 -0.1924845376
C  -0.7251956031  2.6656669057  0.4800148612
C   1.8061626458 -0.5062883475  1.2228672832
C   2.2038932152  0.4755976528 -1.1792862985
N   0.2330783227 -0.8296120723 -0.6594506517
N  -1.8416159973 -1.8606281775 -0.6455480502
O  -1.6176132435  1.6089208430  0.0030020141
H  -1.7680069263  0.9785563333  0.7245465599
H  -0.0305976437 -0.5608392596 -1.6078277401
H  -0.5813355136 -1.9790005903  0.9948241522
H   0.2565988603  2.2697296817  0.7648825079
H  -2.5476421017 -2.4193383482 -0.1836818905
H  -2.0034698544 -1.5454834275 -1.5942129291
H  -0.6069984390  3.3490919105 -0.3630192917
H  -1.1506216429  3.2121207059  1.3288002098
H   2.7451426742  0.0229090286  1.4453445109
H   1.6385257625  1.3279273972 -1.5981458113
H   1.9668040510 -1.5741571001  1.4556784651
H   1.0442582355 -0.1466158019  1.9365779725
H   3.1305519952  0.8657175199 -0.7316892366
H   2.4787110441 -0.1422176031 -2.0533578149
22
Iteration 125  Energy = -72.4798912481
C  -0.7172952521 -1.5898964971 -0.0104563078
C   1.4070028156 -0.2873274516 -0.1934047961
C  -0.7280104421  2.6690892561  0.4857871901
C   1.8063343498 -0.5065343474  1.2217172389
C   2.2017982289  0.4761581977 -1.1804495178
N   0.2324043444 -0.8309532164 -0.6597426119
N  -1.8412601130 -1.8640060491 -0.6449659793
O  -1.6128631431  1.6109271821 -0.0023162099
H  -1.7688626837  0.9787210862  0.7164386267
H  -0.0318108863 -0.5625477370 -1.6080785861
H  -0.5816730419 -1.9779828412  0.9962389352
H   0.2528167120  2.2757001235  0.7775738140
H  -2.5473295926 -2.4217814529 -0.1820633642
H  -2.0031014601 -1.5504659097 -1.5941617987
H  -0.6049942101  3.3555733662 -0.3540207559
H  -1.1623637907  3.2111364642  1.3328082667
H   2.7455109834  0.0226797738  1.4433444480
H   1.6362382105  1.3296505697 -1.5967555551
H   1.9670855782 -1.5743774548  1.4546269832
H   1.0450558940 -0.1466148661  1.9359907354
H   3.1295045684  0.8649773896 -0.7338516457
H   2.4746161879 -0.1404005278 -2.0560387820
22
Iteration 126  Energy = -72.4799079970
C  -0.7176176607 -1.5903735391 -0.0095855891
C   1.4064616589 -0.2878730162 -0.1943151662
C  -0.7307369780  2.6712454638  0.4918623767
C   1.8071756556 -0.5073688897  1.2203705637
C   2.2000076710  0.4766111803 -1.1816726593
N   0.2317158675 -0.8318094557 -0.6598205169
N  -1.8410172843 -1.8666884321 -0.6441137575
O  -1.6089113135  1.6131640868 -0.0084861520
H  -1.7716061161  0.9787757133  0.7068746145
H  -0.0332825314 -0.5633523276 -1.6079324796
H  -0.5821370728 -1.9764036479  0.9979006412
H   0.2482601513  2.2788839381  0.7911618485
H  -2.5472573744 -2.4233014298 -0.1801006748
H  -2.0026714366 -1.5550784402 -1.5939739931
H  -0.6013777922  3.3611053903 -0.3441944384
H  -1.1739416724  3.2090357574  1.3369586992
H   2.7468097333  0.0214434697  1.4410276512
H   1.6345118521  1.3315593107 -1.5951321191
H   1.9677152008 -1.5753182085  1.4529728823
H   1.0468905804 -0.1471709116  1.9355782331
H   3.1290623767  0.8636640138 -0.7363092805
H   2.4703003864 -0.1386347090 -2.0589685676
22
Iteration 127  Energy = -72.4799217657
C  -0.7182264118 -1.5908814864 -0.0094555161
C   1.4056689720 -0.2884981179 -0.1957965652
C  -0.7339074071  2.6739045997  0.4979308458
C   1.8074253700 -0.5079040505  1.2186154768
C   2.1982947622  0.4765627010 -1.1835353397
N   0.2308059525 -0.8327085513 -0.6605606310
N  -1.8412483567 -1.8688994347 -0.6438855962
O  -1.6046312387  1.6151739817 -0.0140663625
H  -1.7738857289  0.9790432207  0.6982250420
H  -0.0349278652 -0.5641184362 -1.6084375777
H  -0.5827738211 -1.9752455568  0.9986515890
H   0.2431981579  2.2832291173  0.8056090396
H  -2.5476591133 -2.4244485531 -0.1788834629
H  -2.0028367631 -1.5587511792 -1.5942305991
H  -0.5981216239  3.3664300029 -0.3348515007
H  -1.1865846219  3.2079870204  1.3402992082
H   2.7473303633  0.0207720718  1.4384643335
H   1.6333464499  1.3333115677 -1.5940857130
H   1.9679488205 -1.5758748545  1.4511872566
H   1.0478437114 -0.1474682583  1.9344617338
H   3.1289885336  0.8612895477 -0.7395382802
H   2.4655738527 -0.1375196317 -2.0625690142
22
Iteration 128  Energy = -72.4799394087
C  -0.7185857513 -1.5904264003 -0.0080991600
C   1.4056289902 -0.2889382457 -0.1964663529
C  -0.7363220786  2.6734862146  0.5039281099
C   1.8091229012 -0.5092333485  1.2173071566
C   2.1972590432  0.4765806008 -1.1847278616
N   0.2302162943 -0.8328076619 -0.6601627325
N  -1.8410590555 -1.8704731793 -0.6425767433
O  -1.6025392810  1.6174844874 -0.0212530646
H  -1.7801724287  0.9790263345  0.6869372303
H  -0.0363889250 -0.5639573103 -1.6077279418
H  -0.5834019549 -1.9727797270  1.0008046194
H   0.2374853781  2.2809707809  0.8196305751
H  -2.5478185525 -2.4245975985 -0.1764308635
H  -2.0021408735 -1.5627768900 -1.5938057075
H  -0.5918853827  3.3694829135 -0.3245063883
H  -1.1969908756  3.2041631596  1.3440830467
H   2.7497848904  0.0185589367  1.4360310089
H   1.6327032540  1.3347309157 -1.5928981542
H   1.9690624911 -1.5774509394  1.4491493163
H   1.0509532188 -0.1484814527  1.9344964686
H   3.1293870986  0.8594193337 -0.7420943123
H   2.4619012981 -0.1366016988 -2.0651828526
22
Iteration 129  Energy = -72.4799562768
C  -0.7182186206 -1.5886616874 -0.0053881795
C   1.4068377080 -0.2886828537 -0.1952323539
C  -0.7355243486  2.6693917096  0.5071157228
C   1.8125403947 -0.5115913807  1.2174746411
C   2.1973409732  0.4779565882 -1.1835545607
N   0.2305504672 -0.8314867318 -0.6579939056
N  -1.8398654448 -1.8707632828 -0.6403663318
O  -1.6038504462  1.6201999282 -0.0280632352
H  -1.7881603296  0.9789409187  0.6758655712
H  -0.0366555991 -0.5623429836 -1.6053042883
H  -0.5837779016 -1.9690682668  1.0043591500
H   0.2351537944  2.2706930880  0.8246020156
H  -2.5471793827 -2.4234302711 -0.1733553420
H  -1.9998810992 -1.5660205483 -1.5927305381
H  -0.5845207921  3.3696852557 -0.3165245317
H  -1.1975036144  3.1972484450  1.3483494975
H   2.7545925584  0.0141600325  1.4350908099
H   1.6322697109  1.3362872423 -1.5905429515
H   1.9709358812 -1.5804255999  1.4474363892
H   1.0565162352 -0.1504976056  1.9367529437
H   3.1297596184  0.8606209058 -0.7414134032
H   2.4613812812 -0.1343876410 -2.0647635313
22
Iteration 130  Energy = -72.4799731449
C  -0.7182778087 -1.5881267995 -0.0040061163
C   1.4074561736 -0.2895196146 -0.1960611484
C  -0.7372236316  2.6665263565  0.5123500509
C   1.8152824662 -0.5140091415  1.2157593565
C   2.1967822629  0.4777160874 -1.1849121603
N   0.2303193698 -0.8315443598 -0.6575573519
N  -1.8393777401 -1.8721818807 -0.6390448994
O  -1.6033409153  1.6219407751 -0.0353338011
H  -1.7956825742  0.9781427077  0.6641487559
H  -0.0377598113 -0.5621675257 -1.6045565393
H  -0.5842100584 -1.9665433967  1.0065394277
H   0.2297842136  2.2640279055  0.8361868365
H  -2.5471530477 -2.4232458090 -0.1708660580
H  -1.9987364652 -1.5701762875 -1.5923918752
H  -0.5775325156  3.3704252242 -0.3065838840
H  -1.2051599672  3.1914259379  1.3521804346
H   2.7584009364  0.0103463594  1.4321022784
H   1.6317525301  1.3370441254 -1.5898321660
H   1.9726717719 -1.5832380779  1.4445227793
H   1.0610658543 -0.1525445675  1.9367486702
H   3.1303551283  0.8590335488 -0.7440388690
H   2.4586598696 -0.1337865173 -2.0673510705
22
Iteration 131  Energy = -72.4799887613
C  -0.7188793621 -1.5855897234 -0.0014386175
C   1.4079260891 -0.2889137817 -0.1952603263
C  -0.7385580764  2.6646373729  0.5167831501
C   1.8174424901 -0.5150093442  1.2157881295
C   2.1964830739  0.4786926527 -1.1844710956
N   0.2299065461 -0.8298950645 -0.6557356731
N  -1.8392138751 -1.8715731195 -0.6369186720
O  -1.6039136960  1.6256582901 -0.0426387208
H  -1.8036893049  0.9791764248  0.6522904707
H  -0.0386099294 -0.5605315061 -1.6026146635
H  -0.5856588089 -1.9618219264  1.0100414723
H   0.2246316010  2.2572572407  0.8458205587
H  -2.5477655756 -2.4207352802 -0.1677039322
H  -1.9974443635 -1.5726068265 -1.5914154778
H  -0.5703951425  3.3721332192 -0.2973522119
H  -1.2110384541  3.1869440906  1.3557141964
H   2.7617583986  0.0076201908  1.4310658625
H   1.6315910674  1.3387644879 -1.5879668352
H   1.9733582893 -1.5846657418  1.4435028400
H   1.0649276936 -0.1528139945  1.9381994043
H   3.1308930611  0.8589692601 -0.7444789773
H   2.4568071831 -0.1322337494 -2.0677650798
22
Iteration 132  Energy = -72.4800030665
C  -0.7194273348 -1.5830113998  0.0011524224
C   1.4085274615 -0.2884226298 -0.1946351450
C  -0.7400131755  2.6628018485  0.5211953202
C   1.8196280017 -0.5158619844  1.2157105577
C   2.1963756254  0.4793335776 -1.1843263890
N   0.2295708014 -0.8283079748 -0.6539951967
N  -1.8390932020 -1.8708325161 -0.6346422486
O  -1.6043859332  1.6294111640 -0.0499727634
H  -1.8112221748  0.9801259985  0.6402943320
H  -0.0393573542 -0.5591052736 -1.6008022591
H  -0.5869996984 -1.9570743057  1.0135476900
H   0.2192289172  2.2505754227  0.8556700058
H  -2.5484324509 -2.4179959485 -0.1643077411
H  -1.9962459474 -1.5749532117 -1.5902824530
H  -0.5632089612  3.3737463371 -0.2881075611
H  -1.2172405327  3.1826380716  1.3590162391
H   2.7650961652  0.0051123337  1.4299234286
H   1.6317197768  1.3401905743 -1.5864525196
H   1.9740698468 -1.5858930097  1.4426116456
H   1.0686769280 -0.1528040026  1.9393374996
H   3.1317041478  0.8584796936 -0.7453138800
H   2.4550009899 -0.1311449344 -2.0684279805
22
Iteration 133  Energy = -72.4800160603
C  -0.7198360165 -1.5803563310  0.0037222954
C   1.4092596277 -0.2878989426 -0.1943398480
C  -0.7417153843  2.6610422048  0.5257486538
C   1.8219386310 -0.5164235654  1.2153436755
C   2.1963697479  0.4798345019 -1.1846639074
N   0.2293114116 -0.8266894883 -0.6524283428
N  -1.8389692346 -1.8699402433 -0.6321815273
O  -1.6048467241  1.6331753586 -0.0571436904
H  -1.8183274575  0.9809419351  0.6283443856
H  -0.0400642044 -0.5578033828 -1.5991967236
H  -0.5880389040 -1.9522696685  1.0169953457
H   0.2135035524  2.2440781786  0.8658104942
H  -2.5490148338 -2.4151124106 -0.1606227758
H  -1.9951876655 -1.5771537888 -1.5889310941
H  -0.5562336763  3.3753279863 -0.2786722575
H  -1.2238571936  3.1784615640  1.3622946538
H   2.7684764516  0.0030501334  1.4284538518
H   1.6319861343  1.3414888639 -1.5854509614
H   1.9750240014 -1.5867702953  1.4416243332
H   1.0724370072 -0.1524658579  1.9400514785
H   3.1326929688  0.8578116578 -0.7467669531
H   2.4531505470 -0.1303052926 -2.0695367128
22
Iteration 134  Energy = -72.4800274448
C  -0.7198830223 -1.5796609552  0.0051248917
C   1.4101311897 -0.2890049790 -0.1951570824
C  -0.7441651683  2.6572061691  0.5312883455
C   1.8245335387 -0.5188460205  1.2137841701
C   2.1963087697  0.4790115900 -1.1860273981
N   0.2291985177 -0.8267111185 -0.6519611513
N  -1.8386248704 -1.8708322731 -0.6307238001
O  -1.6054397680  1.6347388060 -0.0637135112
H  -1.8251634347  0.9792060330  0.6166830046
H  -0.0407500661 -0.5579798752 -1.5986079567
H  -0.5884251079 -1.9498129951  1.0190855321
H   0.2069817696  2.2357710792  0.8771957823
H  -2.5492064130 -2.4142883551 -0.1580139686
H  -1.9941808604 -1.5807294703 -1.5884013279
H  -0.5499847130  3.3749620660 -0.2679930726
H  -1.2316747341  3.1719405874  1.3664216352
H   2.7719958108 -0.0006515179  1.4258745218
H   1.6320693788  1.3415189618 -1.5851847575
H   1.9765741350 -1.5895161966  1.4391998463
H   1.0763884268 -0.1543606102  1.9396638303
H   3.1336542447  0.8557895259 -0.7492852136
H   2.4511728995 -0.1305458124 -2.0718588344
22
Iteration 135  Energy = -72.4800327496
C  -0.7203186217 -1.5817613427  0.0034796475
C   1.4107654986 -0.2927314099 -0.1961489529
C  -0.7450394573  2.6529602382  0.5314910372
C   1.8246601765 -0.5231218411  1.2128393730
C   2.1976508574  0.4749753323 -1.1867093353
N   0.2295847278 -0.8295861343 -0.6533053433
N  -1.8384311365 -1.8733252370 -0.6332849913
O  -1.6048574773  1.6334033089 -0.0704739664
H  -1.8286561681  0.9763943213  0.6071539556
H  -0.0396643450 -0.5610227759 -1.6001990490
H  -0.5900511751 -1.9510763742  1.0179080793
H   0.2033916938  2.2290333825  0.8817281913
H  -2.5498727791 -2.4156857847 -0.1606215771
H  -1.9927163710 -1.5845681411 -1.5915747694
H  -0.5451707171  3.3721622260 -0.2650468871
H  -1.2362103225  3.1667292626  1.3650770340
H   2.7724964890 -0.0057482571  1.4252358702
H   1.6341177129  1.3379783653 -1.5857971773
H   1.9757122245 -1.5939540296  1.4381378236
H   1.0765770217 -0.1580855598  1.9385244438
H   3.1351896083  0.8509889291 -0.7497261288
H   2.4522403154 -0.1345630861 -2.0726342984
22
Iteration 136  Energy = -72.4800418095
C  -0.7205037690 -1.5810451362  0.0051569106
C   1.4116010088 -0.2940905366 -0.1968652546
C  -0.7482119799  2.6501697486  0.5361908944
C   1.8265696512 -0.5245996939  1.2117728381
C   2.1981412004  0.4728568897 -1.1883211074
N   0.2295947360 -0.8301159638 -0.6527924743
N  -1.8382835100 -1.8741267507 -0.6314825849
O  -1.6047431119  1.6349532445 -0.0777718209
H  -1.8353703394  0.9754216674  0.5951804090
H  -0.0398762202 -0.5623314431 -1.5998414391
H  -0.5906965925 -1.9482522907  1.0204145835
H   0.1955857463  2.2226116550  0.8945395221
H  -2.5502927400 -2.4146702021 -0.1576010813
H  -1.9918352023 -1.5882388002 -1.5907587501
H  -0.5385497582  3.3716566019 -0.2558076545
H  -1.2463295794  3.1623211421  1.3666882750
H   2.7750623930 -0.0080519019  1.4232293646
H   1.6349530698  1.3362891666 -1.5869956361
H   1.9767856724 -1.5955322034  1.4371410571
H   1.0793569266 -0.1586682272  1.9379396371
H   3.1364409255  0.8481459227 -0.7523428066
H   2.4513447127 -0.1370108711 -2.0744301426
22
Iteration 137  Energy = -72.4800496773
C  -0.7204003358 -1.5797357658  0.0065533808
C   1.4125291909 -0.2946131308 -0.1979261339
C  -0.7521113675  2.6490862874  0.5403134299
C   1.8281587697 -0.5243422687  1.2106342237
C   2.1990207125  0.4709841664 -1.1905043934
N   0.2299402047 -0.8302437235 -0.6526994146
N  -1.8378999143 -1.8743049592 -0.6298877418
O  -1.6037462099  1.6368937215 -0.0853615531
H  -1.8415214883  0.9755512567  0.5833549856
H  -0.0395933983 -0.5636326704 -1.6000607018
H  -0.5910226497 -1.9447444870  1.0226623058
H   0.1866981990  2.2190254256  0.9087032866
H  -2.5504050350 -2.4131442206 -0.1548192163
H  -1.9907786913 -1.5912412693 -1.5901134796
H  -0.5320488888  3.3718243645 -0.2477130142
H  -1.2586378289  3.1604582785  1.3662041516
H   2.7770378345 -0.0081520062  1.4212087647
H   1.6361261297  1.3343944497 -1.5896986429
H   1.9778626576 -1.5951987648  1.4367202649
H   1.0814187691 -0.1573873079  1.9368037847
H   3.1377609343  0.8461445594 -0.7553607186
H   2.4514410332 -0.1398324799 -2.0762056394
22
Iteration 138  Energy = -72.4800565914
C  -0.7198907345 -1.5787012175  0.0079543223
C   1.4134402739 -0.2948296181 -0.1992054014
C  -0.7566535162  2.6491288549  0.5449166444
C   1.8295839594 -0.5230368480  1.2094456821
C   2.1998905585  0.4691503206 -1.1931124772
N   0.2305155977 -0.8306004577 -0.6527975964
N  -1.8373224670 -1.8746265307 -0.6279791836
O  -1.6016916887  1.6382675553 -0.0918012122
H  -1.8468232362  0.9759689187  0.5733324967
H  -0.0392382188 -0.5652400739 -1.6004460478
H  -0.5905955968 -1.9416348121  1.0248141072
H   0.1770251805  2.2180587159  0.9250447436
H  -2.5500803825 -2.4120408020 -0.1516812590
H  -1.9898788701 -1.5940751341 -1.5889956672
H  -0.5260346750  3.3720811691 -0.2398695236
H  -1.2729225880  3.1604886686  1.3647413863
H   2.7785936548 -0.0067130821  1.4190932714
H   1.6371786069  1.3323312116 -1.5931537410
H   1.9792099951 -1.5936596194  1.4367248190
H   1.0830474666 -0.1550701293  1.9353418396
H   3.1389528215  0.8445045061 -0.7588223242
H   2.4517338599 -0.1428915614 -2.0781618268
22
Iteration 139  Energy = -72.4800631479
C  -0.7199107634 -1.5782965338  0.0085863247
C   1.4139611554 -0.2957736890 -0.2001669577
C  -0.7607299029  2.6494457159  0.5530566011
C   1.8303961552 -0.5233388660  1.2084953042
C   2.2006265903  0.4670927701 -1.1948149487
N   0.2306851527 -0.8312197435 -0.6530597755
N  -1.8376079196 -1.8743032199 -0.6268437439
O  -1.5981955015  1.6392194290 -0.0946166052
H  -1.8508159463  0.9761636216  0.5669781778
H  -0.0393968426 -0.5660108000 -1.6006559940
H  -0.5905239360 -1.9404572725  1.0257020128
H   0.1677405886  2.2181108823  0.9454777984
H  -2.5506322263 -2.4107118515 -0.1498161780
H  -1.9900775959 -1.5948807402 -1.5882025006
H  -0.5196520222  3.3724192758 -0.2285269210
H  -1.2873217612  3.1607851618  1.3662375729
H   2.7795806852 -0.0071364482  1.4176584698
H   1.6385727614  1.3309016298 -1.5945595368
H   1.9797817305 -1.5938778246  1.4363718344
H   1.0840280469 -0.1546825934  1.9342382166
H   3.1403861704  0.8415446084 -0.7612377228
H   2.4512169122 -0.1454031538 -2.0799349359
22
Iteration 140  Energy = -72.4800699429
C  -0.7194796473 -1.5785774503  0.0087019625
C   1.4145669483 -0.2968795003 -0.2017982506
C  -0.7647045643  2.6502747006  0.5603010863
C   1.8311571424 -0.5231944568  1.2070254948
C   2.2014630106  0.4646786330 -1.1973325754
N   0.2311400054 -0.8324328417 -0.6539718530
N  -1.8375954726 -1.8745942502 -0.6259964708
O  -1.5936807240  1.6392361371 -0.0969670534
H  -1.8535855040  0.9762318553  0.5618641369
H  -0.0394434286 -0.5673509684 -1.6014591189
H  -0.5897320978 -1.9400570955  1.0260074510
H   0.1585612620  2.2199092390  0.9658649545
H  -2.5507108980 -2.4101790307 -0.1481821633
H  -1.9902661059 -1.5960229481 -1.5875711182
H  -0.5134969855  3.3722872759 -0.2189263691
H  -1.3020787479  3.1624047461  1.3658096173
H   2.7803580847 -0.0067987086  1.4156563692
H   1.6403193522  1.3293956776 -1.5965583150
H   1.9805573849 -1.5935289812  1.4359118362
H   1.0847798880 -0.1537769749  1.9323887658
H   3.1421887707  0.8378288371 -0.7646996599
H   2.4503169137 -0.1483030257 -2.0826317871
22
Iteration 141  Energy = -72.4800773934
C  -0.7195510093 -1.5790050252  0.0085003403
C   1.4146450582 -0.2978538664 -0.2024086690
C  -0.7692335818  2.6516353096  0.5675731011
C   1.8305181696 -0.5228313516  1.2068433669
C   2.2024361748  0.4622701465 -1.1983868429
N   0.2314146573 -0.8336595084 -0.6545989600
N  -1.8378234849 -1.8748136707 -0.6260299396
O  -1.5889961169  1.6389404164 -0.0986687660
H  -1.8564256390  0.9765536650  0.5577826100
H  -0.0392394497 -0.5685230180 -1.6020509410
H  -0.5898715281 -1.9400956937  1.0259431162
H   0.1483574473  2.2229102767  0.9875086454
H  -2.5512242158 -2.4097446813 -0.1479127506
H  -1.9903452518 -1.5966352287 -1.5877406160
H  -0.5074297590  3.3718502271 -0.2097821506
H  -1.3180057314  3.1653596777  1.3642392824
H   2.7795715896 -0.0061709718  1.4155249049
H   1.6426470408  1.3279980725 -1.5975000658
H   1.9798756447 -1.5929401221  1.4368826272
H   1.0836589359 -0.1526820782  1.9313491147
H   3.1439814084  0.8339273128 -0.7662093894
H   2.4499168211 -0.1512716825 -2.0837042296
22
Iteration 142  Energy = -72.4800857977
C  -0.7194540733 -1.5789526443  0.0089167025
C   1.4144313866 -0.2978674266 -0.2037777522
C  -0.7738025482  2.6542656288  0.5725766935
C   1.8299918498 -0.5204290757  1.2059558042
C   2.2028537509  0.4600995400 -1.2009436615
N   0.2315269086 -0.8346760715 -0.6553876270
N  -1.8380695857 -1.8750729036 -0.6248707452
O  -1.5842114021  1.6387963089 -0.1008371201
H  -1.8588446680  0.9778950533  0.5541400224
H  -0.0394986990 -0.5702284982 -1.6029275704
H  -0.5894116629 -1.9390353847  1.0266619671
H   0.1379047684  2.2279433010  1.0074538918
H  -2.5514898200 -2.4092077787 -0.1458953500
H  -1.9908930264 -1.5977036352 -1.5867647845
H  -0.5015164636  3.3715039118 -0.2038812831
H  -1.3338260559  3.1707599623  1.3594557334
H   2.7787844767 -0.0030583509  1.4141220388
H   1.6440675424  1.3260047386 -1.6012321961
H   1.9797246509 -1.5901087127  1.4378408722
H   1.0827181464 -0.1493051109  1.9295443075
H   3.1449215393  0.8313262020 -0.7694803169
H   2.4495230795 -0.1549433171 -2.0854726523
22
Iteration 143  Energy = -72.4800941424
C  -0.7190923503 -1.5789481695  0.0092152163
C   1.4138956920 -0.2971001914 -0.2061604256
C  -0.7781856272  2.6569291244  0.5772774471
C   1.8298201824 -0.5170217242  1.2038855321
C   2.2022348655  0.4590081559 -1.2048154987
N   0.2314648214 -0.8356159037 -0.6567727431
N  -1.8383369554 -1.8755308719 -0.6232496401
O  -1.5794366016  1.6384893203 -0.1025746627
H  -1.8607684264  0.9790675971  0.5510502704
H  -0.0403433854 -0.5721476966 -1.6043669190
H  -0.5881192424 -1.9380175416  1.0271884486
H   0.1282637686  2.2333318411  1.0255358142
H  -2.5514546456 -2.4089593588 -0.1430427391
H  -1.9920519367 -1.5988873730 -1.5852074601
H  -0.4967180871  3.3715822310 -0.1982311186
H  -1.3486095663  3.1756426507  1.3550403773
H   2.7782464705  0.0014269234  1.4110955202
H   1.6436575459  1.3243321476 -1.6067750444
H   1.9804279243 -1.5861959036  1.4376130232
H   1.0823121525 -0.1451703405  1.9268648345
H   3.1444153541  0.8309300699 -0.7741472046
H   2.4487762053 -0.1577183278 -2.0882356930
22
Iteration 144  Energy = -72.4801009373
C  -0.7197987121 -1.5798485866  0.0092084662
C   1.4130863035 -0.2979531060 -0.2052445026
C  -0.7808386373  2.6588449452  0.5820637995
C   1.8270380906 -0.5154877050  1.2057711460
C   2.2031116137  0.4563189873 -1.2039592565
N   0.2318283268 -0.8380036052 -0.6569260151
N  -1.8389905475 -1.8759349539 -0.6235917805
O  -1.5726665442  1.6381413457 -0.1054065997
H  -1.8618506519  0.9801135828  0.5462101973
H  -0.0391145794 -0.5753425286 -1.6050008823
H  -0.5895862336 -1.9382188519  1.0275162625
H   0.1204040018  2.2374457187  1.0427502130
H  -2.5529149984 -2.4081614848 -0.1432578272
H  -1.9920683056 -1.5996160649 -1.5857404649
H  -0.4903234669  3.3719225922 -0.1915168506
H  -1.3615363491  3.1787047300  1.3513005543
H   2.7749402932  0.0037017039  1.4135704078
H   1.6453032381  1.3208937569 -1.6086911642
H   1.9777830311 -1.5842212073  1.4414877656
H   1.0782861518 -0.1427321453  1.9270053458
H   3.1444612495  0.8292054060 -0.7722675222
H   2.4513890283 -0.1621219851 -2.0857206723
22
Iteration 145  Energy = -72.4801063613
C  -0.7200563398 -1.5818382432  0.0092694716
C   1.4118552383 -0.2987581803 -0.2056772118
C  -0.7817726563  2.6603264729  0.5862171609
C   1.8247519171 -0.5133895336  1.2061164603
C   2.2025445154  0.4541261480 -1.2049366562
N   0.2320123621 -0.8414048616 -0.6578085050
N  -1.8397785797 -1.8773979013 -0.6228421110
O  -1.5645468917  1.6372924945 -0.1081654927
H  -1.8608824638  0.9805199515  0.5414922906
H  -0.0388271929 -0.5796740758 -1.6061780231
H  -0.5896510528 -1.9395557141  1.0277680756
H   0.1155074030  2.2414680614  1.0568701653
H  -2.5540875160 -2.4083802588 -0.1417129346
H  -1.9931599180 -1.6012578363 -1.5849900239
H  -0.4844933279  3.3728252247 -0.1852612211
H  -1.3714959212  3.1800511445  1.3485263527
H   2.7718077489  0.0073553027  1.4139286147
H   1.6446684418  1.3174631607 -1.6122762641
H   1.9766409246 -1.5815235982  1.4438782312
H   1.0748803348 -0.1402735096  1.9260052810
H   3.1429619471  0.8287683123 -0.7727025517
H   2.4526270506 -0.1659606429 -2.0850494638
22
Iteration 146  Energy = -72.4801099376
C  -0.7201988761 -1.5847756856  0.0090335165
C   1.4100261470 -0.2993219680 -0.2061875361
C  -0.7816812677  2.6614720162  0.5900600879
C   1.8223466884 -0.5116601424  1.2061594378
C   2.2007915634  0.4531525536 -1.2057394964
N   0.2319212219 -0.8451715315 -0.6588853810
N  -1.8406310363 -1.8796541453 -0.6221423173
O  -1.5560439941  1.6359967444 -0.1101952453
H  -1.8586097853  0.9803942640  0.5377562678
H  -0.0392352918 -0.5838389107 -1.6072794563
H  -0.5891272838 -1.9424235212  1.0274553607
H   0.1126234142  2.2454282852  1.0688469274
H  -2.5550582595 -2.4097627790 -0.1402399825
H  -1.9947825354 -1.6030535713 -1.5840314625
H  -0.4794232375  3.3738868430 -0.1795058786
H  -1.3792614947  3.1804088691  1.3466700727
H   2.7681510529  0.0113150129  1.4141163912
H   1.6422200467  1.3149942774 -1.6153239906
H   1.9763468398 -1.5792216242  1.4452006169
H   1.0712308404 -0.1393406836  1.9251637757
H   3.1400281740  0.8300557473 -0.7728740584
H   2.4530909712 -0.1680346331 -2.0844592141
22
Iteration 147  Energy = -72.4801119045
C  -0.7208183359 -1.5866158218  0.0088847395
C   1.4069353833 -0.2973676706 -0.2056534888
C  -0.7831349249  2.6645892133  0.5922586430
C   1.8187227529 -0.5080742408  1.2071416676
C   2.1974872064  0.4556828736 -1.2050002602
N   0.2311300811 -0.8471732868 -0.6594423110
N  -1.8415865097 -1.8813530295 -0.6217622412
O  -1.5489818013  1.6356374532 -0.1123545161
H  -1.8570984166  0.9816827623  0.5346354560
H  -0.0403395343 -0.5859734446 -1.6077827922
H  -0.5891748884 -1.9443012002  1.0272026239
H   0.1085415130  2.2522155006  1.0791275422
H  -2.5559697650 -2.4110896172 -0.1394032205
H  -1.9964193149 -1.6040910605 -1.5833466213
H  -0.4766373583  3.3763097123 -0.1762260638
H  -1.3883427516  3.1832013218  1.3429365417
H   2.7627571440  0.0178655007  1.4157167063
H   1.6375067480  1.3154433161 -1.6170368907
H   1.9758089401 -1.5750957980  1.4466759211
H   1.0659700910 -0.1378112487  1.9254900192
H   3.1349089373  0.8358112611 -0.7709807131
H   2.4531645813 -0.1661979892 -2.0822762916
22
Iteration 148  Energy = -72.4801124410
C  -0.7238784558 -1.5896708020  0.0098064481
C   1.4024302175 -0.2985503118 -0.2058324847
C  -0.7837925061  2.6658660047  0.5942646161
C   1.8154477780 -0.5093656504  1.2066170245
C   2.1919947433  0.4552823477 -1.2054250077
N   0.2276340985 -0.8505463959 -0.6594565113
N  -1.8455244157 -1.8837594276 -0.6195938530
O  -1.5446839920  1.6341070944 -0.1116613028
H  -1.8562606573  0.9819722285  0.5354928963
H  -0.0449673122 -0.5887963695 -1.6073167305
H  -0.5910703129 -1.9476549554  1.0278538829
H   0.1062631754  2.2561671599  1.0863168482
H  -2.5596302990 -2.4131488914 -0.1364566024
H  -2.0015593454 -1.6057043621 -1.5807504058
H  -0.4747846756  3.3763040726 -0.1743623045
H  -1.3934025370  3.1851194611  1.3408386709
H   2.7586754600  0.0181422563  1.4149007949
H   1.6307043835  1.3137285315 -1.6183919270
H   1.9745949463 -1.5762488623  1.4454679595
H   1.0625620871 -0.1408524902  1.9257119860
H   3.1285154562  0.8374830970 -0.7712646762
H   2.4493017454 -0.1667232948 -2.0821497398
22
Iteration 149  Energy = -72.4801123814
C  -0.7238558650 -1.5897469673  0.0097752939
C   1.4024361498 -0.2985922359 -0.2058438496
C  -0.7838111373  2.6659154647  0.5943088388
C   1.8154270104 -0.5094034029  1.2066201331
C   2.1919330236  0.4553357197 -1.2054050190
N   0.2276222880 -0.8505857812 -0.6594954784
N  -1.8455584622 -1.8837834580 -0.6195462456
O  -1.5445344412  1.6340848347 -0.1116722186
H  -1.8562662566  0.9820226875  0.5354687927
H  -0.0450427409 -0.5887346474 -1.6073041056
H  -0.5909859288 -1.9478206756  1.0277820567
H   0.1061613928  2.2562694782  1.0865179770
H  -2.5596305535 -2.4131905666 -0.1363788248
H  -2.0016769335 -1.6056709340 -1.5806722296
H  -0.4746972407  3.3763249614 -0.1742965292
H  -1.3935549902  3.1851789330  1.3407419187
H   2.7586272471  0.0181403982  1.4149309004
H   1.6305783978  1.3137592352 -1.6183312275
H   1.9746095900 -1.5762812004  1.4454609066
H   1.0625105240 -0.1409271614  1.9256997549
H   3.1284325250  0.8375812950 -0.7712426114
H   2.4492686361 -0.1666153446 -2.0821594610
22
Iteration 1  Energy = -72.4165070728
C  -0.8698306391 -1.1412076200  0.1598013849
C   1.2138373234  0.0865927887  0.0352143345
C  -0.8071840348  1.8063777041  0.7738801525
C   1.9318421658 -0.5236976663  1.2377103529
C   2.1785470222  0.5244322341 -1.0565264944
N   0.2414787578 -0.8985110610 -0.5597433047
N  -2.0083126581 -1.6001660147 -0.4233133325
O  -1.6068260011  1.4915977845 -0.2776661288
H  -2.0538716295  0.6295811118 -0.1756953382
H   0.0169961002 -0.6803203122 -1.5297348638
H  -0.8941425365 -0.8714644930  1.2092112018
H   0.5746315758  1.0032822427  0.4039345346
H  -2.6894403180 -1.9473020131  0.2498150111
H  -1.8853845164 -2.2485392942 -1.2023830415
H  -0.4112924027  2.8161028437  0.7226327755
H  -1.0196141067  1.4053851009  1.7698787970
H   2.6104073079  0.2077324877  1.6816890250
H   1.6506935239  1.0090741450 -1.8820000266
H   2.5197161436 -1.3952647748  0.9344607377
H   1.2274224682 -0.8354199278  2.0111258565
H   2.9130253646  1.2292557642 -0.6633752838
H   2.7118770169 -0.3454312786 -1.4511393365
22
Iteration 2  Energy = -72.4211538509
C  -0.8711835910 -1.1662183485  0.1679214149
C   1.2212547620  0.0847665885  0.0340366755
C  -0.8134920943  1.8086674361  0.7740204094
C   1.9402221395 -0.5278443937  1.2411026840
C   2.1811897921  0.5359386845 -1.0607580830
N   0.2355263471 -0.8936191872 -0.5591122313
N  -2.0075597048 -1.6082049473 -0.4296835161
O  -1.6088838733  1.5096498569 -0.2759859629
H  -2.1116047585  0.6763266584 -0.1773959643
H   0.0118974175 -0.7106097443 -1.5348229800
H  -0.8868223515 -0.9533120223  1.2341865774
H   0.5803241707  0.9981393977  0.4071972880
H  -2.7181502908 -1.9248927870  0.2260350506
H  -1.8915710891 -2.2391652505 -1.2229077014
H  -0.3915382327  2.8073198312  0.7355255978
H  -1.0154205034  1.3781106114  1.7597142346
H   2.6189671699  0.2050418387  1.6815012445
H   1.6450333524  1.0229813587 -1.8787374046
H   2.5318004958 -1.3964261097  0.9377862935
H   1.2433423661 -0.8407850538  2.0202778622
H   2.9125203930  1.2419126179 -0.6649336511
H   2.7187414394 -0.3259659077 -1.4663414391
22
Iteration 3  Energy = -72.4236235098
C  -0.8692990087 -1.1931951501  0.1717871259
C   1.2263381104  0.0843421930  0.0368746409
C  -0.8209755524  1.8077455989  0.7768856074
C   1.9497337486 -0.5393017518  1.2392147654
C   2.1796451323  0.5568072680 -1.0583076366
N   0.2287704375 -0.8839619240 -0.5583312322
N  -2.0062878942 -1.6157106929 -0.4347698302
O  -1.6089914740  1.5225390245 -0.2785436541
H  -2.1335064365  0.7035748885 -0.1774979989
H   0.0007778857 -0.7035477686 -1.5319908741
H  -0.8779585464 -1.0300411079  1.2491519096
H   0.5884460762  0.9884777778  0.4188032849
H  -2.7360464977 -1.9198123651  0.2030449284
H  -1.9030207124 -2.2132098676 -1.2556686275
H  -0.3764292179  2.7963619768  0.7498776785
H  -1.0194621332  1.3564308291  1.7526147594
H   2.6295278033  0.1915595480  1.6815952894
H   1.6352563234  1.0542214815 -1.8645366864
H   2.5420673915 -1.4045683345  0.9281856919
H   1.2574318690 -0.8573406001  2.0202015788
H   2.9085287815  1.2613766891 -0.6552369566
H   2.7210389682 -0.2939689596 -1.4817946813
22
Iteration 4  Energy = -72.4257415609
C  -0.8678988003 -1.2223009387  0.1746744117
C   1.2314704448  0.0847146480  0.0374689500
C  -0.8267619690  1.8074301316  0.7836182696
C   1.9602740854 -0.5447857836  1.2359565344
C   2.1775851536  0.5707844247 -1.0609296466
N   0.2225457437 -0.8772050200 -0.5529575716
N  -2.0047456007 -1.6255224881 -0.4404836783
O  -1.6112925937  1.5410074923 -0.2778785364
H  -2.1561005696  0.7355068239 -0.1770675239
H  -0.0046880395 -0.7090574827 -1.5285930162
H  -0.8732284140 -1.0988614261  1.2588739971
H   0.5982663640  0.9821670087  0.4245559531
H  -2.7526828846 -1.9232756902  0.1769385513
H  -1.9166608999 -2.1699994806 -1.2995685595
H  -0.3621160786  2.7862853227  0.7697481243
H  -1.0179045251  1.3307636074  1.7474014461
H   2.6431578301  0.1842374742  1.6768573528
H   1.6251093118  1.0745072144 -1.8575771141
H   2.5496418388 -1.4106257164  0.9214341754
H   1.2696441201 -0.8614124543  2.0188923047
H   2.9051620981  1.2752544453 -0.6551857003
H   2.7208017963 -0.2718376406 -1.4973695590
22
Iteration 5  Energy = -72.4275846557
C  -0.8687603011 -1.2467508249  0.1776609911
C   1.2373585946  0.0852942727  0.0381319217
C  -0.8374204054  1.8120953782  0.7904665426
C   1.9712679503 -0.5452636737  1.2345643063
C   2.1780783723  0.5717712307 -1.0665680476
N   0.2177747499 -0.8747313825 -0.5420727754
N  -2.0021991932 -1.6347749846 -0.4454040722
O  -1.6137124215  1.5637785983 -0.2808117022
H  -2.1687363386  0.7632870985 -0.1900640986
H  -0.0017432607 -0.7317750677 -1.5239095016
H  -0.8786631191 -1.1755459949  1.2683258324
H   0.6107400371  0.9789455603  0.4249904461
H  -2.7667899533 -1.9292496817  0.1513021743
H  -1.9285261155 -2.1139973448 -1.3438321402
H  -0.3571631330  2.7829129854  0.7935054182
H  -1.0249628335  1.3088680395  1.7400384102
H   2.6589960577  0.1820550316  1.6709302906
H   1.6205400830  1.0760005156 -1.8592565365
H   2.5551697964 -1.4146174260  0.9200106572
H   1.2820626011 -0.8559123849  2.0208998801
H   2.9065495702  1.2771282650 -0.6640138588
H   2.7204700895 -0.2688981800 -1.5072221438
22
Iteration 6  Energy = -72.4291992263
C  -0.8718135536 -1.2709618101  0.1791554296
C   1.2386581377  0.0852944661  0.0388821074
C  -0.8274873189  1.8285950565  0.7830774045
C   1.9739154995 -0.5346736047  1.2398858681
C   2.1768770949  0.5651510868 -1.0714428573
N   0.2144641505 -0.8791399329 -0.5307944588
N  -1.9988377161 -1.6482805255 -0.4517455081
O  -1.6204433254  1.5801868321 -0.2779609082
H  -2.1740866777  0.7811728904 -0.1726971887
H  -0.0002514881 -0.7501059367 -1.5159711365
H  -0.8922609501 -1.2450389045  1.2720863953
H   0.6098832271  0.9829892075  0.4191841975
H  -2.7783326796 -1.9383168528  0.1263857691
H  -1.9384382199 -2.0620016988 -1.3820162831
H  -0.3427988448  2.7974593639  0.7770699572
H  -1.0074727589  1.3318087215  1.7363643196
H   2.6651282593  0.1951509925  1.6665413346
H   1.6162629578  1.0630127628 -1.8659870077
H   2.5530907969 -1.4103538851  0.9346311204
H   1.2841685945 -0.8319658742  2.0306933911
H   2.9038817547  1.2753521443 -0.6748048245
H   2.7206166373 -0.2768803577 -1.5076757973
22
Iteration 7  Energy = -72.4305367545
C  -0.8766904380 -1.2909481303  0.1782879131
C   1.2386188510  0.0853192383  0.0409299789
C  -0.8189142630  1.8433920658  0.7801933855
C   1.9786909838 -0.5250093047  1.2436329425
C   2.1742870513  0.5576774927 -1.0759262905
N   0.2115709181 -0.8825908575 -0.5213733329
N  -1.9930470559 -1.6644022088 -0.4611569305
O  -1.6260371034  1.5939455567 -0.2718876371
H  -2.1928041500  0.8080177749 -0.1430471660
H   0.0011191344 -0.7584245981 -1.5088058827
H  -0.9128358166 -1.2813858115  1.2696077613
H   0.6102010300  0.9851205583  0.4160481710
H  -2.7864625667 -1.9559449036  0.0954885947
H  -1.9514590027 -1.9794973237 -1.4320072807
H  -0.3269858442  2.8088375224  0.7646792019
H  -0.9913295197  1.3501747806  1.7359885900
H   2.6763383353  0.2062034825  1.6573311520
H   1.6107365698  1.0499982600 -1.8718578446
H   2.5507144745 -1.4077813313  0.9457795704
H   1.2921335088 -0.8077424244  2.0422230268
H   2.9022752005  1.2709433882 -0.6867242921
H   2.7166539526 -0.2872049800 -1.5083552498
22
Iteration 8  Energy = -72.4314791040
C  -0.8818699517 -1.3027870574  0.1777371769
C   1.2405645362  0.0849327613  0.0458852821
C  -0.8274315383  1.8525429523  0.7887026830
C   1.9933533153 -0.5239740768  1.2418673615
C   2.1691569748  0.5532102825 -1.0803151342
N   0.2107680218 -0.8850609752 -0.5116883954
N  -1.9886967479 -1.6782288346 -0.4699340660
O  -1.6250301700  1.6088712467 -0.2752229903
H  -2.2497939929  0.8709891233 -0.1133613977
H   0.0110107509 -0.7746748498 -1.5045519346
H  -0.9245889460 -1.3084180830  1.2681832221
H   0.6187512118  0.9798940852  0.4228094874
H  -2.7914415241 -1.9743444001  0.0695003815
H  -1.9654706564 -1.8929977818 -1.4671489215
H  -0.3127538302  2.8062064725  0.7765265474
H  -1.0048775380  1.3499534222  1.7374799020
H   2.7013073270  0.2048061251  1.6422686783
H   1.6003103735  1.0440272966 -1.8733745350
H   2.5550158656 -1.4127191658  0.9423335296
H   1.3139967768 -0.7961629115  2.0501916462
H   2.9021415815  1.2661987260 -0.7000678376
H   2.7058590981 -0.2943538951 -1.5146470179
22
Iteration 9  Energy = -72.4320889787
C  -0.8844310315 -1.3188332974  0.1787546319
C   1.2416832475  0.0835634493  0.0515143028
C  -0.8394388914  1.8578584996  0.7996815031
C   2.0062980268 -0.5230495084  1.2410016612
C   2.1636160099  0.5461312196 -1.0838802276
N   0.2094647846 -0.8889970771 -0.5027370551
N  -1.9868083625 -1.6857989862 -0.4786384783
O  -1.6196500591  1.6317317120 -0.2824015067
H  -2.2700033206  0.9159679807 -0.1334943750
H   0.0066855888 -0.7719163940 -1.4949551036
H  -0.9221673166 -1.3568167794  1.2693384275
H   0.6253071762  0.9750098885  0.4295871659
H  -2.7949849744 -1.9899411119  0.0477126002
H  -1.9808323600 -1.8161955562 -1.4885781944
H  -0.3025574536  2.7983559215  0.8024825493
H  -1.0268626085  1.3381304745  1.7367955686
H   2.7266136537  0.2023426659  1.6254038258
H   1.5907572337  1.0375444055 -1.8736888786
H   2.5555840670 -1.4195414373  0.9416630497
H   1.3345865054 -0.7812198651  2.0604521466
H   2.9036509727  1.2566190341 -0.7126642699
H   2.6922080975 -0.3053687577 -1.5206135052
22
Iteration 10  Energy = -72.4325620607
C  -0.8799825306 -1.3385340533  0.1828967748
C   1.2398431520  0.0832040369  0.0539350864
C  -0.8453486472  1.8456029561  0.8058740977
C   2.0125657104 -0.5173265585  1.2404548465
C   2.1546669694  0.5504069370 -1.0856735098
N   0.2102593263 -0.8944101623 -0.4971146093
N  -1.9889136552 -1.6816948799 -0.4780884461
O  -1.6103805115  1.6501216821 -0.2951835435
H  -2.2962453752  0.9627173437 -0.1675683166
H   0.0008517126 -0.7655725910 -1.4868681008
H  -0.8952544445 -1.4422858978  1.2734764628
H   0.6193139697  0.9726529684  0.4335015376
H  -2.7969962823 -1.9927021788  0.0446297747
H  -1.9948541836 -1.7715184352 -1.4898002893
H  -0.3049481299  2.7829909236  0.8418707082
H  -1.0471352782  1.2994900540  1.7252177382
H   2.7330794407  0.2112222511  1.6180407309
H   1.5766373749  1.0385898979 -1.8737081091
H   2.5622803918 -1.4135806276  0.9416226707
H   1.3452671690 -0.7731703475  2.0639464722
H   2.8924480333  1.2649489310 -0.7179037667
H   2.6859095569 -0.2986006875 -1.5240151598
22
Iteration 11  Energy = -72.4332909660
C  -0.8779375063 -1.3569310327  0.1816502594
C   1.2377797520  0.0832467031  0.0564318019
C  -0.8385355170  1.8648242899  0.8018465658
C   2.0105415720 -0.5174534683  1.2419893299
C   2.1518375460  0.5493039745 -1.0847613142
N   0.2069774693 -0.8934896944 -0.4956780507
N  -1.9850144328 -1.6963839787 -0.4826674454
O  -1.6106381559  1.6597052525 -0.2929624207
H  -2.3682634748  1.0526786184 -0.1232870971
H  -0.0119662587 -0.7462394489 -1.4812862954
H  -0.8919945797 -1.4798080734  1.2682667420
H   0.6218775251  0.9745768257  0.4321899642
H  -2.7762138819 -2.0604552571  0.0356634815
H  -1.9933844348 -1.7586336041 -1.4958505156
H  -0.2762622165  2.7888817904  0.8212847678
H  -1.0292270009  1.3218498243  1.7243327094
H   2.7343241569  0.2093677705  1.6166461991
H   1.5724387603  1.0408720009 -1.8696932010
H   2.5565526127 -1.4163799834  0.9444086361
H   1.3431426147 -0.7684692462  2.0667592933
H   2.8928418810  1.2609981289 -0.7179933291
H   2.6788673239 -0.3005175483 -1.5266449745
22
Iteration 12  Energy = -72.4338163213
C  -0.8693528859 -1.3901114360  0.1793771970
C   1.2319696745  0.0839305897  0.0566640989
C  -0.8305685078  1.8647411188  0.8041333773
C   2.0054543317 -0.5046822593  1.2470996293
C   2.1451000894  0.5480594706 -1.0861158608
N   0.2060746001 -0.8995314388 -0.4955280531
N  -1.9893145748 -1.6937488602 -0.4824999391
O  -1.6034535956  1.6776265665 -0.2965468246
H  -2.3524688899  1.0693537550 -0.1335600074
H  -0.0256883657 -0.7278091359 -1.4747786881
H  -0.8672465035 -1.5562031239  1.2610751469
H   0.6095668821  0.9787538642  0.4263666029
H  -2.7681960909 -2.0880788157  0.0303317608
H  -2.0147052733 -1.7096723724 -1.4980848086
H  -0.2761949472  2.7933536902  0.8463140848
H  -1.0240996602  1.3026110786  1.7147572253
H   2.7296886011  0.2263347947  1.6126634188
H   1.5647733290  1.0353061245 -1.8730862930
H   2.5510077053 -1.4068873227  0.9588950792
H   1.3389983776 -0.7454858125  2.0757051958
H   2.8843152651  1.2630855080 -0.7221849390
H   2.6741556619 -0.3021855375 -1.5248197665
22
Iteration 13  Energy = -72.4341245965
C  -0.8600974320 -1.4163622989  0.1779963046
C   1.2298802201  0.0845702122  0.0580654780
C  -0.8408728549  1.8678578051  0.8124996847
C   2.0057523432 -0.5061244092  1.2459439486
C   2.1413590491  0.5465667818 -1.0871271492
N   0.2028100326 -0.8979603213 -0.4959337584
N  -1.9896524020 -1.6997502105 -0.4769448015
O  -1.5944365959  1.7048687138 -0.3048787745
H  -2.3405083609  1.0844605896 -0.1724461552
H  -0.0417330519 -0.7061697418 -1.4683801214
H  -0.8409373207 -1.6198808010  1.2532786284
H   0.6103492317  0.9775765901  0.4290108809
H  -2.7569702758 -2.1199977620  0.0324289804
H  -2.0299831955 -1.6812330057 -1.4915444024
H  -0.2831374353  2.7927893977  0.8828552589
H  -1.0417393258  1.2787660880  1.7043803965
H   2.7381258945  0.2202663494  1.6045019244
H   1.5608403952  1.0360308148 -1.8725456526
H   2.5425110416 -1.4138501664  0.9586109589
H   1.3419522698 -0.7372084779  2.0794937676
H   2.8847194472  1.2585986274 -0.7255995961
H   2.6657793038 -0.3055341291 -1.5278890410
22
Iteration 14  Energy = -72.4344273285
C  -0.8574661878 -1.4358629427  0.1754460528
C   1.2198927081  0.0846037906  0.0595466952
C  -0.8170787454  1.8677910310  0.8085114546
C   1.9972340285 -0.5008509999  1.2483577883
C   2.1289207405  0.5540475700 -1.0839460219
N   0.1988671487 -0.9011287638 -0.4966955032
N  -1.9874258100 -1.7198627426 -0.4766282806
O  -1.5866703541  1.7295548424 -0.3064139666
H  -2.3068379879  1.0795677775 -0.1793586455
H  -0.0519514128 -0.6982885871 -1.4649791170
H  -0.8316162957 -1.6543298428  1.2467228278
H   0.5881749500  0.9820454857  0.4327864981
H  -2.7508368503 -2.1476637023  0.0311949168
H  -2.0386917624 -1.6745422996 -1.4894074545
H  -0.2844525140  2.8073907715  0.9028435298
H  -1.0312831592  1.2754971043  1.6952187449
H   2.7269510249  0.2292175798  1.6044847983
H   1.5466128556  1.0428407413 -1.8684029083
H   2.5369380563 -1.4072625150  0.9628154033
H   1.3344796696 -0.7316371952  2.0827184446
H   2.8685056951  1.2686644214 -0.7198739760
H   2.6577072204 -0.2944150717 -1.5264647116
22
Iteration 15  Energy = -72.4347016887
C  -0.8559211422 -1.4474556516  0.1695160275
C   1.2149706288  0.0852171528  0.0563699416
C  -0.7934008857  1.8840078477  0.8021686290
C   1.9825925617 -0.4916372424  1.2548884929
C   2.1299312794  0.5468764263 -1.0844280134
N   0.1951908507 -0.8996694713 -0.5005140253
N  -1.9829639044 -1.7388934084 -0.4833473772
O  -1.5947106135  1.7390569469 -0.2902736672
H  -2.2863519042  1.0617766927 -0.1508260019
H  -0.0572039430 -0.6924492934 -1.4673117860
H  -0.8259522495 -1.6745095756  1.2390276330
H   0.5822894885  0.9908855495  0.4220911177
H  -2.7432532064 -2.1749637230  0.0220466989
H  -2.0406797237 -1.6737677264 -1.4944038741
H  -0.2663125861  2.8283361698  0.8780027158
H  -0.9887559000  1.3021348347  1.7005041284
H   2.7123029868  0.2398441146  1.6079763803
H   1.5509583633  1.0327132258 -1.8732623371
H   2.5213192657 -1.4024626857  0.9815530725
H   1.3146119094 -0.7120424806  2.0879870755
H   2.8683747319  1.2625905965 -0.7202580998
H   2.6595733868 -0.3044030754 -1.5205637859
22
Iteration 16  Energy = -72.4349104241
C  -0.8556071463 -1.4560942505  0.1640545626
C   1.2091809522  0.0857112146  0.0540294318
C  -0.7655812587  1.8974497500  0.7923984969
C   1.9683980444 -0.4830709904  1.2611498029
C   2.1296641449  0.5416889823 -1.0836783940
N   0.1913588146 -0.8979165127 -0.5039245751
N  -1.9784101639 -1.7568296073 -0.4906018362
O  -1.6033044223  1.7453046853 -0.2734186297
H  -2.2656489005  1.0435775937 -0.1179218721
H  -0.0618345921 -0.6871537011 -1.4696962593
H  -0.8231496239 -1.6879128692  1.2326096796
H   0.5725052438  1.0003798660  0.4136664440
H  -2.7372531430 -2.1973532339  0.0128793922
H  -2.0407026303 -1.6765191709 -1.5001046006
H  -0.2479960569  2.8489315407  0.8493453841
H  -0.9440927507  1.3321691944  1.7046341640
H   2.6968133338  0.2506045806  1.6122355298
H   1.5535664309  1.0249098887 -1.8762368132
H   2.5077010900 -1.3963538860  0.9976954993
H   1.2963471222 -0.6964632867  2.0927123659
H   2.8663121887  1.2587381347 -0.7185814033
H   2.6608005432 -0.3115372791 -1.5141575481
22
Iteration 17  Energy = -72.4350233750
C  -0.8583173036 -1.4657425059  0.1646779445
C   1.2010488893  0.0836340908  0.0575231179
C  -0.7510696902  1.9054229102  0.7914004944
C   1.9644951980 -0.4867211489  1.2604639949
C   2.1129336934  0.5542987880 -1.0804110306
N   0.1842776707 -0.8977226268 -0.5015478058
N  -1.9737971993 -1.7837389512 -0.4930521399
O  -1.5876492942  1.7657347996 -0.2772193260
H  -2.2266074649  1.0392728638 -0.1422612273
H  -0.0664825960 -0.6918834160 -1.4688580231
H  -0.8265139714 -1.6939881361  1.2340092106
H   0.5666408070  0.9982935728  0.4249589268
H  -2.7302105836 -2.2303354807  0.0085210079
H  -2.0381127828 -1.6934881724 -1.5013276474
H  -0.2354228637  2.8573420714  0.8598823559
H  -0.9383339411  1.3368273545  1.6993309167
H   2.6893291356  0.2494432488  1.6138766794
H   1.5304171909  1.0388325012 -1.8674495993
H   2.5080261832 -1.3961920301  0.9927558368
H   1.2939882114 -0.7063897370  2.0916480632
H   2.8454436800  1.2746260783 -0.7131313219
H   2.6491805565 -0.2914256611 -1.5194430987
22
Iteration 18  Energy = -72.4350307063
C  -0.8601097384 -1.4695474533  0.1643944777
C   1.1977116796  0.0831781602  0.0600065660
C  -0.7462303901  1.9098515083  0.7928623485
C   1.9623738099 -0.4919318806  1.2596467710
C   2.1068204219  0.5589359515 -1.0778568394
N   0.1789900861 -0.8940673107 -0.5004998124
N  -1.9711181097 -1.7966821328 -0.4956210219
O  -1.5786740248  1.7753542245 -0.2796140889
H  -2.2039855409  1.0352545745 -0.1598517416
H  -0.0721668246 -0.6875074282 -1.4673616386
H  -0.8287059345 -1.6975761744  1.2338850089
H   0.5655200052  0.9983714002  0.4322650103
H  -2.7272681406 -2.2446952982  0.0048490864
H  -2.0360399191 -1.7014526099 -1.5032832866
H  -0.2308279041  2.8616336645  0.8670081307
H  -0.9407812721  1.3406237079  1.6990035774
H   2.6877498691  0.2428093037  1.6148903552
H   1.5229386017  1.0474232603 -1.8613943684
H   2.5053237131 -1.4005953506  0.9880888670
H   1.2925641605 -0.7140123538  2.0907489494
H   2.8411117622  1.2767720647 -0.7090562742
H   2.6413112857 -0.2849219020 -1.5224288591
22
Iteration 19  Energy = -72.4350362496
C  -0.8618365889 -1.4656733500  0.1641943168
C   1.1985613757  0.0821913039  0.0598569958
C  -0.7453331333  1.9109923789  0.7914098834
C   1.9635699177 -0.4914127026  1.2600866454
C   2.1077813605  0.5585606760 -1.0777445189
N   0.1813908286 -0.8970175105 -0.5003607592
N  -1.9715010507 -1.7933123362 -0.4977972168
O  -1.5822783562  1.7705880137 -0.2770484977
H  -2.2172879472  1.0410487620 -0.1445377726
H  -0.0658268958 -0.6952769568 -1.4694376165
H  -0.8349001606 -1.6869470219  1.2352004842
H   0.5656771712  0.9967751615  0.4311096445
H  -2.7302467933 -2.2371329388  0.0025472364
H  -2.0323242992 -1.7046786337 -1.5063709414
H  -0.2261349870  2.8612753499  0.8563311488
H  -0.9363897759  1.3477094503  1.7018666700
H   2.6869933737  0.2448705677  1.6161529390
H   1.5236606572  1.0459370237 -1.8617872433
H   2.5087816654 -1.3987830938  0.9887117485
H   1.2935028868 -0.7154121444  2.0904460801
H   2.8407644138  1.2776095665 -0.7087935648
H   2.6436980384 -0.2847537749 -1.5215919961
22
Iteration 20  Energy = -72.4350370244
C  -0.8610598095 -1.4676134774  0.1642117816
C   1.1982174747  0.0827748884  0.0599133471
C  -0.7454705165  1.9108582459  0.7918648482
C   1.9627506871 -0.4916428292  1.2599742289
C   2.1076814531  0.5583156626 -1.0777870674
N   0.1800084617 -0.8952396511 -0.5004536779
N  -1.9711701215 -1.7952590616 -0.4969971902
O  -1.5809389637  1.7728761693 -0.2778067746
H  -2.2093746069  1.0366837639 -0.1520136380
H  -0.0697897274 -0.6900912045 -1.4680444552
H  -0.8319865802 -1.6924314346  1.2344440717
H   0.5658179887  0.9978848207  0.4313549209
H  -2.7287627563 -2.2410541761  0.0032977376
H  -2.0339609769 -1.7031800361 -1.5051013394
H  -0.2284366858  2.8620817714  0.8606428353
H  -0.9375123638  1.3449704450  1.7005357165
H   2.6873339244  0.2436998089  1.6156017916
H   1.5239586398  1.0463622409 -1.8617060567
H   2.5066034398 -1.3998346179  0.9886578940
H   1.2926966026 -0.7143995577  2.0906847687
H   2.8415467870  1.2765341411 -0.7089368706
H   2.6426119538 -0.2855306963 -1.5218137621
22
Iteration 21  Energy = -72.4350372032
C  -0.8608797742 -1.4680759066  0.1642229453
C   1.1981408747  0.0829107591  0.0599266448
C  -0.7454607249  1.9108529700  0.7919201308
C   1.9625495953 -0.4916997618  1.2599460066
C   2.1076653789  0.5582609426 -1.0777904071
N   0.1796730373 -0.8948094292 -0.5004835337
N  -1.9710892753 -1.7957256144 -0.4968091351
O  -1.5806694185  1.7733912700 -0.2779332403
H  -2.2070253739  1.0352006460 -0.1540233059
H  -0.0709471637 -0.6885658161 -1.4675898846
H  -0.8312975111 -1.6937638396  1.2342647895
H   0.5658487992  0.9981632555  0.4314014115
H  -2.7284398549 -2.2419415001  0.0034678707
H  -2.0343639846 -1.7027671820 -1.5047897211
H  -0.2289820782  2.8623261087  0.8615135637
H  -0.9376810612  1.3444385483  1.7002398470
H   2.6873908713  0.2434271828  1.6154870896
H   1.5240452829  1.0464585329 -1.8616909398
H   2.5060977392 -1.4000721828  0.9886372364
H   1.2924935441 -0.7141834219  2.0907294584
H   2.8417258037  1.2762931435 -0.7089563311
H   2.6423786420 -0.2857042675 -1.5218523199
