22
Iteration 21  Energy = -72.4350372032
C  -0.8608797742 -1.4680759066  0.1642229453
C   1.1981408747  0.0829107591  0.0599266448
C  -0.7454607249  1.9108529700  0.7919201308
C   1.9625495953 -0.4916997618  1.2599460066
C   2.1076653789  0.5582609426 -1.0777904071
N   0.1796730373 -0.8948094292 -0.5004835337
N  -1.9710892753 -1.7957256144 -0.4968091351
O  -1.5806694185  1.7733912700 -0.2779332403
H  -2.2070253739  1.0352006460 -0.1540233059
H  -0.0709471637 -0.6885658161 -1.4675898846
H  -0.8312975111 -1.6937638396  1.2342647895
H   0.5658487992  0.9981632555  0.4314014115
H  -2.7284398549 -2.2419415001  0.0034678707
H  -2.0343639846 -1.7027671820 -1.5047897211
H  -0.2289820782  2.8623261087  0.8615135637
H  -0.9376810612  1.3444385483  1.7002398470
H   2.6873908713  0.2434271828  1.6154870896
H   1.5240452829  1.0464585329 -1.8616909398
H   2.5060977392 -1.4000721828  0.9886372364
H   1.2924935441 -0.7141834219  2.0907294584
H   2.8417258037  1.2762931435 -0.7089563311
H   2.6423786420 -0.2857042675 -1.5218523199
