22
Image 0  Energy = -383.6555339356
C  -0.8650511128 -0.4669128969  0.4321656333
C   1.4517218787  0.3061470313 -0.0432511036
C  -1.4875813715  0.8725154353  0.8252324603
C   2.0510475606 -0.3896045042  1.1704761573
C   2.4300616776  0.2964815660 -1.2088680319
N   0.2424507648 -0.3813300038 -0.4980278985
N  -1.9124571414 -1.2216712994 -0.2568624942
O  -1.9423035727  1.5739801633 -0.3142733283
H  -2.4234417893  0.9204034262 -0.8405306947
H  -0.0973971505  0.0814623180 -1.3358621241
H  -0.5055683490 -0.9677292100  1.3376322524
H   1.2414612821  1.3521824456  0.2274688162
H  -2.6289574236 -1.5226065675  0.3917964704
H  -1.5057710947 -2.0464414709 -0.6798725756
H  -0.7629697880  1.5082423411  1.3337695174
H  -2.3152394488  0.6818170929  1.5214626785
H   3.0071486877  0.0637381401  1.4322127345
H   1.9977652784  0.7929049151 -2.0798084945
H   2.2162869644 -1.4456875585  0.9499993272
H   1.4110289963 -0.3171675912  2.0499174589
H   3.3591263116  0.8079757036 -0.9539035159
H   2.6585472186 -0.7350596605 -1.4824118845
