22
Frame 1: 1
C   -0.778126   -1.067561   0.321059
C   1.302553   0.052120   -0.028299
C   -0.971993   1.456249   0.823657
C   1.981229   -0.418433   1.250175
C   2.264033   0.435168   -1.133107
N   0.291164   -0.876821   -0.500399
N   -2.019163   -1.372006   -0.233112
O   -1.664734   1.630223   -0.401837
H   -2.258632   0.870139   -0.475899
H   0.027849   -0.678312   -1.458495
H   -0.609759   -1.367856   1.341178
H   0.681264   0.918300   0.286941
H   -2.573263   -2.057361   0.257412
H   -2.052428   -1.504542   -1.233823
H   -0.368993   2.351392   0.991747
H   -1.639609   1.294215   1.674653
H   2.764449   0.291462   1.522846
H   1.725114   0.730695   -2.037794
H   2.435593   -1.406098   1.134215
H   1.273005   -0.447224   2.080579
H   2.850345   1.298697   -0.814322
H   2.960009   -0.368806   -1.388910
22
Frame 2: 2
C   -0.7781   -1.0683   0.3210
C   1.3024   0.0522   -0.0283
C   -0.9715   1.4567   0.8236
C   1.9812   -0.4184   1.2503
C   2.2640   0.4352   -1.1331
N   0.2911   -0.8767   -0.5004
N   -2.0193   -1.3721   -0.2332
O   -1.6647   1.6302   -0.4019
H   -2.2587   0.8701   -0.4759
H   0.0279   -0.6783   -1.4585
H   -0.6098   -1.3678   1.3412
H   0.6812   0.9183   0.2870
H   -2.5733   -2.0574   0.2574
H   -2.0525   -1.5045   -1.2338
H   -0.3690   2.3515   0.9918
H   -1.6396   1.2941   1.6747
H   2.7645   0.2915   1.5229
H   1.7251   0.7307   -2.0378
H   2.4356   -1.4061   1.1342
H   1.2730   -0.4472   2.0806
H   2.8503   1.2987   -0.8143
H   2.9600   -0.3688   -1.3889
22
Frame 3: 3
C   -0.7865   -0.9512   0.3412
C   1.3211   0.0462   -0.0327
C   -1.0343   1.3901   0.8305
C   1.9862   -0.4237   1.2402
C   2.2740   0.4266   -1.1379
N   0.3055   -0.8952   -0.5044
N   -1.9985   -1.3616   -0.2255
O   -1.6696   1.6275   -0.3974
H   -2.2590   0.8755   -0.4828
H   0.0245   -0.6735   -1.4539
H   -0.6090   -1.3710   1.3350
H   0.6996   0.9165   0.2734
H   -2.5654   -2.0467   0.2594
H   -2.0431   -1.5023   -1.2268
H   -0.3732   2.3150   0.9883
H   -1.6610   1.3082   1.6811
H   2.7631   0.2882   1.5217
H   1.7264   0.7286   -2.0344
H   2.4354   -1.4067   1.1337
H   1.2734   -0.4495   2.0750
H   2.8508   1.2940   -0.8151
H   2.9597   -0.3713   -1.3899
22
Frame 4: 4
C   -0.7964   -0.8324   0.3692
C   1.3334   0.0428   -0.0397
C   -1.0830   1.3253   0.8263
C   1.9912   -0.4277   1.2342
C   2.2831   0.4218   -1.1417
N   0.3198   -0.9094   -0.5042
N   -1.9825   -1.3455   -0.2174
O   -1.6771   1.6269   -0.3900
H   -2.2666   0.8763   -0.4957
H   0.0222   -0.6678   -1.4485
H   -0.6088   -1.3683   1.3249
H   0.7264   0.9130   0.2562
H   -2.5528   -2.0321   0.2628
H   -2.0301   -1.4986   -1.2186
H   -0.3815   2.2592   0.9849
H   -1.6955   1.3202   1.6963
H   2.7630   0.2847   1.5206
H   1.7280   0.7259   -2.0313
H   2.4366   -1.4101   1.1325
H   1.2749   -0.4524   2.0670
H   2.8532   1.2893   -0.8163
H   2.9627   -0.3775   -1.3928
22
Frame 5: 5
C   -0.8131   -0.6324   0.4259
C   1.3575   0.0342   -0.0546
C   -1.1631   1.1908   0.8265
C   2.0012   -0.4339   1.2248
C   2.3004   0.4138   -1.1494
N   0.3279   -0.9174   -0.4894
N   -1.9620   -1.2936   -0.2013
O   -1.7103   1.6184   -0.3805
H   -2.2891   0.8806   -0.5332
H   0.0220   -0.6566   -1.4327
H   -0.6120   -1.3375   1.2997
H   0.7883   0.9144   0.2194
H   -2.5217   -1.9982   0.2748
H   -1.9967   -1.4870   -1.1982
H   -0.3981   2.1199   0.9801
H   -1.7635   1.3366   1.7151
H   2.7667   0.2793   1.5197
H   1.7318   0.7202   -2.0282
H   2.4407   -1.4194   1.1290
H   1.2783   -0.4593   2.0505
H   2.8634   1.2827   -0.8192
H   2.9713   -0.3919   -1.4004
22
Frame 6: 6
C   -0.8404   -0.5009   0.4712
C   1.3847   0.0254   -0.0644
C   -1.2235   1.0614   0.8153
C   2.0162   -0.4413   1.2169
C   2.3221   0.4039   -1.1611
N   0.3198   -0.8886   -0.4608
N   -1.9636   -1.2224   -0.1758
O   -1.7331   1.6149   -0.3562
H   -2.3394   0.8672   -0.5897
H   0.0233   -0.6459   -1.4107
H   -0.6197   -1.2655   1.2788
H   0.8525   0.9310   0.1842
H   -2.4812   -1.9531   0.2899
H   -1.9533   -1.4679   -1.1745
H   -0.4169   1.9507   0.9802
H   -1.8274   1.3337   1.7189
H   2.7738   0.2738   1.5198
H   1.7374   0.7139   -2.0278
H   2.4460   -1.4288   1.1251
H   1.2817   -0.4668   2.0339
H   2.8779   1.2754   -0.8236
H   2.9830   -0.4065   -1.4113
22
Frame 7: 7
C   -0.8737   -0.4949   0.4901
C   1.4025   0.0301   -0.0665
C   -1.2394   0.9954   0.8156
C   2.0323   -0.4463   1.2179
C   2.3423   0.3953   -1.1741
N   0.2899   -0.8175   -0.4174
N   -2.0012   -1.1314   -0.1654
O   -1.7835   1.5746   -0.3450
H   -2.3892   0.8735   -0.6551
H   0.0258   -0.6345   -1.3846
H   -0.6328   -1.1477   1.2749
H   0.9192   0.9645   0.1556
H   -2.4364   -1.9046   0.3154
H   -1.8994   -1.4373   -1.1367
H   -0.4376   1.7507   0.9895
H   -1.8760   1.2917   1.6970
H   2.7873   0.2689   1.5221
H   1.7459   0.7067   -2.0320
H   2.4554   -1.4418   1.1206
H   1.2869   -0.4748   2.0163
H   2.8985   1.2672   -0.8310
H   3.0031   -0.4243   -1.4289
22
Frame 8: 8
C   -0.8890   -0.5411   0.4171
C   1.3953   0.0620   -0.0455
C   -1.2277   1.0223   0.8056
C   2.0442   -0.4469   1.2219
C   2.3518   0.3805   -1.1825
N   0.2463   -0.7537   -0.3972
N   -2.0903   -1.0812   -0.1724
O   -1.8179   1.5509   -0.3492
H   -2.4423   0.8656   -0.7035
H   0.0245   -0.6222   -1.3615
H   -0.6372   -1.0861   1.3622
H   0.9701   1.0197   0.1537
H   -2.4016   -1.8659   0.3383
H   -1.8508   -1.4054   -1.1003
H   -0.4265   1.6008   1.0062
H   -1.8995   1.2057   1.6659
H   2.8088   0.2663   1.5299
H   1.7578   0.7008   -2.0440
H   2.4666   -1.4512   1.1161
H   1.2912   -0.4810   2.0090
H   2.9228   1.2582   -0.8426
H   3.0233   -0.4346   -1.4486
22
Frame 9: 9
C   -0.9054   -0.4767   0.4592
C   1.4047   0.0679   -0.0463
C   -1.2861   0.9467   0.7959
C   2.0518   -0.4483   1.2204
C   2.3597   0.3732   -1.1861
N   0.2450   -0.7397   -0.3949
N   -2.1029   -1.0355   -0.1810
O   -1.8571   1.5327   -0.3634
H   -2.4549   0.8802   -0.7246
H   0.0222   -0.6112   -1.3565
H   -0.6485   -1.0422   1.3698
H   1.0103   1.0482   0.1444
H   -2.3853   -1.8519   0.3571
H   -1.8257   -1.3927   -1.0805
H   -0.3986   1.5182   1.0168
H   -1.9286   1.1742   1.6576
H   2.8184   0.2616   1.5329
H   1.7655   0.6956   -2.0474
H   2.4718   -1.4556   1.1121
H   1.2953   -0.4861   2.0021
H   2.9353   1.2484   -0.8504
H   3.0328   -0.4434   -1.4585
22
Frame 10: 10
C   -0.8990   -0.5420   0.4733
C   1.3926   0.0689   -0.0463
C   -1.2671   0.9985   0.7820
C   2.0449   -0.4435   1.2242
C   2.3478   0.3796   -1.1781
N   0.2613   -0.7585   -0.4116
N   -2.0918   -1.0791   -0.1866
O   -1.8331   1.5552   -0.3728
H   -2.4362   0.8765   -0.6941
H   0.0182   -0.6124   -1.3803
H   -0.6537   -1.0732   1.3677
H   0.9777   1.0479   0.1681
H   -2.4104   -1.8770   0.3466
H   -1.8521   -1.4085   -1.1009
H   -0.3744   1.6203   1.0186
H   -1.9007   1.1689   1.6605
H   2.8152   0.2618   1.5338
H   1.7653   0.6975   -2.0479
H   2.4680   -1.4465   1.1124
H   1.2948   -0.4828   2.0138
H   2.9284   1.2470   -0.8519
H   3.0241   -0.4350   -1.4519
22
Frame 11: 11
C   -0.9126   -0.5145   0.4716
C   1.3951   0.0802   -0.0459
C   -1.2591   0.9854   0.7762
C   2.0481   -0.4424   1.2233
C   2.3517   0.3745   -1.1805
N   0.2562   -0.7508   -0.4035
N   -2.1000   -1.0709   -0.1706
O   -1.8402   1.5581   -0.3772
H   -2.4524   0.8747   -0.7062
H   0.0130   -0.6014   -1.3836
H   -0.6651   -1.0548   1.3874
H   0.9980   1.0689   0.1721
H   -2.4083   -1.8688   0.3484
H   -1.8401   -1.4093   -1.1014
H   -0.3750   1.5773   1.0203
H   -1.9159   1.1359   1.6543
H   2.8222   0.2574   1.5375
H   1.7725   0.6936   -2.0512
H   2.4701   -1.4445   1.1084
H   1.2985   -0.4855   2.0150
H   2.9375   1.2384   -0.8599
H   3.0257   -0.4377   -1.4561
22
Frame 12: 12
C   -0.9203   -0.4940   0.4727
C   1.3949   0.0961   -0.0418
C   -1.2578   0.9766   0.7676
C   2.0508   -0.4385   1.2230
C   2.3545   0.3691   -1.1839
N   0.2459   -0.7385   -0.4034
N   -2.1066   -1.0650   -0.1728
O   -1.8489   1.5582   -0.3850
H   -2.4669   0.8778   -0.7148
H   0.0073   -0.5869   -1.3802
H   -0.6834   -1.0302   1.4115
H   1.0229   1.0961   0.1804
H   -2.4113   -1.8685   0.3550
H   -1.8321   -1.4069   -1.0891
H   -0.3697   1.5350   1.0236
H   -1.9288   1.0878   1.6412
H   2.8321   0.2515   1.5430
H   1.7824   0.6883   -2.0567
H   2.4726   -1.4407   1.1020
H   1.3045   -0.4887   2.0181
H   2.9509   1.2274   -0.8712
H   3.0267   -0.4422   -1.4607
22
Frame 13: 13
C   -0.9205   -0.4872   0.4671
C   1.3911   0.1122   -0.0392
C   -1.2644   0.9714   0.7568
C   2.0508   -0.4312   1.2234
C   2.3547   0.3662   -1.1856
N   0.2410   -0.7213   -0.3984
N   -2.1073   -1.0752   -0.1618
O   -1.8487   1.5601   -0.3937
H   -2.4735   0.8875   -0.7109
H   -0.0026   -0.5649   -1.3771
H   -0.7115   -1.0055   1.4314
H   1.0464   1.1236   0.1964
H   -2.4246   -1.8735   0.3544
H   -1.8314   -1.4144   -1.0851
H   -0.3615   1.5195   1.0266
H   -1.9347   1.0287   1.6210
H   2.8436   0.2439   1.5508
H   1.7941   0.6823   -2.0662
H   2.4730   -1.4313   1.0908
H   1.3143   -0.4915   2.0264
H   2.9695   1.2147   -0.8870
H   3.0223   -0.4503   -1.4618
22
Frame 14: 14
C   -0.9229   -0.4932   0.4707
C   1.3925   0.1336   -0.0327
C   -1.2547   0.9669   0.7411
C   2.0519   -0.4213   1.2239
C   2.3546   0.3636   -1.1882
N   0.2440   -0.6983   -0.4000
N   -2.0912   -1.0927   -0.1628
O   -1.8338   1.5701   -0.3977
H   -2.4802   0.8997   -0.6998
H   -0.0156   -0.5327   -1.3645
H   -0.7469   -0.9764   1.4387
H   1.0701   1.1476   0.2171
H   -2.4510   -1.8956   0.3563
H   -1.8442   -1.4312   -1.0791
H   -0.3715   1.5239   1.0268
H   -1.9452   0.9631   1.6012
H   2.8556   0.2348   1.5598
H   1.8071   0.6753   -2.0805
H   2.4698   -1.4158   1.0719
H   1.3280   -0.4933   2.0405
H   2.9956   1.2011   -0.9079
H   3.0080   -0.4655   -1.4563
22
Frame 15: 15
C   -0.9162   -0.4988   0.4672
C   1.3976   0.1356   -0.0314
C   -1.2621   0.9655   0.7469
C   2.0532   -0.4195   1.2254
C   2.3568   0.3660   -1.1897
N   0.2486   -0.6952   -0.3959
N   -2.0920   -1.1071   -0.1632
O   -1.8300   1.5664   -0.3963
H   -2.4756   0.9092   -0.6946
H   -0.0177   -0.5229   -1.3595
H   -0.7485   -0.9746   1.4328
H   1.0713   1.1465   0.2182
H   -2.4530   -1.8946   0.3529
H   -1.8498   -1.4379   -1.0800
H   -0.3821   1.5347   1.0272
H   -1.9466   0.9623   1.5966
H   2.8567   0.2348   1.5604
H   1.8080   0.6740   -2.0828
H   2.4678   -1.4143   1.0654
H   1.3315   -0.4924   2.0422
H   3.0014   1.1996   -0.9121
H   3.0008   -0.4737   -1.4513
22
Frame 16: 16
C   -0.9146   -0.5027   0.4636
C   1.4030   0.1380   -0.0301
C   -1.2695   0.9606   0.7492
C   2.0562   -0.4186   1.2265
C   2.3597   0.3668   -1.1911
N   0.2545   -0.6926   -0.3930
N   -2.0904   -1.1132   -0.1630
O   -1.8242   1.5656   -0.3933
H   -2.4754   0.9166   -0.6924
H   -0.0191   -0.5110   -1.3537
H   -0.7472   -0.9744   1.4289
H   1.0726   1.1470   0.2186
H   -2.4551   -1.8967   0.3528
H   -1.8542   -1.4472   -1.0849
H   -0.3937   1.5447   1.0297
H   -1.9527   0.9631   1.5952
H   2.8590   0.2356   1.5612
H   1.8089   0.6726   -2.0847
H   2.4660   -1.4137   1.0580
H   1.3351   -0.4914   2.0435
H   3.0087   1.1982   -0.9171
H   2.9924   -0.4836   -1.4456
22
Frame 17: 17
C   -0.9137   -0.5076   0.4601
C   1.4124   0.1481   -0.0263
C   -1.2796   0.9519   0.7523
C   2.0652   -0.4161   1.2275
C   2.3664   0.3651   -1.1932
N   0.2640   -0.6853   -0.3880
N   -2.0895   -1.1261   -0.1674
O   -1.8173   1.5648   -0.3920
H   -2.4810   0.9346   -0.6929
H   -0.0212   -0.4784   -1.3417
H   -0.7439   -0.9722   1.4277
H   1.0803   1.1566   0.2211
H   -2.4572   -1.8992   0.3551
H   -1.8615   -1.4682   -1.0924
H   -0.4210   1.5540   1.0393
H   -1.9758   0.9562   1.5933
H   2.8686   0.2370   1.5646
H   1.8135   0.6676   -2.0887
H   2.4632   -1.4130   1.0397
H   1.3445   -0.4895   2.0459
H   3.0299   1.1918   -0.9319
H   2.9737   -0.5086   -1.4338
22
Frame 18: 18
C   -0.9114   -0.5145   0.4596
C   1.4258   0.1727   -0.0147
C   -1.3237   0.9382   0.7679
C   2.0852   -0.4088   1.2264
C   2.3796   0.3573   -1.1948
N   0.2717   -0.6710   -0.3897
N   -2.0808   -1.1390   -0.1866
O   -1.8078   1.5676   -0.3938
H   -2.5036   0.9682   -0.7048
H   -0.0179   -0.4081   -1.3183
H   -0.7281   -0.9786   1.4300
H   1.0948   1.1823   0.2250
H   -2.4571   -1.9066   0.3670
H   -1.8704   -1.5106   -1.1019
H   -0.4670   1.5657   1.0715
H   -2.0236   0.9456   1.5812
H   2.8925   0.2378   1.5704
H   1.8252   0.6546   -2.0905
H   2.4608   -1.4135   1.0047
H   1.3661   -0.4861   2.0452
H   3.0741   1.1704   -0.9649
H   2.9354   -0.5600   -1.4105
22
Frame 19: 19
C   -0.9156   -0.5142   0.4621
C   1.4268   0.1820   -0.0128
C   -1.3214   0.9385   0.7626
C   2.0918   -0.4065   1.2242
C   2.3824   0.3507   -1.1929
N   0.2744   -0.6597   -0.3859
N   -2.0797   -1.1457   -0.1838
O   -1.8109   1.5680   -0.3970
H   -2.5130   0.9808   -0.7110
H   -0.0182   -0.3800   -1.3164
H   -0.7255   -0.9797   1.4335
H   1.1022   1.1974   0.2293
H   -2.4557   -1.9050   0.3683
H   -1.8689   -1.5259   -1.1054
H   -0.4842   1.5594   1.0852
H   -2.0496   0.9326   1.5805
H   2.9036   0.2357   1.5729
H   1.8313   0.6487   -2.0915
H   2.4610   -1.4102   0.9935
H   1.3750   -0.4858   2.0455
H   3.0917   1.1585   -0.9783
H   2.9227   -0.5760   -1.4039
22
Frame 20: 20
C   -0.9183   -0.5103   0.4666
C   1.4246   0.1902   -0.0108
C   -1.3243   0.9406   0.7610
C   2.0961   -0.4038   1.2208
C   2.3827   0.3434   -1.1898
N   0.2709   -0.6478   -0.3876
N   -2.0770   -1.1487   -0.1849
O   -1.8181   1.5693   -0.4019
H   -2.5227   0.9889   -0.7195
H   -0.0160   -0.3589   -1.3172
H   -0.7209   -0.9851   1.4364
H   1.1070   1.2105   0.2324
H   -2.4522   -1.9028   0.3706
H   -1.8630   -1.5344   -1.1012
H   -0.4931   1.5491   1.1006
H   -2.0695   0.9235   1.5760
H   2.9132   0.2318   1.5730
H   1.8367   0.6430   -2.0896
H   2.4630   -1.4066   0.9879
H   1.3824   -0.4863   2.0439
H   3.1039   1.1439   -0.9882
H   2.9144   -0.5858   -1.4001
22
Frame 21: 21
C   -0.9197   -0.5059   0.4707
C   1.4242   0.2059   -0.0065
C   -1.3416   0.9396   0.7626
C   2.1036   -0.3977   1.2161
C   2.3829   0.3327   -1.1855
N   0.2665   -0.6239   -0.3880
N   -2.0711   -1.1544   -0.1860
O   -1.8265   1.5723   -0.4069
H   -2.5399   1.0043   -0.7342
H   -0.0134   -0.3169   -1.3182
H   -0.7110   -0.9947   1.4358
H   1.1152   1.2314   0.2373
H   -2.4463   -1.9002   0.3757
H   -1.8503   -1.5518   -1.0936
H   -0.5125   1.5363   1.1300
H   -2.1046   0.9113   1.5639
H   2.9305   0.2243   1.5711
H   1.8457   0.6319   -2.0867
H   2.4670   -1.4004   0.9757
H   1.3969   -0.4871   2.0418
H   3.1272   1.1153   -1.0055
H   2.8973   -0.6086   -1.3912
22
Frame 22: 22
C   -0.9249   -0.5004   0.4708
C   1.4293   0.2321   0.0028
C   -1.3703   0.9341   0.7682
C   2.1139   -0.3911   1.2096
C   2.3879   0.3085   -1.1832
N   0.2604   -0.5683   -0.4052
N   -2.0561   -1.1600   -0.1836
O   -1.8430   1.5706   -0.4077
H   -2.5539   1.0333   -0.7505
H   -0.0129   -0.2508   -1.3090
H   -0.6958   -1.0041   1.4177
H   1.1288   1.2597   0.2454
H   -2.4403   -1.9025   0.3890
H   -1.8145   -1.5784   -1.0748
H   -0.5566   1.5166   1.1762
H   -2.1636   0.8949   1.5378
H   2.9567   0.2099   1.5595
H   1.8538   0.6139   -2.0888
H   2.4739   -1.3835   0.9572
H   1.4189   -0.4891   2.0450
H   3.1641   1.0609   -1.0246
H   2.8641   -0.6429   -1.3735
22
Frame 23: 23
C   -0.9218   -0.4977   0.4683
C   1.4316   0.2380   0.0028
C   -1.3840   0.9298   0.7715
C   2.1156   -0.3877   1.2099
C   2.3874   0.3080   -1.1834
N   0.2608   -0.5601   -0.3977
N   -2.0552   -1.1669   -0.1856
O   -1.8387   1.5754   -0.4047
H   -2.5621   1.0374   -0.7558
H   -0.0156   -0.2283   -1.3136
H   -0.6904   -1.0065   1.4135
H   1.1332   1.2670   0.2474
H   -2.4380   -1.9014   0.3912
H   -1.8068   -1.5867   -1.0702
H   -0.5689   1.5164   1.1879
H   -2.1783   0.8916   1.5311
H   2.9633   0.2076   1.5567
H   1.8567   0.6088   -2.0885
H   2.4755   -1.3822   0.9502
H   1.4254   -0.4892   2.0458
H   3.1749   1.0478   -1.0300
H   2.8553   -0.6573   -1.3683
22
Frame 24: 24
C   -0.9200   -0.4962   0.4650
C   1.4339   0.2397   0.0022
C   -1.3911   0.9264   0.7745
C   2.1148   -0.3869   1.2110
C   2.3871   0.3081   -1.1854
N   0.2604   -0.5548   -0.3977
N   -2.0543   -1.1696   -0.1856
O   -1.8361   1.5771   -0.4010
H   -2.5602   1.0387   -0.7546
H   -0.0190   -0.2198   -1.3146
H   -0.6878   -1.0050   1.4068
H   1.1357   1.2675   0.2481
H   -2.4375   -1.9022   0.3930
H   -1.7978   -1.5897   -1.0668
H   -0.5771   1.5186   1.1911
H   -2.1838   0.8915   1.5270
H   2.9645   0.2067   1.5524
H   1.8558   0.6068   -2.0900
H   2.4764   -1.3814   0.9479
H   1.4271   -0.4894   2.0487
H   3.1782   1.0407   -1.0278
H   2.8507   -0.6632   -1.3658
22
Frame 25: 25
C   -0.9198   -0.4926   0.4617
C   1.4354   0.2447   0.0020
C   -1.4021   0.9229   0.7780
C   2.1145   -0.3858   1.2108
C   2.3866   0.3036   -1.1876
N   0.2579   -0.5422   -0.4016
N   -2.0511   -1.1730   -0.1859
O   -1.8344   1.5807   -0.3962
H   -2.5579   1.0428   -0.7542
H   -0.0249   -0.1987   -1.3159
H   -0.6807   -1.0034   1.3970
H   1.1424   1.2727   0.2504
H   -2.4354   -1.9034   0.3973
H   -1.7778   -1.5987   -1.0604
H   -0.5940   1.5198   1.2015
H   -2.2013   0.8871   1.5200
H   2.9693   0.2050   1.5442
H   1.8557   0.6021   -2.0928
H   2.4781   -1.3790   0.9428
H   1.4319   -0.4896   2.0541
H   3.1882   1.0245   -1.0257
H   2.8395   -0.6757   -1.3608
22
Frame 26: 26
C   -0.9200   -0.4857   0.4578
C   1.4334   0.2487   -0.0005
C   -1.4175   0.9226   0.7863
C   2.1127   -0.3856   1.2100
C   2.3869   0.2965   -1.1897
N   0.2493   -0.5253   -0.4121
N   -2.0462   -1.1824   -0.1934
O   -1.8329   1.5887   -0.3908
H   -2.5477   1.0480   -0.7509
H   -0.0381   -0.1618   -1.3194
H   -0.6652   -0.9980   1.3862
H   1.1568   1.2819   0.2540
H   -2.4287   -1.9021   0.4020
H   -1.7392   -1.6166   -1.0470
H   -0.6223   1.5254   1.2186
H   -2.2319   0.8753   1.5111
H   2.9739   0.2051   1.5284
H   1.8564   0.5956   -2.0978
H   2.4788   -1.3784   0.9354
H   1.4404   -0.4885   2.0632
H   3.2023   0.9970   -1.0187
H   2.8188   -0.6966   -1.3543
22
Frame 27: 27
C   -0.9263   -0.4769   0.4538
C   1.4278   0.2569   -0.0026
C   -1.4445   0.9237   0.7944
C   2.1109   -0.3878   1.2034
C   2.3838   0.2769   -1.1917
N   0.2342   -0.4932   -0.4328
N   -2.0326   -1.1842   -0.1979
O   -1.8285   1.6055   -0.3791
H   -2.5373   1.0526   -0.7523
H   -0.0599   -0.0984   -1.3231
H   -0.6382   -0.9892   1.3746
H   1.1811   1.2969   0.2588
H   -2.4176   -1.9014   0.4089
H   -1.6718   -1.6561   -1.0322
H   -0.6643   1.5352   1.2534
H   -2.2829   0.8512   1.4967
H   2.9801   0.2058   1.5022
H   1.8629   0.5855   -2.1024
H   2.4773   -1.3773   0.9250
H   1.4561   -0.4858   2.0758
H   3.2269   0.9520   -1.0089
H   2.7827   -0.7285   -1.3455
22
Frame 28: 28
C   -0.9249   -0.4773   0.4572
C   1.4261   0.2535   -0.0035
C   -1.4374   0.9268   0.7942
C   2.1097   -0.3887   1.2025
C   2.3838   0.2785   -1.1894
N   0.2338   -0.4980   -0.4307
N   -2.0315   -1.1851   -0.2033
O   -1.8326   1.6031   -0.3819
H   -2.5343   1.0512   -0.7526
H   -0.0597   -0.1060   -1.3228
H   -0.6401   -0.9875   1.3802
H   1.1788   1.2931   0.2569
H   -2.4177   -1.8994   0.4052
H   -1.6788   -1.6532   -1.0303
H   -0.6574   1.5357   1.2503
H   -2.2744   0.8511   1.4999
H   2.9752   0.2076   1.5039
H   1.8648   0.5887   -2.1005
H   2.4749   -1.3803   0.9284
H   1.4546   -0.4848   2.0725
H   3.2204   0.9581   -1.0084
H   2.7865   -0.7232   -1.3494
22
Frame 29: 29
C   -0.9240   -0.4752   0.4597
C   1.4227   0.2505   -0.0052
C   -1.4349   0.9308   0.7959
C   2.1076   -0.3907   1.1990
C   2.3831   0.2757   -1.1866
N   0.2299   -0.4950   -0.4329
N   -2.0271   -1.1864   -0.2082
O   -1.8364   1.6048   -0.3815
H   -2.5293   1.0494   -0.7556
H   -0.0651   -0.0998   -1.3222
H   -0.6361   -0.9830   1.3856
H   1.1811   1.2918   0.2552
H   -2.4148   -1.8951   0.4005
H   -1.6700   -1.6615   -1.0251
H   -0.6587   1.5385   1.2561
H   -2.2750   0.8449   1.5005
H   2.9699   0.2099   1.4994
H   1.8699   0.5910   -2.0987
H   2.4707   -1.3843   0.9306
H   1.4566   -0.4825   2.0704
H   3.2175   0.9545   -1.0057
H   2.7824   -0.7247   -1.3529
22
Frame 30: 30
C   -0.9213   -0.4707   0.4615
C   1.4193   0.2491   -0.0077
C   -1.4386   0.9334   0.7997
C   2.1043   -0.3932   1.1939
C   2.3816   0.2697   -1.1845
N   0.2242   -0.4849   -0.4363
N   -2.0177   -1.1868   -0.2150
O   -1.8405   1.6097   -0.3774
H   -2.5230   1.0472   -0.7628
H   -0.0758   -0.0806   -1.3210
H   -0.6279   -0.9753   1.3897
H   1.1860   1.2920   0.2532
H   -2.4117   -1.8899   0.3964
H   -1.6480   -1.6792   -1.0149
H   -0.6670   1.5427   1.2705
H   -2.2811   0.8344   1.4979
H   2.9640   0.2123   1.4891
H   1.8781   0.5933   -2.0968
H   2.4644   -1.3898   0.9319
H   1.4607   -0.4789   2.0688
H   3.2179   0.9425   -1.0011
H   2.7721   -0.7332   -1.3567
22
Frame 31: 31
C   -0.9149   -0.4603   0.4613
C   1.4190   0.2523   -0.0126
C   -1.4449   0.9341   0.8071
C   2.0979   -0.3987   1.1839
C   2.3822   0.2527   -1.1866
N   0.2187   -0.4573   -0.4477
N   -1.9991   -1.1920   -0.2167
O   -1.8555   1.6147   -0.3643
H   -2.5042   1.0468   -0.7818
H   -0.0991   -0.0343   -1.3095
H   -0.6132   -0.9567   1.3905
H   1.1926   1.2935   0.2487
H   -2.4105   -1.8722   0.3877
H   -1.5904   -1.7216   -0.9910
H   -0.6962   1.5447   1.3019
H   -2.2968   0.8148   1.4946
H   2.9552   0.2137   1.4640
H   1.8931   0.6025   -2.0976
H   2.4490   -1.4006   0.9329
H   1.4624   -0.4705   2.0679
H   3.2260   0.9138   -0.9896
H   2.7486   -0.7558   -1.3647
22
Frame 32: 32
C   -0.9143   -0.4606   0.4614
C   1.4193   0.2517   -0.0136
C   -1.4490   0.9321   0.8067
C   2.0969   -0.3985   1.1846
C   2.3823   0.2544   -1.1871
N   0.2188   -0.4582   -0.4453
N   -1.9946   -1.1904   -0.2221
O   -1.8527   1.6177   -0.3620
H   -2.5065   1.0440   -0.7843
H   -0.0998   -0.0323   -1.3106
H   -0.6130   -0.9564   1.3906
H   1.1923   1.2941   0.2485
H   -2.4133   -1.8742   0.3907
H   -1.5906   -1.7210   -0.9877
H   -0.6953   1.5454   1.3029
H   -2.2953   0.8147   1.4945
H   2.9555   0.2132   1.4637
H   1.8938   0.6031   -2.0974
H   2.4482   -1.4011   0.9330
H   1.4620   -0.4700   2.0670
H   3.2264   0.9129   -0.9897
H   2.7487   -0.7569   -1.3654
22
Frame 33: 33
C   -0.9135   -0.4608   0.4604
C   1.4211   0.2528   -0.0143
C   -1.4517   0.9296   0.8068
C   2.0963   -0.3982   1.1855
C   2.3835   0.2550   -1.1893
N   0.2202   -0.4580   -0.4446
N   -1.9924   -1.1911   -0.2223
O   -1.8531   1.6180   -0.3604
H   -2.5057   1.0436   -0.7865
H   -0.1001   -0.0292   -1.3092
H   -0.6135   -0.9558   1.3890
H   1.1913   1.2950   0.2482
H   -2.4169   -1.8729   0.3927
H   -1.5876   -1.7220   -0.9847
H   -0.6974   1.5438   1.3035
H   -2.2950   0.8151   1.4955
H   2.9570   0.2116   1.4630
H   1.8938   0.6048   -2.0985
H   2.4469   -1.4012   0.9326
H   1.4594   -0.4693   2.0668
H   3.2289   0.9113   -0.9893
H   2.7484   -0.7585   -1.3662
22
Frame 34: 34
C   -0.9112   -0.4595   0.4596
C   1.4240   0.2553   -0.0173
C   -1.4586   0.9256   0.8086
C   2.0935   -0.3983   1.1850
C   2.3866   0.2532   -1.1938
N   0.2209   -0.4523   -0.4468
N   -1.9833   -1.1947   -0.2245
O   -1.8576   1.6208   -0.3547
H   -2.4987   1.0418   -0.7956
H   -0.1055   -0.0114   -1.3041
H   -0.6102   -0.9510   1.3869
H   1.1913   1.2977   0.2461
H   -2.4257   -1.8646   0.3960
H   -1.5669   -1.7349   -0.9721
H   -0.7084   1.5404   1.3110
H   -2.2991   0.8104   1.4986
H   2.9590   0.2075   1.4563
H   1.8975   0.6113   -2.1014
H   2.4395   -1.4038   0.9323
H   1.4534   -0.4650   2.0654
H   3.2373   0.9008   -0.9864
H   2.7424   -0.7658   -1.3706
22
Frame 35: 35
C   -0.9100   -0.4584   0.4590
C   1.4261   0.2586   -0.0217
C   -1.4699   0.9213   0.8120
C   2.0892   -0.3974   1.1839
C   2.3906   0.2525   -1.1992
N   0.2200   -0.4458   -0.4508
N   -1.9726   -1.2027   -0.2285
O   -1.8650   1.6242   -0.3491
H   -2.4865   1.0392   -0.8070
H   -0.1107   0.0140   -1.2982
H   -0.6039   -0.9473   1.3871
H   1.1933   1.3021   0.2423
H   -2.4399   -1.8485   0.4005
H   -1.5379   -1.7549   -0.9525
H   -0.7215   1.5354   1.3196
H   -2.3061   0.8020   1.5050
H   2.9637   0.1990   1.4502
H   1.9046   0.6209   -2.1048
H   2.4269   -1.4063   0.9320
H   1.4439   -0.4573   2.0613
H   3.2518   0.8853   -0.9840
H   2.7337   -0.7721   -1.3786
22
Frame 36: 36
C   -0.9089   -0.4573   0.4622
C   1.4297   0.2665   -0.0300
C   -1.4892   0.9150   0.8191
C   2.0805   -0.3955   1.1769
C   2.3984   0.2479   -1.2066
N   0.2147   -0.4239   -0.4627
N   -1.9488   -1.2123   -0.2351
O   -1.8784   1.6330   -0.3313
H   -2.4616   1.0293   -0.8347
H   -0.1239   0.0711   -1.2858
H   -0.5877   -0.9374   1.3867
H   1.2014   1.3106   0.2326
H   -2.4699   -1.8128   0.4075
H   -1.4692   -1.8106   -0.9097
H   -0.7512   1.5259   1.3400
H   -2.3266   0.7796   1.5171
H   2.9709   0.1798   1.4367
H   1.9238   0.6424   -2.1111
H   2.3965   -1.4129   0.9319
H   1.4260   -0.4384   2.0519
H   3.2822   0.8478   -0.9795
H   2.7112   -0.7842   -1.3977
22
Frame 37: 37
C   -0.9097   -0.4569   0.4623
C   1.4283   0.2660   -0.0296
C   -1.4878   0.9156   0.8210
C   2.0806   -0.3947   1.1768
C   2.3977   0.2505   -1.2045
N   0.2132   -0.4244   -0.4614
N   -1.9517   -1.2163   -0.2369
O   -1.8803   1.6286   -0.3359
H   -2.4595   1.0311   -0.8296
H   -0.1211   0.0664   -1.2886
H   -0.5872   -0.9411   1.3885
H   1.2035   1.3109   0.2321
H   -2.4691   -1.8102   0.4047
H   -1.4774   -1.8090   -0.9067
H   -0.7463   1.5265   1.3362
H   -2.3266   0.7794   1.5165
H   2.9714   0.1779   1.4417
H   1.9253   0.6419   -2.1093
H   2.3954   -1.4118   0.9320
H   1.4272   -0.4371   2.0501
H   3.2816   0.8492   -0.9822
H   2.7123   -0.7788   -1.3986
22
Frame 38: 38
C   -0.9102   -0.4562   0.4627
C   1.4281   0.2683   -0.0311
C   -1.4913   0.9141   0.8244
C   2.0785   -0.3937   1.1745
C   2.3984   0.2514   -1.2042
N   0.2108   -0.4173   -0.4634
N   -1.9491   -1.2205   -0.2379
O   -1.8843   1.6270   -0.3334
H   -2.4522   1.0284   -0.8329
H   -0.1220   0.0761   -1.2884
H   -0.5823   -0.9424   1.3897
H   1.2085   1.3136   0.2289
H   -2.4764   -1.7978   0.4026
H   -1.4675   -1.8252   -0.8928
H   -0.7487   1.5251   1.3379
H   -2.3321   0.7731   1.5180
H   2.9733   0.1706   1.4438
H   1.9326   0.6474   -2.1088
H   2.3857   -1.4127   0.9319
H   1.4242   -0.4303   2.0458
H   3.2890   0.8409   -0.9839
H   2.7070   -0.7762   -1.4050
22
Frame 39: 39
C   -0.9097   -0.4552   0.4641
C   1.4292   0.2742   -0.0343
C   -1.4986   0.9103   0.8309
C   2.0740   -0.3922   1.1699
C   2.4006   0.2525   -1.2046
N   0.2070   -0.4014   -0.4671
N   -1.9388   -1.2264   -0.2429
O   -1.8919   1.6251   -0.3255
H   -2.4384   1.0210   -0.8417
H   -0.1256   0.0975   -1.2878
H   -0.5726   -0.9435   1.3896
H   1.2188   1.3204   0.2228
H   -2.4941   -1.7741   0.4003
H   -1.4469   -1.8605   -0.8619
H   -0.7554   1.5220   1.3431
H   -2.3433   0.7602   1.5200
H   2.9764   0.1560   1.4468
H   1.9474   0.6601   -2.1085
H   2.3647   -1.4159   0.9315
H   1.4180   -0.4158   2.0382
H   3.3037   0.8232   -0.9862
H   2.6953   -0.7740   -1.4182
22
Frame 40: 40
C   -0.8990   -0.4548   0.4610
C   1.4384   0.2911   -0.0407
C   -1.5125   0.8966   0.8408
C   2.0656   -0.3907   1.1659
C   2.4094   0.2579   -1.2114
N   0.2090   -0.3712   -0.4679
N   -1.9248   -1.2361   -0.2404
O   -1.9062   1.6186   -0.3095
H   -2.4146   1.0010   -0.8537
H   -0.1342   0.1286   -1.2915
H   -0.5574   -0.9467   1.3792
H   1.2416   1.3426   0.2154
H   -2.5300   -1.7225   0.3877
H   -1.4228   -1.9335   -0.7993
H   -0.7650   1.5160   1.3524
H   -2.3583   0.7399   1.5182
H   2.9801   0.1276   1.4562
H   1.9726   0.6912   -2.1093
H   2.3211   -1.4263   0.9283
H   1.4055   -0.3864   2.0298
H   3.3277   0.7966   -0.9887
H   2.6737   -0.7756   -1.4442
22
Frame 41: 41
C   -0.8985   -0.4545   0.4615
C   1.4413   0.2964   -0.0413
C   -1.5120   0.8948   0.8426
C   2.0635   -0.3908   1.1646
C   2.4114   0.2573   -1.2136
N   0.2092   -0.3627   -0.4724
N   -1.9146   -1.2386   -0.2466
O   -1.9104   1.6163   -0.3061
H   -2.4088   0.9959   -0.8562
H   -0.1355   0.1343   -1.2902
H   -0.5529   -0.9477   1.3767
H   1.2480   1.3481   0.2139
H   -2.5425   -1.7113   0.3885
H   -1.4199   -1.9497   -0.7813
H   -0.7692   1.5132   1.3546
H   -2.3627   0.7344   1.5185
H   2.9811   0.1205   1.4583
H   1.9785   0.6999   -2.1098
H   2.3095   -1.4286   0.9276
H   1.4022   -0.3791   2.0285
H   3.3343   0.7908   -0.9887
H   2.6678   -0.7755   -1.4505
22
Frame 42: 42
C   -0.8964   -0.4550   0.4597
C   1.4445   0.2993   -0.0406
C   -1.5079   0.8940   0.8403
C   2.0635   -0.3915   1.1668
C   2.4130   0.2577   -1.2161
N   0.2135   -0.3636   -0.4726
N   -1.9131   -1.2385   -0.2472
O   -1.9103   1.6141   -0.3076
H   -2.4110   0.9933   -0.8525
H   -0.1347   0.1263   -1.2915
H   -0.5537   -0.9491   1.3729
H   1.2502   1.3517   0.2164
H   -2.5451   -1.7097   0.3878
H   -1.4321   -1.9483   -0.7789
H   -0.7685   1.5119   1.3535
H   -2.3593   0.7364   1.5169
H   2.9804   0.1206   1.4600
H   1.9761   0.7033   -2.1105
H   2.3078   -1.4293   0.9269
H   1.4023   -0.3790   2.0321
H   3.3321   0.7959   -0.9874
H   2.6684   -0.7767   -1.4500
22
Frame 43: 43
C   -0.8927   -0.4551   0.4576
C   1.4489   0.3065   -0.0424
C   -1.5091   0.8903   0.8415
C   2.0599   -0.3909   1.1664
C   2.4166   0.2595   -1.2195
N   0.2168   -0.3550   -0.4752
N   -1.9071   -1.2400   -0.2493
O   -1.9153   1.6109   -0.3045
H   -2.4047   0.9842   -0.8543
H   -0.1362   0.1319   -1.2929
H   -0.5470   -0.9514   1.3688
H   1.2605   1.3608   0.2157
H   -2.5606   -1.6898   0.3861
H   -1.4297   -1.9742   -0.7572
H   -0.7730   1.5079   1.3568
H   -2.3618   0.7297   1.5168
H   2.9822   0.1107   1.4631
H   1.9829   0.7167   -2.1114
H   2.2909   -1.4324   0.9259
H   1.3977   -0.3694   2.0317
H   3.3402   0.7902   -0.9870
H   2.6607   -0.7776   -1.4584
22
Frame 44: 44
C   -0.8888   -0.4559   0.4554
C   1.4516   0.3110   -0.0433
C   -1.5090   0.8882   0.8393
C   2.0568   -0.3892   1.1672
C   2.4192   0.2624   -1.2219
N   0.2207   -0.3535   -0.4780
N   -1.9070   -1.2421   -0.2523
O   -1.9177   1.6082   -0.3061
H   -2.4039   0.9753   -0.8534
H   -0.1347   0.1304   -1.2955
H   -0.5404   -0.9536   1.3659
H   1.2700   1.3665   0.2170
H   -2.5700   -1.6704   0.3859
H   -1.4340   -1.9904   -0.7441
H   -0.7763   1.5044   1.3604
H   -2.3584   0.7253   1.5175
H   2.9838   0.1040   1.4635
H   1.9855   0.7274   -2.1110
H   2.2776   -1.4324   0.9260
H   1.3947   -0.3645   2.0338
H   3.3451   0.7897   -0.9855
H   2.6553   -0.7771   -1.4625
22
Frame 45: 45
C   -0.8854   -0.4617   0.4462
C   1.4541   0.3128   -0.0450
C   -1.5057   0.8849   0.8340
C   2.0519   -0.3854   1.1706
C   2.4229   0.2705   -1.2213
N   0.2272   -0.3599   -0.4772
N   -1.9057   -1.2373   -0.2553
O   -1.9198   1.6002   -0.3153
H   -2.4088   0.9630   -0.8481
H   -0.1284   0.1209   -1.3047
H   -0.5302   -0.9559   1.3609
H   1.2824   1.3703   0.2208
H   -2.5812   -1.6397   0.3900
H   -1.4492   -2.0068   -0.7334
H   -0.7793   1.5003   1.3656
H   -2.3466   0.7196   1.5192
H   2.9867   0.0966   1.4595
H   1.9853   0.7407   -2.1072
H   2.2599   -1.4294   0.9281
H   1.3929   -0.3613   2.0385
H   3.3476   0.7935   -0.9829
H   2.6493   -0.7722   -1.4645
22
Frame 46: 46
C   -0.8843   -0.4614   0.4485
C   1.4526   0.3110   -0.0430
C   -1.5042   0.8849   0.8322
C   2.0528   -0.3851   1.1704
C   2.4210   0.2704   -1.2200
N   0.2267   -0.3621   -0.4807
N   -1.9095   -1.2374   -0.2547
O   -1.9171   1.6005   -0.3156
H   -2.4134   0.9619   -0.8483
H   -0.1251   0.1158   -1.3042
H   -0.5308   -0.9551   1.3604
H   1.2803   1.3669   0.2212
H   -2.5776   -1.6382   0.3906
H   -1.4525   -2.0017   -0.7386
H   -0.7781   1.5011   1.3647
H   -2.3441   0.7199   1.5197
H   2.9869   0.0983   1.4573
H   1.9834   0.7388   -2.1054
H   2.2619   -1.4283   0.9291
H   1.3939   -0.3632   2.0395
H   3.3464   0.7963   -0.9823
H   2.6507   -0.7696   -1.4623
22
Frame 47: 47
C   -0.8836   -0.4606   0.4489
C   1.4517   0.3103   -0.0424
C   -1.5037   0.8843   0.8328
C   2.0530   -0.3854   1.1700
C   2.4202   0.2707   -1.2186
N   0.2264   -0.3620   -0.4812
N   -1.9093   -1.2370   -0.2546
O   -1.9169   1.5991   -0.3152
H   -2.4141   0.9618   -0.8487
H   -0.1240   0.1154   -1.3049
H   -0.5308   -0.9548   1.3600
H   1.2787   1.3655   0.2206
H   -2.5780   -1.6361   0.3914
H   -1.4525   -2.0016   -0.7390
H   -0.7776   1.5016   1.3637
H   -2.3443   0.7189   1.5197
H   2.9874   0.0982   1.4563
H   1.9837   0.7387   -2.1042
H   2.2617   -1.4287   0.9296
H   1.3942   -0.3626   2.0391
H   3.3467   0.7959   -0.9823
H   2.6510   -0.7680   -1.4624
22
Frame 48: 48
C   -0.8790   -0.4598   0.4463
C   1.4504   0.3088   -0.0410
C   -1.5011   0.8806   0.8336
C   2.0524   -0.3862   1.1701
C   2.4198   0.2753   -1.2130
N   0.2286   -0.3619   -0.4841
N   -1.9068   -1.2349   -0.2548
O   -1.9170   1.5904   -0.3142
H   -2.4186   0.9550   -0.8494
H   -0.1167   0.1109   -1.3123
H   -0.5263   -0.9553   1.3562
H   1.2733   1.3627   0.2196
H   -2.5860   -1.6127   0.3950
H   -1.4587   -2.0083   -0.7324
H   -0.7755   1.5028   1.3599
H   -2.3420   0.7103   1.5199
H   2.9906   0.0941   1.4506
H   1.9854   0.7450   -2.0974
H   2.2532   -1.4321   0.9324
H   1.3947   -0.3558   2.0389
H   3.3492   0.7950   -0.9803
H   2.6501   -0.7602   -1.4652
22
Frame 49: 49
C   -0.8722   -0.4616   0.4436
C   1.4509   0.3098   -0.0389
C   -1.4967   0.8752   0.8343
C   2.0518   -0.3884   1.1700
C   2.4206   0.2801   -1.2103
N   0.2329   -0.3634   -0.4895
N   -1.9069   -1.2309   -0.2528
O   -1.9233   1.5777   -0.3194
H   -2.4206   0.9478   -0.8448
H   -0.1068   0.1032   -1.3224
H   -0.5189   -0.9571   1.3501
H   1.2649   1.3607   0.2201
H   -2.5969   -1.5780   0.3968
H   -1.4696   -2.0200   -0.7200
H   -0.7728   1.5036   1.3538
H   -2.3375   0.6979   1.5201
H   2.9946   0.0870   1.4430
H   1.9871   0.7570   -2.0882
H   2.2403   -1.4373   0.9366
H   1.3956   -0.3449   2.0408
H   3.3542   0.7962   -0.9749
H   2.6493   -0.7511   -1.4695
22
Frame 50: 50
C   -0.8726   -0.4618   0.4421
C   1.4513   0.3097   -0.0400
C   -1.4973   0.8755   0.8329
C   2.0511   -0.3878   1.1707
C   2.4219   0.2812   -1.2101
N   0.2336   -0.3640   -0.4884
N   -1.9055   -1.2309   -0.2542
O   -1.9214   1.5800   -0.3171
H   -2.4223   0.9447   -0.8462
H   -0.1073   0.1031   -1.3228
H   -0.5181   -0.9578   1.3504
H   1.2663   1.3619   0.2207
H   -2.5983   -1.5778   0.3975
H   -1.4709   -2.0205   -0.7187
H   -0.7731   1.5033   1.3544
H   -2.3367   0.6981   1.5201
H   2.9947   0.0865   1.4433
H   1.9868   0.7581   -2.0890
H   2.2394   -1.4371   0.9364
H   1.3957   -0.3449   2.0411
H   3.3538   0.7963   -0.9749
H   2.6489   -0.7521   -1.4698
22
Frame 51: 51
C   -0.8716   -0.4627   0.4406
C   1.4521   0.3101   -0.0405
C   -1.4969   0.8751   0.8316
C   2.0506   -0.3880   1.1712
C   2.4234   0.2827   -1.2104
N   0.2351   -0.3651   -0.4890
N   -1.9054   -1.2301   -0.2545
O   -1.9222   1.5798   -0.3172
H   -2.4232   0.9415   -0.8455
H   -0.1059   0.1011   -1.3245
H   -0.5160   -0.9589   1.3496
H   1.2652   1.3627   0.2217
H   -2.6011   -1.5716   0.3974
H   -1.4745   -2.0231   -0.7150
H   -0.7729   1.5031   1.3533
H   -2.3349   0.6962   1.5201
H   2.9953   0.0846   1.4424
H   1.9867   0.7617   -2.0882
H   2.2366   -1.4381   0.9372
H   1.3962   -0.3427   2.0421
H   3.3544   0.7972   -0.9733
H   2.6488   -0.7518   -1.4708
22
Frame 52: 52
C   -0.8683   -0.4645   0.4378
C   1.4534   0.3110   -0.0411
C   -1.4949   0.8734   0.8291
C   2.0497   -0.3886   1.1717
C   2.4264   0.2864   -1.2107
N   0.2388   -0.3681   -0.4918
N   -1.9059   -1.2273   -0.2549
O   -1.9257   1.5775   -0.3177
H   -2.4249   0.9338   -0.8431
H   -0.1016   0.0955   -1.3292
H   -0.5108   -0.9618   1.3466
H   1.2604   1.3632   0.2240
H   -2.6090   -1.5536   0.3973
H   -1.4838   -2.0302   -0.7049
H   -0.7717   1.5030   1.3492
H   -2.3302   0.6902   1.5200
H   2.9976   0.0792   1.4391
H   1.9872   0.7713   -2.0851
H   2.2290   -1.4410   0.9399
H   1.3982   -0.3359   2.0446
H   3.3568   0.7997   -0.9685
H   2.6493   -0.7494   -1.4738
22
Frame 53: 53
C   -0.8660   -0.4646   0.4353
C   1.4530   0.3099   -0.0424
C   -1.4925   0.8730   0.8275
C   2.0494   -0.3888   1.1715
C   2.4285   0.2902   -1.2100
N   0.2411   -0.3723   -0.4933
N   -1.9081   -1.2257   -0.2555
O   -1.9312   1.5757   -0.3168
H   -2.4247   0.9286   -0.8414
H   -0.0995   0.0907   -1.3321
H   -0.5075   -0.9644   1.3437
H   1.2546   1.3607   0.2257
H   -2.6156   -1.5411   0.3953
H   -1.4922   -2.0359   -0.6954
H   -0.7697   1.5039   1.3442
H   -2.3251   0.6863   1.5196
H   3.0003   0.0736   1.4369
H   1.9897   0.7794   -2.0831
H   2.2237   -1.4427   0.9430
H   1.4022   -0.3294   2.0464
H   3.3580   0.8022   -0.9638
H   2.6516   -0.7459   -1.4768
22
Frame 54: 54
C   -0.8636   -0.4668   0.4325
C   1.4527   0.3080   -0.0430
C   -1.4884   0.8717   0.8245
C   2.0500   -0.3894   1.1704
C   2.4306   0.2959   -1.2096
N   0.2435   -0.3791   -0.4992
N   -1.9108   -1.2205   -0.2568
O   -1.9406   1.5736   -0.3145
H   -2.4247   0.9190   -0.8397
H   -0.0956   0.0815   -1.3358
H   -0.5033   -0.9680   1.3377
H   1.2434   1.3549   0.2281
H   -2.6287   -1.5201   0.3929
H   -1.5060   -2.0473   -0.6796
H   -0.7648   1.5068   1.3351
H   -2.3162   0.6800   1.5199
H   3.0058   0.0638   1.4326
H   1.9957   0.7933   -2.0792
H   2.2148   -1.4458   0.9491
H   1.4094   -0.3176   2.0499
H   3.3604   0.8071   -0.9549
H   2.6563   -0.7373   -1.4821
22
Frame 55: 55
C   -0.8650   -0.4669   0.4322
C   1.4518   0.3063   -0.0433
C   -1.4878   0.8724   0.8253
C   2.0510   -0.3896   1.1704
C   2.4301   0.2965   -1.2089
N   0.2424   -0.3810   -0.4980
N   -1.9124   -1.2218   -0.2568
O   -1.9425   1.5739   -0.3142
H   -2.4233   0.9203   -0.8407
H   -0.0975   0.0818   -1.3359
H   -0.5054   -0.9677   1.3376
H   1.2417   1.3524   0.2274
H   -2.6289   -1.5225   0.3917
H   -1.5056   -2.0469   -0.6795
H   -0.7632   1.5082   1.3340
H   -2.3155   0.6816   1.5214
H   3.0072   0.0635   1.4322
H   1.9980   0.7931   -2.0798
H   2.2160   -1.4457   0.9499
H   1.4110   -0.3170   2.0499
H   3.3593   0.8077   -0.9540
H   2.6583   -0.7351   -1.4826
