22
Image 0  Energy = -383.5281735479
C  -0.7781260000 -1.0675610000  0.3210590000
C   1.3025530000  0.0521200000 -0.0282990000
C  -0.9719930000  1.4562490000  0.8236570000
C   1.9812290000 -0.4184330000  1.2501750000
C   2.2640330000  0.4351680000 -1.1331070000
N   0.2911640000 -0.8768210000 -0.5003990000
N  -2.0191630000 -1.3720060000 -0.2331120000
O  -1.6647340000  1.6302230000 -0.4018370000
H  -2.2586320000  0.8701390000 -0.4758990000
H   0.0278490000 -0.6783120000 -1.4584950000
H  -0.6097590000 -1.3678560000  1.3411780000
H   0.6812640000  0.9183000000  0.2869410000
H  -2.5732630000 -2.0573610000  0.2574120000
H  -2.0524280000 -1.5045420000 -1.2338230000
H  -0.3689930000  2.3513920000  0.9917470000
H  -1.6396090000  1.2942150000  1.6746530000
H   2.7644490000  0.2914620000  1.5228460000
H   1.7251140000  0.7306950000 -2.0377940000
H   2.4355930000 -1.4060980000  1.1342150000
H   1.2730050000 -0.4472240000  2.0805790000
H   2.8503450000  1.2986970000 -0.8143220000
H   2.9600090000 -0.3688060000 -1.3889100000
22
Image 1  Energy = -383.5280898340
C  -0.7780744976 -1.0682551049  0.3209896723
C   1.3024043696  0.0521704948 -0.0282825089
C  -0.9714503188  1.4567389491  0.8235666043
C   1.9811930370 -0.4183931102  1.2502647638
C   2.2639656269  0.4352408538 -1.1330758553
N   0.2910920215 -0.8766922717 -0.5003651199
N  -2.0193158571 -1.3720730894 -0.2331814949
O  -1.6647301810  1.6302406418 -0.4018664214
H  -2.2586520095  0.8700950307 -0.4758765811
H   0.0278703423 -0.6783378641 -1.4585273206
H  -0.6097656269 -1.3678242154  1.3411921730
H   0.6811726399  0.9182952209  0.2870137692
H  -2.5732930452 -2.0574089499  0.2574021489
H  -2.0524759831 -1.5045479598 -1.2338480980
H  -0.3690257885  2.3514927413  0.9917593106
H  -1.6395583027  1.2941162854  1.6746785336
H   2.7644586572  0.2914803352  1.5228519741
H   1.7251078847  0.7307047644 -2.0378139433
H   2.4356013710 -1.4061070677  1.1342160556
H   1.2730118510 -0.4472106574  2.0805978443
H   2.8503441982  1.2987218567 -0.8143194664
H   2.9600266112 -0.3688068836 -1.3889110401
22
Image 2  Energy = -383.5363548839
C  -0.7865036151 -0.9511701696  0.3411737049
C   1.3211216754  0.0462389311 -0.0326741880
C  -1.0343083490  1.3900586221  0.8305373572
C   1.9861557039 -0.4236997927  1.2401674082
C   2.2740129769  0.4266305354 -1.1378620105
N   0.3054653230 -0.8952212882 -0.5044226847
N  -1.9985063221 -1.3616446347 -0.2255152014
O  -1.6696368433  1.6274901624 -0.3974380324
H  -2.2589506651  0.8754914857 -0.4828467604
H   0.0245075172 -0.6735217422 -1.4539170657
H  -0.6089805984 -1.3709910255  1.3349609321
H   0.6995565731  0.9164746234  0.2734166859
H  -2.5654067305 -2.0467237109  0.2594009111
H  -2.0431428541 -1.5022904306 -1.2268043633
H  -0.3732360371  2.3150273684  0.9882841806
H  -1.6610255842  1.3082260347  1.6810684323
H   2.7631333847  0.2881546703  1.5216813611
H   1.7263799890  0.7286494149 -2.0343505449
H   2.4354013328 -1.4067454244  1.1336529046
H   1.2733680633 -0.4495126393  2.0749834244
H   2.8508455968  1.2940139358 -0.8150892388
H   2.9596563387 -0.3712949624 -1.3899418150
22
Image 3  Energy = -383.5426302082
C  -0.7963687724 -0.8323635840  0.3692092991
C   1.3334442018  0.0428350587 -0.0397097652
C  -1.0830308210  1.3252925205  0.8262612502
C   1.9911559706 -0.4277407967  1.2341618608
C   2.2830662212  0.4218017438 -1.1417382169
N   0.3197927001 -0.9093757131 -0.5041733587
N  -1.9825099889 -1.3454613757 -0.2174140231
O  -1.6771026566  1.6269268385 -0.3900033522
H  -2.2665929743  0.8762858492 -0.4957126399
H   0.0221809833 -0.6677853497 -1.4484803654
H  -0.6088094051 -1.3683244823  1.3248697921
H   0.7263638645  0.9129931866  0.2561591278
H  -2.5528355241 -2.0321240719  0.2628444202
H  -2.0301022370 -1.4986488469 -1.2185561189
H  -0.3815044316  2.2592448268  0.9848497472
H  -1.6955115167  1.3201569372  1.6963388229
H   2.7629655688  0.2847221079  1.5206048406
H   1.7279635191  0.7259448847 -2.0313436847
H   2.4366240241 -1.4101033815  1.1324611700
H   1.2748626520 -0.4524181364  2.0669551481
H   2.8531991555  1.2892600295 -0.8163464988
H   2.9626563196 -0.3774782938 -1.3927719623
22
Image 4  Energy = -383.5530205384
C  -0.8130621950 -0.6323635959  0.4259208946
C   1.3575312359  0.0342085557 -0.0545661829
C  -1.1630842474  1.1908333677  0.8265080725
C   2.0011669395 -0.4339310455  1.2247719099
C   2.3003878581  0.4137999115 -1.1493746509
N   0.3278782331 -0.9174198442 -0.4893562913
N  -1.9620431490 -1.2935980444 -0.2012500667
O  -1.7103042207  1.6184092212 -0.3805166658
H  -2.2891437639  0.8805603828 -0.5332388526
H   0.0219525992 -0.6566274561 -1.4326604191
H  -0.6120422572 -1.3374866615  1.2996516220
H   0.7883402973  0.9143604429  0.2194479006
H  -2.5216834117 -1.9982257854  0.2747534245
H  -1.9966508661 -1.4869981086 -1.1981499230
H  -0.3980546913  2.1198786918  0.9800832229
H  -1.7635079590  1.3365669192  1.7150631228
H   2.7666682533  0.2793247085  1.5197088295
H   1.7317555375  0.7201987073 -2.0282462805
H   2.4407382086 -1.4194333571  1.1289941844
H   1.2783203269 -0.4592575137  2.0504961134
H   2.8634372712  1.2827051233 -0.8191852722
H   2.9713068917 -0.3918646785 -1.4003892878
22
Image 5  Energy = -383.5674372387
C  -0.8404425963 -0.5009374850  0.4712464458
C   1.3847380387  0.0254199198 -0.0644136366
C  -1.2234574419  1.0613785464  0.8152920654
C   2.0161745723 -0.4413386725  1.2169161229
C   2.3221077702  0.4039075940 -1.1611174784
N   0.3198141894 -0.8886394304 -0.4608085424
N  -1.9635638333 -1.2224029188 -0.1757744306
O  -1.7330662715  1.6149327591 -0.3562363394
H  -2.3393721398  0.8671860821 -0.5897070376
H   0.0232828147 -0.6458897585 -1.4106581543
H  -0.6197259022 -1.2654730524  1.2788456745
H   0.8524671689  0.9310414714  0.1842246922
H  -2.4812034164 -1.9531256664  0.2899139478
H  -1.9532887627 -1.4679097062 -1.1744629906
H  -0.4168942312  1.9507422123  0.9801913688
H  -1.8274080349  1.3337231583  1.7189173312
H   2.7737532050  0.2738278760  1.5198320511
H   1.7373703668  0.7138572792 -2.0277778833
H   2.4460284068 -1.4287770241  1.1251320837
H   1.2817097455 -0.4668060042  2.0338854220
H   2.8778610868  1.2754147004 -0.8236408135
H   2.9830223001 -0.4064919545 -1.4113349637
22
Image 6  Energy = -383.6046212112
C  -0.8736895828 -0.4948671831  0.4901090769
C   1.4024613718  0.0300674304 -0.0664968348
C  -1.2393596426  0.9954221401  0.8156621579
C   2.0323414884 -0.4463140287  1.2179146754
C   2.3422708573  0.3953006936 -1.1740937578
N   0.2898916706 -0.8174560991 -0.4174216620
N  -2.0011804848 -1.1313721498 -0.1654512311
O  -1.7834916818  1.5746049717 -0.3449652547
H  -2.3892259304  0.8734944072 -0.6550769714
H   0.0257547404 -0.6344929286 -1.3846415073
H  -0.6327556117 -1.1476848195  1.2749176199
H   0.9191676125  0.9644905103  0.1556294924
H  -2.4363713507 -1.9045963060  0.3154066477
H  -1.8993982215 -1.4373289658 -1.1366539651
H  -0.4376229106  1.7507422093  0.9895301240
H  -1.8760370617  1.2916646904  1.6969556795
H   2.7872737047  0.2689150898  1.5221436393
H   1.7459127899  0.7067358532 -2.0320453206
H   2.4554123572 -1.4417814770  1.1206173737
H   1.2869333294 -0.4747894112  2.0162652534
H   2.8985190508  1.2671887816 -0.8309835371
H   3.0031009014 -0.4243035435 -1.4288579860
22
Image 7  Energy = -383.6172188632
C  -0.8889697383 -0.5411279126  0.4171269818
C   1.3953316178  0.0620302982 -0.0455154113
C  -1.2277332677  1.0223653934  0.8055696704
C   2.0441848838 -0.4469007214  1.2219381831
C   2.3517849004  0.3805473575 -1.1825138136
N   0.2462731368 -0.7536779520 -0.3972254924
N  -2.0903374850 -1.0811691915 -0.1724356443
O  -1.8179190229  1.5509284328 -0.3492253072
H  -2.4423305769  0.8655405837 -0.7034612393
H   0.0244681130 -0.6221613041 -1.3614868798
H  -0.6372278678 -1.0861522997  1.3621884535
H   0.9700619586  1.0196832639  0.1537316984
H  -2.4016398471 -1.8658995550  0.3382573306
H  -1.8508232635 -1.4054420529 -1.1003031449
H  -0.4264556777  1.6008575383  1.0061601440
H  -1.8994622235  1.2056830755  1.6659226832
H   2.8088448268  0.2663108550  1.5298622769
H   1.7578060157  0.7008124460 -2.0440004189
H   2.4666291681 -1.4511630991  1.1160740977
H   1.2912409715 -0.4809715924  2.0090252369
H   2.9228441478  1.2581664321 -0.8425773744
H   3.0233369782 -0.4346201482 -1.4486494681
22
Image 8  Energy = -383.6269831575
C  -0.9053646236 -0.4767122416  0.4591420872
C   1.4046714515  0.0678854613 -0.0462812259
C  -1.2860840580  0.9467149324  0.7959062497
C   2.0518089610 -0.4482690112  1.2203969569
C   2.3597062283  0.3732244789 -1.1861040858
N   0.2450468713 -0.7396819889 -0.3949338871
N  -2.1028680213 -1.0354804804 -0.1810325721
O  -1.8570647794  1.5327033963 -0.3634245091
H  -2.4548642602  0.8801594014 -0.7246332394
H   0.0221858072 -0.6111537995 -1.3565260345
H  -0.6484597550 -1.0422590742  1.3698180753
H   1.0102443032  1.0482184884  0.1444168596
H  -2.3853078858 -1.8519053446  0.3571369491
H  -1.8257289015 -1.3926827641 -1.0805498676
H  -0.3985691715  1.5181735132  1.0167511071
H  -1.9286341039  1.1742227531  1.6576004108
H   2.8184144476  0.2615819818  1.5329242180
H   1.7655260000  0.6956247129 -2.0473823059
H   2.4718255233 -1.4556422317  1.1121191171
H   1.2952873912 -0.4860921706  2.0020618023
H   2.9353212328  1.2484305545 -0.8504445812
H   3.0328151924 -0.4434207274 -1.4584992706
22
Image 9  Energy = -383.6299858300
C  -0.8989493132 -0.5419438406  0.4732940944
C   1.3925791750  0.0688894043 -0.0463022707
C  -1.2670687402  0.9985196947  0.7820132461
C   2.0448758968 -0.4435174854  1.2241701540
C   2.3478241913  0.3796034760 -1.1781465109
N   0.2612960177 -0.7584819160 -0.4116417005
N  -2.0918201682 -1.0791407634 -0.1865812072
O  -1.8330766871  1.5552121106 -0.3727828993
H  -2.4361900896  0.8765380558 -0.6941036789
H   0.0182167846 -0.6123766285 -1.3803164834
H  -0.6537028506 -1.0732205393  1.3676676263
H   0.9776651494  1.0478977157  0.1680840032
H  -2.4103604556 -1.8769497988  0.3465537784
H  -1.8521147918 -1.4085366739 -1.1009231841
H  -0.3743814242  1.6202521521  1.0185516771
H  -1.9006673494  1.1688821467  1.6605582638
H   2.8151844623  0.2618097991  1.5338275753
H   1.7653428253  0.6974999340 -2.0478842938
H   2.4680022311 -1.4465286265  1.1124414549
H   1.2947645117 -0.4827712597  2.0137749308
H   2.9284041901  1.2470352099 -0.8518592279
H   3.0240841829 -0.4350323143 -1.4519327582
22
Image 10  Energy = -383.6342904110
C  -0.9125555831 -0.5145273748  0.4715603367
C   1.3951157002  0.0801549374 -0.0459423010
C  -1.2590876308  0.9854328924  0.7762272691
C   2.0481285858 -0.4424177409  1.2233372959
C   2.3516889295  0.3745436745 -1.1805221081
N   0.2561919676 -0.7508394238 -0.4034500860
N  -2.1000143782 -1.0709293240 -0.1705661618
O  -1.8402007520  1.5580820216 -0.3771747987
H  -2.4524374348  0.8746965974 -0.7062409047
H   0.0129720416 -0.6013845811 -1.3836136415
H  -0.6651435989 -1.0547931823  1.3873756804
H   0.9980095427  1.0688773902  0.1720861529
H  -2.4082707104 -1.8688251623  0.3483755888
H  -1.8401361991 -1.4092675127 -1.1013869520
H  -0.3750251075  1.5772582453  1.0203071866
H  -1.9158683657  1.1359296108  1.6543408577
H   2.8222027989  0.2574060589  1.5374530020
H   1.7725078428  0.6935568190 -2.0511909232
H   2.4701374858 -1.4444496419  1.1084434989
H   1.2985357972 -0.4855119436  2.0150112661
H   2.9374941853  1.2383583140 -0.8598578518
H   3.0256626894 -0.4377108348 -1.4561100180
22
Image 11  Energy = -383.6367855302
C  -0.9202587351 -0.4939839578  0.4726945353
C   1.3948957773  0.0961149769 -0.0418195459
C  -1.2578264285  0.9765690429  0.7676097450
C   2.0508342956 -0.4384618677  1.2230015103
C   2.3545212852  0.3690887440 -1.1838882115
N   0.2458453119 -0.7385326535 -0.4034291099
N  -2.1065615428 -1.0649789420 -0.1728133964
O  -1.8488584124  1.5582237878 -0.3849730117
H  -2.4669567518  0.8778178735 -0.7147700714
H   0.0073281443 -0.5868946128 -1.3802009282
H  -0.6834570534 -1.0302014290  1.4115284175
H   1.0229019809  1.0961056358  0.1804385453
H  -2.4112761589 -1.8684857133  0.3549546731
H  -1.8320939763 -1.4068824582 -1.0891404811
H  -0.3696670206  1.5349521052  1.0235571390
H  -1.9288429697  1.0877743179  1.6412289534
H   2.8321061544  0.2514481575  1.5430451466
H   1.7824218843  0.6883262869 -2.0567450893
H   2.4726508214 -1.4407447001  1.1019823284
H   1.3045300319 -0.4887510491  2.0181412555
H   2.9509575260  1.2273524114 -0.8712158260
H   3.0267137108 -0.4422161259 -1.4607244308
22
Image 12  Energy = -383.6389722280
C  -0.9204940765 -0.4872265843  0.4670986305
C   1.3910694171  0.1121699388 -0.0392179881
C  -1.2644410162  0.9713769358  0.7567698767
C   2.0507504156 -0.4312383953  1.2234058178
C   2.3547008115  0.3661933173 -1.1855801268
N   0.2410224924 -0.7213197000 -0.3983676288
N  -2.1072990113 -1.0752449200 -0.1618007863
O  -1.8486965171  1.5601046023 -0.3937175486
H  -2.4734943360  0.8875375424 -0.7108612342
H  -0.0026216115 -0.5648519174 -1.3770671281
H  -0.7115280154 -1.0055120098  1.4314442814
H   1.0464028686  1.1236556774  0.1964503477
H  -2.4246140216 -1.8734610033  0.3544192222
H  -1.8313753408 -1.4144140434 -1.0851071657
H  -0.3614926338  1.5194849094  1.0266031459
H  -1.9346972406  1.0286413098  1.6209588610
H   2.8435930181  0.2438486551  1.5508110027
H   1.7941090327  0.6822626161 -2.0661652887
H   2.4729907070 -1.4312849503  1.0907866604
H   1.3142592292 -0.4914854783  2.0264271989
H   2.9694952541  1.2146884686 -0.8870392331
H   3.0222684923 -0.4502851485 -1.4617889392
22
Image 13  Energy = -383.6407820184
C  -0.9228921269 -0.4931838381  0.4707362535
C   1.3924775496  0.1335609021 -0.0327194887
C  -1.2547035162  0.9668715525  0.7410946672
C   2.0519169008 -0.4213092403  1.2239005798
C   2.3546320462  0.3635911948 -1.1882211362
N   0.2439862374 -0.6982612129 -0.3999537495
N  -2.0911754911 -1.0926847828 -0.1627861792
O  -1.8338010388  1.5700950160 -0.3977013908
H  -2.4801684841  0.8997002409 -0.6997750627
H  -0.0155774047 -0.5326862261 -1.3645091614
H  -0.7469164740 -0.9764535385  1.4386487963
H   1.0700553831  1.1476342591  0.2171106792
H  -2.4510243759 -1.8955773533  0.3563247142
H  -1.8441456975 -1.4311565597 -1.0791078147
H  -0.3715249737  1.5238817448  1.0268117235
H  -1.9452351556  0.9631168062  1.6012097039
H   2.8555537834  0.2347645683  1.5597815557
H   1.8071160635  0.6752623826 -2.0805433455
H   2.4697801533 -1.4158206183  1.0719383939
H   1.3279524706 -0.4932778951  2.0404504256
H   2.9956021034  1.2011077328 -0.9078824372
H   3.0079999925 -0.4655353145 -1.4563458561
22
Image 14  Energy = -383.6418211367
C  -0.9161884288 -0.4987675132  0.4671930230
C   1.3976104650  0.1355846763 -0.0314325905
C  -1.2620931576  0.9655237313  0.7469397930
C   2.0532213371 -0.4194683451  1.2254361659
C   2.3567747428  0.3659549640 -1.1897367851
N   0.2485968085 -0.6951482852 -0.3958721165
N  -2.0920444082 -1.1071008432 -0.1632084957
O  -1.8300085499  1.5663740019 -0.3963398787
H  -2.4755941657  0.9091759256 -0.6945512171
H  -0.0177471944 -0.5228620507 -1.3594725843
H  -0.7485201858 -0.9746036161  1.4327590709
H   1.0712719134  1.1464583768  0.2182023889
H  -2.4530439347 -1.8945521688  0.3528539863
H  -1.8497700984 -1.4378965286 -1.0799701559
H  -0.3821275252  1.5347231796  1.0272458553
H  -1.9465863424  0.9622884395  1.5966141047
H   2.8566666637  0.2347512410  1.5604113283
H   1.8080218002  0.6740485308 -2.0827905719
H   2.4678477773 -1.4143378132  1.0653774113
H   1.3314995574 -0.4924262876  2.0422328149
H   3.0013627266  1.1996090504 -0.9121350833
H   3.0007581380 -0.4736888443 -1.4512945590
22
Image 15  Energy = -383.6424550209
C  -0.9146175579 -0.5027172457  0.4636225260
C   1.4030028013  0.1380321110 -0.0301100350
C  -1.2695131303  0.9605901789  0.7492011818
C   2.0562343907 -0.4186044360  1.2265237257
C   2.3596783254  0.3667577383 -1.1911162131
N   0.2545072847 -0.6925656250 -0.3930198331
N  -2.0903783629 -1.1131850795 -0.1630348043
O  -1.8241642930  1.5655530858 -0.3933141546
H  -2.4754087600  0.9165984077 -0.6923931462
H  -0.0191259911 -0.5109385402 -1.3536451895
H  -0.7472076765 -0.9743907205  1.4289296301
H   1.0726264305  1.1469726191  0.2186482275
H  -2.4551109935 -1.8967557788  0.3528268272
H  -1.8541945237 -1.4472357830 -1.0848717401
H  -0.3937689326  1.5447003191  1.0297010316
H  -1.9527502907  0.9630659524  1.5952020494
H   2.8589755253  0.2355942983  1.5612484642
H   1.8089381245  0.6725746912 -2.0846853317
H   2.4659598913 -1.4136604151  1.0579399637
H   1.3350847936 -0.4913615249  2.0435302782
H   3.0087098079  1.1981903585 -0.9171218459
H   2.9924310702 -0.4835747906 -1.4455996839
22
Image 16  Energy = -383.6435184354
C  -0.9136957924 -0.5075574171  0.4601120515
C   1.4124438288  0.1481527236 -0.0262617498
C  -1.2796333107  0.9518429868  0.7523061412
C   2.0652117480 -0.4160708521  1.2275260639
C   2.3664398753  0.3651107929 -1.1932341656
N   0.2640638650 -0.6852318611 -0.3880060855
N  -2.0895004748 -1.1260908271 -0.1674413329
O  -1.8172918440  1.5647856015 -0.3919596798
H  -2.4810518037  0.9346560111 -0.6929397656
H  -0.0212159404 -0.4783183262 -1.3416403065
H  -0.7439175425 -0.9722197082  1.4277468306
H   1.0803330302  1.1566781412  0.2210878798
H  -2.4572085450 -1.8992034538  0.3551069390
H  -1.8614871040 -1.4682502200 -1.0923983716
H  -0.4211024269  1.5540373299  1.0393534627
H  -1.9758586277  0.9561203219  1.5933011407
H   2.8685820646  0.2369815867  1.5646547733
H   1.8134802648  0.6675467898 -2.0886819404
H   2.4631801194 -1.4130207729  1.0396678190
H   1.3445540354 -0.4894900143  2.0458678991
H   3.0299452162  1.1918045436 -0.9319411252
H   2.9736373066 -0.5086235569 -1.4337645633
22
Image 17  Energy = -383.6443243823
C  -0.9114509799 -0.5144810848  0.4596393089
C   1.4258939782  0.1727345564 -0.0146857241
C  -1.3237770881  0.9381092552  0.7679160165
C   2.0852668484 -0.4087580598  1.2264370003
C   2.3796741805  0.3573005509 -1.1948075480
N   0.2717066366 -0.6709179416 -0.3896487386
N  -2.0807530676 -1.1390874215 -0.1866454763
O  -1.8078098048  1.5675674120 -0.3937728859
H  -2.5035947851  0.9682581221 -0.7048382739
H  -0.0178879155 -0.4079331160 -1.3182214404
H  -0.7280751960 -0.9785852132  1.4300081977
H   1.0948783191  1.1823854513  0.2250075516
H  -2.4571038884 -1.9065830127  0.3670082767
H  -1.8704746192 -1.5106314173 -1.1019340698
H  -0.4671482369  1.5657025028  1.0715785873
H  -2.0236757648  0.9455234934  1.5811567763
H   2.8925054505  0.2378213050  1.5704563648
H   1.8252652160  0.6545383331 -2.0905389824
H   2.4608099601 -1.4134617669  1.0046419318
H   1.3661768906 -0.4860773478  2.0451720043
H   3.0741599454  1.1703260750 -0.9649790671
H   2.9353218801 -0.5601108574 -1.4104879363
22
Image 18  Energy = -383.6457744910
C  -0.9156134968 -0.5141510269  0.4620845045
C   1.4267660924  0.1820368093 -0.0128219727
C  -1.3214420929  0.9385038792  0.7625461926
C   2.0917691093 -0.4064729416  1.2241553633
C   2.3823690509  0.3507209590 -1.1929550869
N   0.2744453681 -0.6596452504 -0.3858637389
N  -2.0797364851 -1.1457223480 -0.1838055101
O  -1.8109044249  1.5679897182 -0.3969655189
H  -2.5130521424  0.9808185437 -0.7110479329
H  -0.0182487172 -0.3800090086 -1.3164276491
H  -0.7255393502 -0.9796919028  1.4334810270
H   1.1022536540  1.1974264766  0.2292474917
H  -2.4557257053 -1.9049815190  0.3682891398
H  -1.8688931093 -1.5259316967 -1.1053411693
H  -0.4842494595  1.5593080024  1.0852007287
H  -2.0495881484  0.9325448846  1.5805098675
H   2.9035702435  0.2357056814  1.5728701562
H   1.8313182912  0.6487406378 -2.0915094117
H   2.4609663015 -1.4101602249  0.9935109702
H   1.3750049504 -0.4858290000  2.0455116436
H   3.0917041535  1.1584892901 -0.9783196176
H   2.9227338904 -0.5760501453 -1.4038876555
22
Image 19  Energy = -383.6465989646
C  -0.9183322367 -0.5103206888  0.4665984364
C   1.4246468204  0.1901864639 -0.0108118198
C  -1.3243006015  0.9405996135  0.7610028069
C   2.0960852302 -0.4038365050  1.2208362230
C   2.3826706544  0.3433775662 -1.1898461762
N   0.2708946863 -0.6477791028 -0.3876014417
N  -2.0769766354 -1.1486201540 -0.1848711067
O  -1.8180835566  1.5692556733 -0.4018512278
H  -2.5226865710  0.9889021285 -0.7195434928
H  -0.0159972908 -0.3589877338 -1.3171628622
H  -0.7209591225 -0.9850516037  1.4364356441
H   1.1069775707  1.2104526257  0.2324174048
H  -2.4522231569 -1.9027995066  0.3705798839
H  -1.8629424130 -1.5343460602 -1.1011716563
H  -0.4931027320  1.5490426083  1.1005478612
H  -2.0694491164  0.9234932497  1.5760183832
H   2.9132166862  0.2317960577  1.5729520103
H   1.8367435390  0.6430396044 -2.0895979380
H   2.4630214520 -1.4065812438  0.9878885279
H   1.3824301706 -0.4863270947  2.0439293029
H   3.1038434636  1.1439328934 -0.9881951088
H   2.9144311394 -0.5857889752 -1.4000918795
22
Image 20  Energy = -383.6474628177
C  -0.9197092938 -0.5059115674  0.4706685032
C   1.4242061661  0.2058331712 -0.0064627152
C  -1.3416444225  0.9395540190  0.7626288788
C   2.1035546109 -0.3976779705  1.2161304559
C   2.3829334288  0.3327503877 -1.1854567611
N   0.2664623206 -0.6239090929 -0.3879576135
N  -2.0710962694 -1.1544000662 -0.1860180857
O  -1.8265348089  1.5722580648 -0.4068926482
H  -2.5399508347  1.0042622817 -0.7342424182
H  -0.0134021281 -0.3169475683 -1.3181635612
H  -0.7110429697 -0.9946778795  1.4358168456
H   1.1151930894  1.2313512751  0.2372842390
H  -2.4463269574 -1.9002023532  0.3757142610
H  -1.8503147620 -1.5517251318 -1.0935882538
H  -0.5124185280  1.5362289349  1.1299858557
H  -2.1045778477  0.9113219244  1.5639005010
H   2.9304866030  0.2243240949  1.5710668424
H   1.8456772545  0.6319483041 -2.0867435791
H   2.4669795604 -1.4004191028  0.9757422133
H   1.3968704557 -0.4870642143  2.0417446495
H   3.1271861848  1.1153201437 -1.0054935893
H   2.8973771404 -0.6085778481 -1.3912023179
22
Image 21  Energy = -383.6478746449
C  -0.9249002511 -0.5003691727  0.4707851333
C   1.4293349409  0.2320924854  0.0028301266
C  -1.3702873638  0.9341132283  0.7682493654
C   2.1139258983 -0.3910706522  1.2095691063
C   2.3879372727  0.3085200435 -1.1832098951
N   0.2603399908 -0.5683404686 -0.4052122194
N  -2.0560997845 -1.1599454770 -0.1835704007
O  -1.8430347324  1.5706113468 -0.4076890547
H  -2.5538801617  1.0333226921 -0.7505301101
H  -0.0128965963 -0.2507953309 -1.3090031962
H  -0.6958362099 -1.0040453855  1.4177143338
H   1.1288501256  1.2597236132  0.2454162516
H  -2.4403047276 -1.9024751018  0.3890643715
H  -1.8144995044 -1.5784040441 -1.0747514035
H  -0.5565627226  1.5165481909  1.1761952656
H  -2.1636462742  0.8949212650  1.5378243313
H   2.9566561154  0.2099378182  1.5595047902
H   1.8537892763  0.6139276947 -2.0887784018
H   2.4738962123 -1.3835447373  0.9572109672
H   1.4189188228 -0.4891226018  2.0449642465
H   3.1640701499  1.0608826107 -1.0246179166
H   2.8641375448 -0.6428482278 -1.3735040914
22
Image 22  Energy = -383.6489007695
C  -0.9218026715 -0.4976731001  0.4682748292
C   1.4316219113  0.2380109519  0.0027440608
C  -1.3839892627  0.9297781848  0.7714760994
C   2.1156346176 -0.3877601390  1.2098938631
C   2.3873700856  0.3080450532 -1.1834496537
N   0.2608229512 -0.5601212107 -0.3976723627
N  -2.0551541648 -1.1669164679 -0.1856337228
O  -1.8386757018  1.5754170970 -0.4046815471
H  -2.5621257044  1.0374177282 -0.7557958475
H  -0.0155985024 -0.2283794005 -1.3135817778
H  -0.6904191326 -1.0064787643  1.4135528972
H   1.1332007925  1.2669831469  0.2473872321
H  -2.4379646103 -1.9014172874  0.3912248737
H  -1.8068453200 -1.5866609368 -1.0702048701
H  -0.5688963513  1.5163411435  1.1878386083
H  -2.1783292116  0.8916655664  1.5311668417
H   2.9633052930  0.2075577421  1.5567182498
H   1.8566510033  0.6087696047 -2.0884554801
H   2.4755522742 -1.3822505760  0.9501851828
H   1.4253578865 -0.4892030514  2.0457934677
H   3.1748748785  1.0478324187 -1.0299461425
H   2.8553169663 -0.6573179166 -1.3683732202
22
Image 23  Energy = -383.6492170413
C  -0.9199750594 -0.4961579654  0.4650078946
C   1.4338894517  0.2397124637  0.0021755534
C  -1.3911119191  0.9264171555  0.7744928406
C   2.1147635163 -0.3868874260  1.2109558853
C   2.3870931358  0.3080668849 -1.1854232158
N   0.2604443174 -0.5548559249 -0.3976727314
N  -2.0543071662 -1.1696263516 -0.1856163701
O  -1.8360898274  1.5770674492 -0.4009673875
H  -2.5602185242  1.0386486528 -0.7545752568
H  -0.0190267354 -0.2198847952 -1.3145436256
H  -0.6877594937 -1.0050342384  1.4068659988
H   1.1356717445  1.2674887669  0.2480947195
H  -2.4374948173 -1.9021631231  0.3929932010
H  -1.7978670658 -1.5896531205 -1.0667857090
H  -0.5770411090  1.5186027673  1.1911175003
H  -2.1837868326  0.8915582911  1.5270338328
H   2.9645120698  0.2067358460  1.5524005080
H   1.8558168115  0.6068147565 -2.0899950282
H   2.4763939299 -1.3814086242  0.9479038085
H   1.4270408506 -0.4893651591  2.0487041150
H   3.1782330724  1.0407773629 -1.0278372724
H   2.8507276811 -0.6632138814 -1.3658676757
22
Image 24  Energy = -383.6495506351
C  -0.9197805722 -0.4926104464  0.4616880759
C   1.4353928969  0.2446743213  0.0019814032
C  -1.4021501647  0.9228564323  0.7780133205
C   2.1145260839 -0.3857688340  1.2107556579
C   2.3865723630  0.3035888946 -1.1875968245
N   0.2579239208 -0.5421837409 -0.4016365152
N  -2.0510826485 -1.1730225179 -0.1859338616
O  -1.8343935306  1.5806559639 -0.3962281025
H  -2.5579527815  1.0427850088 -0.7542094958
H  -0.0249331050 -0.1987086936 -1.3159284411
H  -0.6807508271 -1.0033896422  1.3970422164
H   1.1424249661  1.2726709312  0.2503696076
H  -2.4353560448 -1.9033567328  0.3973352089
H  -1.7778224224 -1.5987345503 -1.0604467709
H  -0.5940234334  1.5197928756  1.2015052944
H  -2.2013661739  0.8871603875  1.5200153100
H   2.9692712255  0.2049533116  1.5442569452
H   1.8557037750  0.6021118853 -2.0928161202
H   2.4780727633 -1.3790152893  0.9427798929
H   1.4318605585 -0.4895693044  2.0540637414
H   3.1882144718  1.0244920626 -1.0257604999
H   2.8395567155 -0.6757425421 -1.3607884780
22
Image 25  Energy = -383.6500710901
C  -0.9199758818 -0.4857446693  0.4578638751
C   1.4334489676  0.2487181504 -0.0004509806
C  -1.4175037549  0.9225809526  0.7863355166
C   2.1126761071 -0.3856456502  1.2100423477
C   2.3869000276  0.2964986101 -1.1897340466
N   0.2493507817 -0.5252996878 -0.4120782870
N  -2.0462418987 -1.1824262216 -0.1934169435
O  -1.8329248339  1.5887380547 -0.3907986949
H  -2.5476978796  1.0479854452 -0.7508719503
H  -0.0381033017 -0.1617356567 -1.3193845371
H  -0.6652493027 -0.9980175729  1.3861654565
H   1.1568017368  1.2818794828  0.2540028553
H  -2.4286575123 -1.9021492834  0.4019676879
H  -1.7392823347 -1.6166300756 -1.0470849695
H  -0.6223829192  1.5254688695  1.2186392549
H  -2.2319084936  0.8752944802  1.5111066741
H   2.9739414980  0.2051014774  1.5284004389
H   1.8564347766  0.5955984927 -2.0977758464
H   2.4787615989 -1.3784241796  0.9353547747
H   1.4403808432 -0.4885463381  2.0632184383
H   3.2023397454  0.9969938453 -1.0187615888
H   2.8188000908 -0.6965987549 -1.3542779301
22
Image 26  Energy = -383.6503817764
C  -0.9262936803 -0.4769678490  0.4537794492
C   1.4277827265  0.2569343583 -0.0025499191
C  -1.4445368884  0.9236747315  0.7943839178
C   2.1109169658 -0.3877482943  1.2034377693
C   2.3838234326  0.2768571772 -1.1916828184
N   0.2342104820 -0.4931615935 -0.4328300035
N  -2.0325638966 -1.1842293759 -0.1979092557
O  -1.8285173410  1.6055224713 -0.3791429871
H  -2.5373233801  1.0526770003 -0.7522570382
H  -0.0598949535 -0.0984031587 -1.3230897906
H  -0.6382112817 -0.9891985833  1.3745565607
H   1.1810678681  1.2969187396  0.2588291482
H  -2.4175980604 -1.9014077807  0.4088754961
H  -1.6718653092 -1.6561274958 -1.0322568436
H  -0.6643235301  1.5353345809  1.2534012984
H  -2.2828935579  0.8511830491  1.4967238218
H   2.9801009796  0.2058119179  1.5022720741
H   1.8629359926  0.5855317488 -2.1024145458
H   2.4773205159 -1.3772695333  0.9249908615
H   1.4561527016 -0.4858136165  2.0757641525
H   3.2269618486  0.9520274605 -1.0089160499
H   2.7826564713 -0.7285061979 -1.3455037939
22
Image 27  Energy = -383.6508595837
C  -0.9248967887 -0.4773089873  0.4571598765
C   1.4261232127  0.2534706309 -0.0035049124
C  -1.4374070609  0.9268018640  0.7942531718
C   2.1097370016 -0.3887261094  1.2024694597
C   2.3837944747  0.2784606640 -1.1894211113
N   0.2338253660 -0.4979476253 -0.4307335983
N  -2.0314411348 -1.1851890748 -0.2033222450
O  -1.8326060287  1.6031343381 -0.3819051569
H  -2.5342566194  1.0512094882 -0.7525774428
H  -0.0597478259 -0.1059579324 -1.3227690255
H  -0.6401190325 -0.9874937927  1.3801518601
H   1.1788021949  1.2930820850  0.2568841282
H  -2.4176666223 -1.8994380653  0.4052409725
H  -1.6787708667 -1.6533171186 -1.0302736846
H  -0.6575248972  1.5357843960  1.2503488337
H  -2.2744132531  0.8511321222  1.4999222867
H   2.9752521730  0.2075504363  1.5039359561
H   1.8648566485  0.5887051469 -2.1004958607
H   2.4749003019 -1.3803035504  0.9283983915
H   1.4546246300 -0.4848313039  2.0724902095
H   3.2204233187  0.9580267751 -1.0084036044
H   2.7864189118 -0.7232046273 -1.3493869939
22
Image 28  Energy = -383.6511487993
C  -0.9239688045 -0.4751490681  0.4596604162
C   1.4227049103  0.2505593484 -0.0052124970
C  -1.4349426037  0.9308624472  0.7959213698
C   2.1076194400 -0.3906963379  1.1990208178
C   2.3831167414  0.2757060176 -1.1866350918
N   0.2298809271 -0.4949919911 -0.4328808533
N  -2.0270851258 -1.1864298979 -0.2082096251
O  -1.8363889941  1.6048415514 -0.3814972795
H  -2.5292646722  1.0494038944 -0.7555978982
H  -0.0651715994 -0.0996680605 -1.3221449463
H  -0.6360387085 -0.9830249107  1.3856519528
H   1.1811392258  1.2917824157  0.2551719787
H  -2.4148180374 -1.8951131220  0.4005079953
H  -1.6699534240 -1.6616137164 -1.0250822220
H  -0.6588159045  1.5385550511  1.2561696068
H  -2.2750245327  0.8449097046  1.5004504236
H   2.9699169407  0.2099333585  1.4994125130
H   1.8699123573  0.5909674910 -2.0986834397
H   2.4706492711 -1.3843461059  0.9306198608
H   1.4565883602 -0.4825392497  2.0704200711
H   3.2175109291  0.9543953326 -1.0056805182
H   2.7823414144 -0.7247043938 -1.3529211221
22
Image 29  Energy = -383.6514323681
C  -0.9213022524 -0.4707084797  0.4615030913
C   1.4193294947  0.2491214443 -0.0076874082
C  -1.4386637091  0.9333755860  0.7996657105
C   2.1042755130 -0.3931858858  1.1938836220
C   2.3816396651  0.2696980040 -1.1845025666
N   0.2241669753 -0.4848656863 -0.4363328078
N  -2.0176854799 -1.1868363874 -0.2149595853
O  -1.8405530659  1.6096975958 -0.3773826218
H  -2.5230025468  1.0472224724 -0.7628266247
H  -0.0758629228 -0.0805270384 -1.3209461883
H  -0.6279098857 -0.9752908886  1.3897192126
H   1.1860441395  1.2920392221  0.2532145195
H  -2.4116601836 -1.8899416484  0.3963441583
H  -1.6479484509 -1.6792499708 -1.0148157215
H  -0.6670925151  1.5427284249  1.2705254143
H  -2.2810885603  0.8343684779  1.4979087805
H   2.9640000133  0.2122481710  1.4891113561
H   1.8781284730  0.5933170656 -2.0967792590
H   2.4643444422 -1.3898026788  0.9318638098
H   1.4607110398 -0.4789203481  2.0687678904
H   3.2179635958  0.9424249290 -1.0011213422
H   2.7720743476 -0.7332726276 -1.3566919353
22
Image 30  Energy = -383.6514859854
C  -0.9149140287 -0.4603202497  0.4613296443
C   1.4189506534  0.2523183262 -0.0126396662
C  -1.4448961132  0.9340868779  0.8071422806
C   2.0978536713 -0.3987099824  1.1838899431
C   2.3821617151  0.2526060015 -1.1865869736
N   0.2186518311 -0.4571718838 -0.4477649843
N  -1.9990318151 -1.1919353804 -0.2167242237
O  -1.8554535668  1.6147604996 -0.3642520799
H  -2.5042574262  1.0468018684 -0.7818294888
H  -0.0991869411 -0.0341708111 -1.3094517035
H  -0.6131335888 -0.9566223748  1.3904957843
H   1.1926837542  1.2935088536  0.2486772654
H  -2.4104680869 -1.8721577775  0.3876375793
H  -1.5902808975 -1.7216700601 -0.9909639841
H  -0.6962586045  1.5447545735  1.3019631653
H  -2.2968508558  0.8146612899  1.4946003078
H   2.9551949171  0.2136691358  1.4639138222
H   1.8931679486  0.6025163934 -2.0976210689
H   2.4489355565 -1.4006538292  0.9329392997
H   1.4624373414 -0.4704527986  2.0679488249
H   3.2260674638  0.9136594909 -0.9895822145
H   2.7485352217 -0.7558384134 -1.3646600406
22
Image 31  Energy = -383.6519233793
C  -0.9143015014 -0.4606072062  0.4613622579
C   1.4192955747  0.2516979113 -0.0136050279
C  -1.4489464183  0.9321040525  0.8067055203
C   2.0969344828 -0.3984707129  1.1846331734
C   2.3823413396  0.2544191737 -1.1870697650
N   0.2187577410 -0.4582457884 -0.4452788303
N  -1.9946454102 -1.1903671453 -0.2221026619
O  -1.8526431780  1.6176484929 -0.3620742149
H  -2.5065766208  1.0440307378 -0.7842845860
H  -0.0997512326 -0.0323113495 -1.3105896772
H  -0.6130345460 -0.9563732402  1.3906188562
H   1.1923309100  1.2941200770  0.2485037720
H  -2.4132565990 -1.8742453794  0.3907183313
H  -1.5906685683 -1.7209345318 -0.9877197016
H  -0.6952835657  1.5453416331  1.3028472740
H  -2.2953161481  0.8146387174  1.4945243957
H   2.9555426085  0.2131798435  1.4637539743
H   1.8937840776  0.6030848285 -2.0973841711
H   2.4482556213 -1.4010710519  0.9329531286
H   1.4619732921 -0.4700216956  2.0670271697
H   3.2263964666  0.9128756430 -0.9897052785
H   2.7487198240 -0.7568532604 -1.3653724514
22
Image 32  Energy = -383.6520401029
C  -0.9135450390 -0.4608117558  0.4604495480
C   1.4210979809  0.2527639417 -0.0143390624
C  -1.4517174895  0.9296334200  0.8067521134
C   2.0963357128 -0.3981678095  1.1855099317
C   2.3834813858  0.2550229265 -1.1892546126
N   0.2201929253 -0.4579600196 -0.4446362902
N  -1.9923619725 -1.1911143917 -0.2223030970
O  -1.8531104305  1.6180226640 -0.3604176900
H  -2.5057098093  1.0435863631 -0.7865010567
H  -0.1001124140 -0.0292524361 -1.3092179394
H  -0.6134712264 -0.9557583920  1.3889826244
H   1.1912721682  1.2949647663  0.2481712787
H  -2.4169082035 -1.8729206413  0.3927370274
H  -1.5876072986 -1.7219970966 -0.9847336202
H  -0.6974294964  1.5437876336  1.3034464407
H  -2.2949619646  0.8150485154  1.4954779610
H   2.9570107554  0.2115794612  1.4629698911
H   1.8937700485  0.6048293327 -2.0984982925
H   2.4469040158 -1.4012060101  0.9326095591
H   1.4594189203 -0.4692743516  2.0668058651
H   3.2289032471  0.9113204300 -0.9893490417
H   2.7484563322 -0.7584568015 -1.3662000505
22
Image 33  Energy = -383.6522409829
C  -0.9112425398 -0.4594638901  0.4596468150
C   1.4239650069  0.2553526431 -0.0172728701
C  -1.4586551563  0.9256296056  0.8085717084
C   2.0934787758 -0.3983080159  1.1849585149
C   2.3866215473  0.2531514024 -1.1938342209
N   0.2208716766 -0.4522803308 -0.4467700342
N  -1.9832985191 -1.1947150855 -0.2245285551
O  -1.8576359001  1.6207707690 -0.3547017545
H  -2.4986936627  1.0418591747 -0.7955726722
H  -0.1055097478 -0.0113514010 -1.3041090413
H  -0.6102189125 -0.9509423777  1.3868658113
H   1.1912910247  1.2977047516  0.2461198657
H  -2.4257248499 -1.8645662950  0.3959775913
H  -1.5668925053 -1.7348881889 -0.9721186110
H  -0.7084582090  1.5404085743  1.3110595720
H  -2.2990719968  0.8103324972  1.4985712016
H   2.9589868399  0.2074750816  1.4563423184
H   1.8975463231  0.6112966882 -2.1014237516
H   2.4394715564 -1.4037775522  0.9322496829
H   1.4534262559 -0.4650243062  2.0654369567
H   3.2373029394  0.9008156822 -0.9863654613
H   2.7423482042 -0.7658396758 -1.3706415814
22
Image 34  Energy = -383.6525272152
C  -0.9100258905 -0.4583976923  0.4590493615
C   1.4260664027  0.2585813631 -0.0216715196
C  -1.4699467366  0.9213083987  0.8120238497
C   2.0891957699 -0.3974048419  1.1838640612
C   2.3906413055  0.2524422032 -1.1992256804
N   0.2199580154 -0.4457927670 -0.4507862646
N  -1.9725509718 -1.2026905651 -0.2285034557
O  -1.8649875770  1.6241722119 -0.3491594566
H  -2.4864555439  1.0391913860 -0.8069733066
H  -0.1107607256  0.0140174236 -1.2981943574
H  -0.6038595765 -0.9472552488  1.3871556993
H   1.1932947720  1.3021486467  0.2423051109
H  -2.4399202772 -1.8484152803  0.4004627598
H  -1.5378079718 -1.7548947487 -0.9524764088
H  -0.7214632170  1.5353302032  1.3196659602
H  -2.3061499692  0.8019488487  1.5049679427
H   2.9637333533  0.1989856573  1.4501522326
H   1.9046300380  0.6209274903 -2.1048062069
H   2.4268635210 -1.4062788246  0.9319834461
H   1.4439433050 -0.4573478217  2.0612867365
H   3.2517971061  0.8852369913 -0.9840455983
H   2.7337130335 -0.7721732831 -1.3786134214
22
Image 35  Energy = -383.6526697290
C  -0.9088797027 -0.4572813963  0.4622254288
C   1.4297485525  0.2665219703 -0.0300003914
C  -1.4892221374  0.9150207578  0.8191657211
C   2.0804753468 -0.3954685502  1.1768364402
C   2.3984299189  0.2478473375 -1.2065711785
N   0.2146473379 -0.4237704098 -0.4627383910
N  -1.9485976216 -1.2123597293 -0.2352303684
O  -1.8784444702  1.6330095393 -0.3312379865
H  -2.4614903787  1.0292734656 -0.8347564453
H  -0.1240198058  0.0713515821 -1.2858007459
H  -0.5875874433 -0.9372873219  1.3866482438
H   1.2014285839  1.3106467817  0.2325126703
H  -2.4700071429 -1.8126791404  0.4075995038
H  -1.4689689731 -1.8108080853 -0.9095468228
H  -0.7513854025  1.5258222398  1.3401009955
H  -2.3267806306  0.7794637322  1.5171370868
H   2.9708806608  0.1797593782  1.4365711029
H   1.9239244583  0.6424879171 -2.1110816726
H   2.3963591155 -1.4129235275  0.9318750946
H   1.4260224216 -0.4383247944  2.0519173147
H   3.2823256310  0.8476548770 -0.9794256255
H   2.7110498723 -0.7843168754 -1.3977385030
22
Image 36  Energy = -383.6531255269
C  -0.9097172137 -0.4568368626  0.4623130565
C   1.4283008431  0.2659666032 -0.0296253852
C  -1.4877975210  0.9155741480  0.8209933068
C   2.0805824670 -0.3947059694  1.1768225701
C   2.3976452305  0.2504896926 -1.2044508198
N   0.2132202922 -0.4243466744 -0.4614498989
N  -1.9516726897 -1.2163367491 -0.2369301017
O  -1.8803281847  1.6286052534 -0.3359062246
H  -2.4594760859  1.0311338833 -0.8296025890
H  -0.1211409462  0.0664560939 -1.2886549278
H  -0.5871442692 -0.9410442206  1.3885414603
H   1.2035511237  1.3108851277  0.2320600339
H  -2.4690639434 -1.8102361323  0.4047322615
H  -1.4774069689 -1.8089840402 -0.9066696945
H  -0.7462837757  1.5264886206  1.3362519338
H  -2.3266562474  0.7793475665  1.5164659023
H   2.9714147180  0.1778949441  1.4416560110
H   1.9253270790  0.6418590771 -2.1093186717
H   2.3954392976 -1.4117679700  0.9319594691
H   1.4272675142 -0.4371274365  2.0500756852
H   3.2816243844  0.8491439239 -0.9821772755
H   2.7122230860 -0.7788191353 -1.3986246299
22
Image 37  Energy = -383.6533436718
C  -0.9101948204 -0.4562204758  0.4626888418
C   1.4281043801  0.2682727358 -0.0311150787
C  -1.4913589959  0.9141411943  0.8243853338
C   2.0784909822 -0.3937085948  1.1744876538
C   2.3983598188  0.2513223201 -1.2042132402
N   0.2108207368 -0.4173068578 -0.4633551767
N  -1.9490824905 -1.2204983095 -0.2378539082
O  -1.8843101140  1.6270761584 -0.3333940274
H  -2.4522511815  1.0284568948 -0.8328934476
H  -0.1220232913  0.0761521993 -1.2884177112
H  -0.5822912246 -0.9423490262  1.3896813699
H   1.2085232360  1.3135924098  0.2288995311
H  -2.4762880221 -1.7978578597  0.4025563255
H  -1.4675000148 -1.8251967942 -0.8927990687
H  -0.7487073399  1.5250692201  1.3379236880
H  -2.3321485802  0.7731088074  1.5179450510
H   2.9733106490  0.1706488372  1.4437537445
H   1.9325467661  0.6473366955 -2.1088190108
H   2.3856935778 -1.4126707924  0.9319253145
H   1.4242776372 -0.4302915730  2.0458366727
H   3.2889665470  0.8408310690 -0.9838394211
H   2.7069699401 -0.7762685203 -1.4049219668
22
Image 38  Energy = -383.6536238498
C  -0.9096672093 -0.4551276241  0.4641249192
C   1.4291632450  0.2741824069 -0.0342968508
C  -1.4986213753  0.9102944631  0.8308990994
C   2.0740109164 -0.3921728132  1.1698405726
C   2.4006293900  0.2524585015 -1.2046133632
N   0.2070070799 -0.4013387995 -0.4671057736
N  -1.9387739426 -1.2264339277 -0.2428849444
O  -1.8919447077  1.6251864961 -0.3254519553
H  -2.4384003473  1.0209731387 -0.8417261547
H  -0.1256303171  0.0975938825 -1.2877792026
H  -0.5725167157 -0.9434534369  1.3895769752
H   1.2188965946  1.3204223845  0.2228018130
H  -2.4940248966 -1.7741520233  0.4002706117
H  -1.4468471973 -1.8604854671 -0.8618945857
H  -0.7554421702  1.5220346584  1.3432021789
H  -2.3433878965  0.7601814075  1.5199034259
H   2.9763419855  0.1560326868  1.4467727437
H   1.9473825000  0.6600334534 -2.1084301710
H   2.3647416846 -1.4159273280  0.9314801055
H   1.4180615055 -0.4157950873  2.0381803089
H   3.3037318980  0.8231725690 -0.9862165624
H   2.6951981829 -0.7740398163 -1.4181917246
22
Image 39  Energy = -383.6538790743
C  -0.8990904201 -0.4548156297  0.4610883965
C   1.4383828943  0.2910427746 -0.0406272948
C  -1.5124225095  0.8966426366  0.8406955232
C   2.0657051544 -0.3907550441  1.1658976108
C   2.4093405827  0.2577937873 -1.2113037922
N   0.2089317124 -0.3713258492 -0.4678712453
N  -1.9248833437 -1.2359528342 -0.2404563788
O  -1.9060578219  1.6187670358 -0.3094324172
H  -2.4148332742  1.0010963587 -0.8536539326
H  -0.1342028769  0.1284645828 -1.2915004107
H  -0.5574214045 -0.9466601644  1.3791458503
H   1.2415918101  1.3424649849  0.2154722060
H  -2.5298066750 -1.7229480721  0.3877803802
H  -1.4229623700 -1.9331560609 -0.7996682977
H  -0.7649835859  1.5160635224  1.3523852644
H  -2.3583032474  0.7399778786  1.5181273078
H   2.9800795920  0.1277476509  1.4561381953
H   1.9724243168  0.6909671428 -2.1092518216
H   2.3214084187 -1.4262763428  0.9282739998
H   1.4056701944 -0.3865734558  2.0298986757
H   3.3275546247  0.7966643104 -0.9886379583
H   2.6737864641 -0.7755895019 -1.4440384090
22
Image 40  Energy = -383.6543114302
C  -0.8985136702 -0.4544736953  0.4615226988
C   1.4412828004  0.2964194209 -0.0411947405
C  -1.5119301258  0.8948776073  0.8425395139
C   2.0635879088 -0.3908002261  1.1645999148
C   2.4113248910  0.2572923936 -1.2135546841
N   0.2092312307 -0.3627216934 -0.4723914711
N  -1.9147323523 -1.2385129212 -0.2465149600
O  -1.9103196927  1.6163066858 -0.3061337672
H  -2.4089385532  0.9959936921 -0.8560966394
H  -0.1354447439  0.1341291013 -1.2902676558
H  -0.5529836063 -0.9476905917  1.3766214404
H   1.2479993131  1.3480481715  0.2139291658
H  -2.5423143596 -1.7116188813  0.3884507147
H  -1.4201701254 -1.9493527160 -0.7816345361
H  -0.7691339672  1.5132491801  1.3545444762
H  -2.3626427198  0.7344908286  1.5184336295
H   2.9811079759  0.1206527066  1.4582733254
H   1.9783728352  0.6997080103 -2.1098061603
H   2.3097685750 -1.4285234349  0.9276019000
H   1.4023538935 -0.3792195674  2.0285593075
H   3.3340878344  0.7908970800 -0.9886575198
H   2.6679149037 -0.7755114435 -1.4503625065
22
Image 41  Energy = -383.6544679671
C  -0.8963279297 -0.4550071377  0.4596729997
C   1.4444911899  0.2994329055 -0.0405668550
C  -1.5079361112  0.8940233098  0.8403298314
C   2.0635287904 -0.3915404897  1.1667434677
C   2.4130173387  0.2577313404 -1.2160659116
N   0.2135621582 -0.3633859816 -0.4726203203
N  -1.9130449275 -1.2385166835 -0.2471645054
O  -1.9103253738  1.6140336419 -0.3075383011
H  -2.4110431492  0.9932191145 -0.8523997470
H  -0.1346929129  0.1263247891 -1.2915632324
H  -0.5536010667 -0.9491259128  1.3728393287
H   1.2504461569  1.3518270902  0.2164328887
H  -2.5451883922 -1.7096941277  0.3877535100
H  -1.4322336706 -1.9486017808 -0.7787117707
H  -0.7684948539  1.5119372315  1.3535250601
H  -2.3593414353  0.7363198949  1.5167953474
H   2.9804272708  0.1205113602  1.4600936688
H   1.9761970796  0.7033686698 -2.1105290418
H   2.3076981064 -1.4293482436  0.9268676525
H   1.4023455782 -0.3789540745  2.0321131874
H   3.3321173212  0.7958348475 -0.9874583763
H   2.6683070832 -0.7767500553 -1.4500874403
22
Image 42  Energy = -383.6545847346
C  -0.8926929756 -0.4550450017  0.4575487977
C   1.4489108259  0.3066364333 -0.0423841275
C  -1.5091080618  0.8902556836  0.8414867984
C   2.0598382026 -0.3908767649  1.1664166497
C   2.4166235135  0.2595577982 -1.2194716440
N   0.2167917870 -0.3548699913 -0.4752084962
N  -1.9070857547 -1.2400180229 -0.2492777259
O  -1.9152925273  1.6108459485 -0.3045136131
H  -2.4047312343  0.9840695082 -0.8542020323
H  -0.1361895588  0.1318513038 -1.2930068892
H  -0.5469374495 -0.9514663248  1.3686634748
H   1.2607471145  1.3609683947  0.2157377955
H  -2.5607418778 -1.6897135537  0.3861065017
H  -1.4298688864 -1.9744340818 -0.7570536370
H  -0.7730197810  1.5079759212  1.3568529813
H  -2.3618144506  0.7296478120  1.5167236324
H   2.9822024732  0.1106222111  1.4631879715
H   1.9829634170  0.7168305595 -2.1113507280
H   2.2907187305 -1.4323840179  0.9258447034
H   1.3977176505 -0.3693544037  2.0317847152
H   3.3402640905  0.7901137073 -0.9869894974
H   2.6606130172 -0.7775734137 -1.4584342000
22
Image 43  Energy = -383.6547497704
C  -0.8888119852 -0.4559220772  0.4554019793
C   1.4516597031  0.3110490922 -0.0432756926
C  -1.5089510694  0.8882874230  0.8392587032
C   2.0568151274 -0.3891900002  1.1672649354
C   2.4192208820  0.2624237350 -1.2218956606
N   0.2207301424 -0.3534490970 -0.4779868836
N  -1.9071635590 -1.2420391980 -0.2523208373
O  -1.9176883204  1.6081517264 -0.3062060522
H  -2.4039845331  0.9752661322 -0.8532012409
H  -0.1346501798  0.1302000728 -1.2955730436
H  -0.5403183011 -0.9537440038  1.3658256739
H   1.2701972372  1.3666444249  0.2171259781
H  -2.5700648125 -1.6704207316  0.3859521018
H  -1.4343223280 -1.9904470224 -0.7441472076
H  -0.7762285186  1.5043995436  1.3604098666
H  -2.3584051664  0.7252866705  1.5174342583
H   2.9838028361  0.1039265894  1.4635415601
H   1.9854064093  0.7274008332 -2.1109837037
H   2.2775245635 -1.4323763928  0.9260025246
H   1.3948014378 -0.3645581856  2.0338719286
H   3.3450759283  0.7898299084 -0.9855315871
H   2.6552627799 -0.7770797370 -1.4625061774
22
Image 44  Energy = -383.6548459828
C  -0.8853692151 -0.4616704693  0.4463455937
C   1.4540524992  0.3127805405 -0.0450132886
C  -1.5058024761  0.8848249443  0.8340184500
C   2.0519923978 -0.3854446809  1.1706172862
C   2.4229456413  0.2705264324 -1.2213457784
N   0.2272050104 -0.3599948004 -0.4770537630
N  -1.9057821322 -1.2374096652 -0.2553854343
O  -1.9196351645  1.6004021894 -0.3151681702
H  -2.4089344623  0.9630071304 -0.8481582693
H  -0.1284173095  0.1208859921 -1.3047063341
H  -0.5302927896 -0.9559439915  1.3609457509
H   1.2823149891  1.3702856494  0.2208152485
H  -2.5811681232 -1.6400268722  0.3900571580
H  -1.4492912587 -2.0064783435 -0.7336072540
H  -0.7791823565  1.5004181857  1.3654891216
H  -2.3466631185  0.7197345468  1.5191763298
H   2.9867143504  0.0965941173  1.4596170185
H   1.9852018176  0.7405842435 -2.1072792941
H   2.2601179583 -1.4294069965  0.9280569009
H   1.3929805492 -0.3613942088  2.0384580929
H   3.3475824343  0.7935806010 -0.9829542440
H   2.6493390557 -0.7722148208 -1.4644637083
22
Image 45  Energy = -383.6549891187
C  -0.8842771337 -0.4614308668  0.4485404174
C   1.4526011015  0.3109977620 -0.0429521735
C  -1.5042227512  0.8848716207  0.8322183325
C   2.0528388875 -0.3851216060  1.1704348440
C   2.4210087833  0.2704774046 -1.2199805149
N   0.2266528745 -0.3620950464 -0.4806967887
N  -1.9095485278 -1.2373977891 -0.2547237649
O  -1.9170357756  1.6004407147 -0.3156234739
H  -2.4134710714  0.9618734679 -0.8482804018
H  -0.1250580681  0.1157185893 -1.3042032111
H  -0.5308625881 -0.9551770914  1.3603532551
H   1.2803677207  1.3669568711  0.2211786827
H  -2.5776441017 -1.6381150973  0.3906873932
H  -1.4526043168 -2.0017322929 -0.7386235800
H  -0.7780930481  1.5010948953  1.3646320371
H  -2.3441669018  0.7199573248  1.5196656840
H   2.9869972340  0.0981929770  1.4573408437
H   1.9834447099  0.7388719053 -2.1054212628
H   2.2618402057 -1.4282447447  0.9291206364
H   1.3939277575 -0.3631873597  2.0394557514
H   3.3464833963  0.7962519142 -0.9823395380
H   2.6507299112 -0.7695638237 -1.4623217551
22
Image 46  Energy = -383.6550355120
C  -0.8835831103 -0.4606550453  0.4488572976
C   1.4517284504  0.3102857523 -0.0423926252
C  -1.5036262999  0.8842977311  0.8328049694
C   2.0530415092 -0.3853436101  1.1700775663
C   2.4201898351  0.2707765508 -1.2185864282
N   0.2264587443 -0.3620263581 -0.4812472087
N  -1.9093408185 -1.2369403218 -0.2545650100
O  -1.9168416473  1.5989596856 -0.3152827624
H  -2.4142613957  0.9617592067 -0.8486700853
H  -0.1238674989  0.1152257965 -1.3050097500
H  -0.5308364144 -0.9548844817  1.3598966675
H   1.2787244793  1.3655397075  0.2206424769
H  -2.5780861423 -1.6359108535  0.3914474713
H  -1.4527307035 -2.0016341093 -0.7390267628
H  -0.7775397181  1.5015724705  1.3636726754
H  -2.3442730367  0.7188886692  1.5196733822
H   2.9874782034  0.0981535456  1.4563281199
H   1.9837033981  0.7387257097 -2.1041745669
H   2.2616309484 -1.4286898302  0.9296201935
H   1.3942042061 -0.3625384994  2.0390885424
H   3.3467271970  0.7960016051 -0.9822860297
H   2.6510081140 -0.7679235902 -1.4624067191
22
Image 47  Energy = -383.6551779820
C  -0.8788315384 -0.4598837422  0.4462926750
C   1.4504198656  0.3088071860 -0.0409527963
C  -1.5009939914  0.8805488672  0.8335033033
C   2.0523964106 -0.3861866874  1.1702126515
C   2.4198455391  0.2754485650 -1.2129898324
N   0.2287376057 -0.3621206093 -0.4841665562
N  -1.9069227011 -1.2347308291 -0.2547557567
O  -1.9169535194  1.5901683851 -0.3144084715
H  -2.4189251225  0.9548673922 -0.8492642037
H  -0.1164849542  0.1103989011 -1.3123613180
H  -0.5263286213 -0.9553713637  1.3560371816
H   1.2732920472  1.3626112419  0.2196920764
H  -2.5861196545 -1.6123155930  0.3951580877
H  -1.4591614859 -2.0082789291 -0.7324823958
H  -0.7753581397  1.5027510809  1.3598165236
H  -2.3417641529  0.7103347097  1.5198530067
H   2.9906468750  0.0940897456  1.4505233963
H   1.9852697818  0.7451366232 -2.0972546902
H   2.2531165115 -1.4320463682  0.9324379004
H   1.3947623445 -0.3557881174  2.0389650679
H   3.3491191615  0.7952052751 -0.9802731005
H   2.6501460559 -0.7600059737 -1.4651213369
22
Image 48  Energy = -383.6551681820
C  -0.8722589733 -0.4614926512  0.4432360578
C   1.4507659286  0.3096842183 -0.0389599362
C  -1.4963948342  0.8753348331  0.8343036800
C   2.0518771369 -0.3885072059  1.1699944741
C   2.4204946027  0.2800375685 -1.2101172447
N   0.2330999821 -0.3637907424 -0.4889990056
N  -1.9072525419 -1.2304951093 -0.2523851750
O  -1.9231710573  1.5777170670 -0.3194174931
H  -2.4209812974  0.9478591549 -0.8447631463
H  -0.1067555725  0.1028310265 -1.3226279945
H  -0.5190892856 -0.9572854511  1.3502661896
H   1.2645132805  1.3604941443  0.2201678346
H  -2.5965459346 -1.5782241092  0.3967470750
H  -1.4699138462 -2.0196043928 -0.7207237191
H  -0.7725729199  1.5035557164  1.3534881629
H  -2.3373938705  0.6981399906  1.5201181438
H   2.9946369850  0.0872473126  1.4430416867
H   1.9868211762  0.7568284850 -2.0882089086
H   2.2406828103 -1.4372493480  0.9366680556
H   1.3957625689 -0.3450386069  2.0408697067
H   3.3540370886  0.7965777808 -0.9749120432
H   2.6495469166 -0.7509798877 -1.4693250039
22
Image 49  Energy = -383.6553005059
C  -0.8725087570 -0.4618064944  0.4419522161
C   1.4512598739  0.3095725062 -0.0399283262
C  -1.4970865083  0.8755220484  0.8328288507
C   2.0511910063 -0.3878897824  1.1707525891
C   2.4218260100  0.2813253459 -1.2099580528
N   0.2337643269 -0.3643299218 -0.4882568636
N  -1.9056642127 -1.2306642982 -0.2541108361
O  -1.9213163886  1.5798753913 -0.3172494014
H  -2.4226489798  0.9446766783 -0.8461099747
H  -0.1070371754  0.1025559968 -1.3229772756
H  -0.5181942090 -0.9578809822  1.3504379626
H   1.2659208272  1.3616722255  0.2207582564
H  -2.5982963107 -1.5775759141  0.3975809233
H  -1.4713572604 -2.0202453207 -0.7191144363
H  -0.7729026852  1.5032831669  1.3541290623
H  -2.3364553458  0.6982266693  1.5201437012
H   2.9947039700  0.0866159659  1.4432799997
H   1.9866379585  0.7580855963 -2.0888453436
H   2.2395464319 -1.4371411734  0.9365327578
H   1.3957764678 -0.3449564682  2.0411376249
H   3.3536391812  0.7966109997 -0.9748595216
H   2.6491101227 -0.7518924424 -1.4696625160
22
Image 50  Energy = -383.6553401220
C  -0.8715902289 -0.4627792268  0.4405828471
C   1.4520796022  0.3100236773 -0.0404377873
C  -1.4966965099  0.8750832658  0.8315478602
C   2.0506902618 -0.3880048200  1.1712489652
C   2.4233963736  0.2828275189 -1.2102955912
N   0.2352297119 -0.3654461075 -0.4889625010
N  -1.9055643769 -1.2298875051 -0.2545070758
O  -1.9221548022  1.5797080023 -0.3172879595
H  -2.4234544019  0.9414575106 -0.8453483003
H  -0.1057214804  0.1006137445 -1.3246350226
H  -0.5161392248 -0.9590532888  1.3496077253
H   1.2648377631  1.3625187120  0.2217930928
H  -2.6011216348 -1.5714354082  0.3975519455
H  -1.4748862353 -2.0227257032 -0.7153246331
H  -0.7726398738  1.5030986775  1.3530687074
H  -2.3346593276  0.6962811631  1.5201401042
H   2.9953552517  0.0847123952  1.4423380166
H   1.9865543505  0.7616606205 -2.0880824699
H   2.2367315844 -1.4381138882  0.9372804509
H   1.3962964868 -0.3427574538  2.0421314801
H   3.3542886368  0.7975186518 -0.9732323164
H   2.6490764218 -0.7516607415 -1.4707161450
22
Image 51  Energy = -383.6553957808
C  -0.8683697376 -0.4645350500  0.4378532056
C   1.4533324042  0.3108454292 -0.0410620763
C  -1.4947971325  0.8734885297  0.8290593712
C   2.0498035171 -0.3887138395  1.1717090687
C   2.4263762272  0.2864589842 -1.2106000192
N   0.2387701486 -0.3684101757 -0.4918089821
N  -1.9060000366 -1.2271068395 -0.2549556109
O  -1.9257157077  1.5775600963 -0.3177219898
H  -2.4250773834  0.9338320351 -0.8429973735
H  -0.1014377020  0.0950684273 -1.3292499569
H  -0.5109442884 -0.9619187486  1.3466886204
H   1.2598521368  1.3629657710  0.2240388070
H  -2.6089872323 -1.5536314505  0.3974006031
H  -1.4840724277 -2.0298264474 -0.7052927672
H  -0.7713404210  1.5030941266  1.3488724510
H  -2.3300192764  0.6902533933  1.5200203749
H   2.9976277397  0.0793165808  1.4391470726
H   1.9870650645  0.7711888449 -2.0849726779
H   2.2292746205 -1.4410780998  0.9399391473
H   1.3982630757 -0.3359173305  2.0445773515
H   3.3566834516  0.8000001215 -0.9684351376
H   2.6496213211 -0.7492945468 -1.4737481033
22
Image 52  Energy = -383.6554476152
C  -0.8660059028 -0.4646865529  0.4353601918
C   1.4529173690  0.3097763410 -0.0423709057
C  -1.4924421446  0.8730265650  0.8274172566
C   2.0495094162 -0.3888366179  1.1714995995
C   2.4284924936  0.2903561978 -1.2099313499
N   0.2411530159 -0.3726208327 -0.4933000864
N  -1.9081615901 -1.2255519121 -0.2556729818
O  -1.9311684077  1.5757827016 -0.3168314215
H  -2.4248355199  0.9285915044 -0.8412494523
H  -0.0993633211  0.0903617577 -1.3321912829
H  -0.5077236711 -0.9644981729  1.3437086473
H   1.2539863734  1.3605036696  0.2257643285
H  -2.6157609947 -1.5410818732  0.3954914008
H  -1.4924987960 -2.0355123119 -0.6956745240
H  -0.7692901412  1.5040535293  1.3438094043
H  -2.3249195864  0.6864285814  1.5196515088
H   3.0003822755  0.0737018694  1.4369242715
H   1.9895825607  0.7793662771 -2.0830107019
H   2.2239950855 -1.4428627441  0.9431478225
H   1.4022844432 -0.3293843257  2.0463944919
H   3.3578664992  0.8024955803 -0.9637082616
H   2.6519089120 -0.7457694170 -1.4767665866
22
Image 53  Energy = -383.6554962208
C  -0.8636128920 -0.4668603816  0.4324550639
C   1.4526296727  0.3078115123 -0.0429373082
C  -1.4882710623  0.8718463244  0.8244506715
C   2.0500783274 -0.3894238235  1.1704458796
C   2.4305875636  0.2959323255 -1.2095329840
N   0.2434619890 -0.3794906685 -0.4991855962
N  -1.9111154611 -1.2202648614 -0.2565966742
O  -1.9405470337  1.5736670778 -0.3145724071
H  -2.4247268075  0.9191233196 -0.8395528378
H  -0.0955316202  0.0811286807 -1.3357560919
H  -0.5035067663 -0.9680966655  1.3377384193
H   1.2429644957  1.3546277259  0.2280848856
H  -2.6286936585 -1.5202797125  0.3928888529
H  -1.5060076923 -2.0469978904 -0.6799970458
H  -0.7645046165  1.5069252112  1.3348245760
H  -2.3159813120  0.6802077476  1.5200275337
H   3.0058372409  0.0639753581  1.4325862585
H   1.9954467222  0.7931431811 -2.0791799553
H   2.2151517241 -1.4458306268  0.9491882862
H   1.4094457658 -0.3176777899  2.0498936760
H   3.3602056754  0.8074051730 -0.9548313772
H   2.6565981276 -0.7372313962 -1.4819804680
22
Image 54  Energy = -383.6555339356
C  -0.8650511128 -0.4669128969  0.4321656333
C   1.4517218787  0.3061470313 -0.0432511036
C  -1.4875813715  0.8725154353  0.8252324603
C   2.0510475606 -0.3896045042  1.1704761573
C   2.4300616776  0.2964815660 -1.2088680319
N   0.2424507648 -0.3813300038 -0.4980278985
N  -1.9124571414 -1.2216712994 -0.2568624942
O  -1.9423035727  1.5739801633 -0.3142733283
H  -2.4234417893  0.9204034262 -0.8405306947
H  -0.0973971505  0.0814623180 -1.3358621241
H  -0.5055683490 -0.9677292100  1.3376322524
H   1.2414612821  1.3521824456  0.2274688162
H  -2.6289574236 -1.5226065675  0.3917964704
H  -1.5057710947 -2.0464414709 -0.6798725756
H  -0.7629697880  1.5082423411  1.3337695174
H  -2.3152394488  0.6818170929  1.5214626785
H   3.0071486877  0.0637381401  1.4322127345
H   1.9977652784  0.7929049151 -2.0798084945
H   2.2162869644 -1.4456875585  0.9499993272
H   1.4110289963 -0.3171675912  2.0499174589
H   3.3591263116  0.8079757036 -0.9539035159
H   2.6585472186 -0.7350596605 -1.4824118845
