245
Image 0  Energy = -33.8989210380
Cu  1.6651084154  2.5953048279  5.3683706160
Cu -1.5189281216  4.5264547045  7.6891828131
Cu  4.6087966861  0.9093181325  9.8912495155
Cu  1.3989576000  2.7473540684  12.5917073845
Cu -1.4055705029  5.8223623264  14.9345412998
Cu  0.2758735942  0.5008852896  5.4460963471
Cu  3.3817901227  2.0359529495  7.4458148911
Cu  0.0210912321  3.6193090492  10.0407531715
Cu -0.4371587377 -0.1261045263  12.5044040936
Cu  1.5779623293  1.5563146597  14.9017352268
Cu  2.7930430402  0.3536426859  5.4255209287
Cu  0.1508968733  1.9781345285  7.7052321926
Cu  3.1353096910  3.6489965395  10.0756487116
Cu  2.6724634660  0.1740082595  12.9190933693
Cu -0.8558607149  1.3119463307  14.7820803335
Cu -0.7699246443  3.1308664765  5.4036450472
Cu  1.7887072479  4.5246455936  7.4651707495
Cu  1.6829578986  1.0936489689  10.1629984934
Cu -1.7237418189  2.2540647212  12.6656595748
Cu -0.1146689526  3.6627483510  14.4805608544
Cu  7.6524871489  1.7058999097  5.1956435680
Cu  4.6453886380  4.4981983900  7.5034406365
Cu  10.6355796036  1.1258805416  9.9691515924
Cu  7.5215055785  2.8336413649  12.2924430412
Cu  4.8099863164  5.1206235219  14.7672369226
Cu  6.3447199463 -0.3249716237  5.3523016325
Cu  9.1442677016  2.2168140316  7.3083855796
Cu  6.2901472413  3.8280964039  10.0303205665
Cu  5.7735643234  0.2626126769  12.8181413631
Cu  9.1585708014  1.8959642850  14.6367537308
Cu  8.8120360277 -0.4173643261  5.2539276182
Cu  6.2588075097  1.9901316488  7.4534066439
Cu  8.8704307170  3.9330388000  10.0044904341
Cu  8.9445568708  0.2852515087  12.3273756783
Cu  6.7361483789  2.1296233060  14.7577002694
Cu  6.2330031142  3.8356196687  5.5859356727
Cu  7.5471039855  4.6394016613  8.0064163401
Cu  7.4499137411  1.1478600996  10.0061206737
Cu  4.8180606034  3.0532721181  12.6028340348
Cu  8.0243687538  4.4566894283  14.7831835627
Cu  13.9181240163  2.5579379263  5.2042282988
Cu  10.5588067763  4.7383632214  7.3448734639
Cu  16.5850438713  0.9563264478  10.0822706259
Cu  13.7997081394  2.8654987645  12.7531873421
Cu  10.5949771261  4.7401959254  14.7165081737
Cu  12.5590706637  0.5506984208  5.1804993678
Cu  14.9823669634  1.9245967065  7.5590595616
Cu  12.0508509384  3.7347056998  9.8495632466
Cu  12.3011779267  0.2644170463  12.2610234732
Cu  14.8107661845  1.1668981527  14.5238331073
Cu  15.0500641455  0.3688507535  5.3960551937
Cu  11.9082096382  2.2328998354  7.1047082807
Cu  15.1510897465  3.6283244770  9.9192807534
Cu  15.2264452240 -0.1952944369  12.3246631124
Cu  12.2953672026  1.4044120153  14.6545315217
Cu  8.8331145744  4.0514808340  5.4671986158
Cu  13.9039365686  4.4263998417  7.2449653123
Cu  13.5006228303  1.2521975629  9.9540127297
Cu  10.7734764635  2.8825429644  12.5405514286
Cu  15.6269953296  3.5741157739  14.5759584327
Cu -1.1219305491  7.6616347708  5.2978754930
Cu -4.6135315692  9.6729535124  7.2709389271
Cu  1.5133633987  6.3400994251  10.0786574097
Cu -1.6272429902  8.1435448620  12.4286760251
Cu -4.3962983406  10.2278014852  14.6353419771
Cu -2.1708930952  5.3724744570  5.2369365684
Cu -0.0599724066  7.2757875821  7.6972130404
Cu -3.0784042830  8.9482780039  10.0655862117
Cu -3.0118917273  5.5062560116  12.8764288311
Cu -0.2362124806  7.9593390631  14.7699022494
Cu  0.2730790492  5.5242114148  5.3562363687
Cu -3.0572847629  7.2615547581  7.3192966680
Cu -0.0583064109  9.0101593489  10.0805817981
Cu  0.0545625322  5.5011048119  12.6704944222
Cu -2.7879866774  7.8576964632  14.7964931599
Cu -4.6414599012  6.2746904628  5.4982828317
Cu -1.6437683935  9.7034663396  7.4266787595
Cu -1.6171345511  6.3221190586  10.1015221184
Cu -4.6501290462  8.0937440737  12.7112600507
Cu -1.5665580444  10.2054027647  14.6917812685
Cu  4.4181468558  8.2540516236  5.4272029689
Cu  1.5185556219  10.0878120982  7.6651047868
Cu  7.5360719100  6.1336549996  10.0383914415
Cu  4.4426355010  8.2082609981  12.3654760165
Cu  1.1772731436  10.3119810273  14.7255281228
Cu  3.3944611077  5.9502936449  5.3191229541
Cu  6.0010588319  7.0538097658  7.7588789887
Cu  3.0615921392  9.0425092451  10.1347111455
Cu  2.9795747577  5.4223459213  12.8522558452
Cu  6.6248668694  6.7355715998  14.8265044756
Cu  5.8637349472  6.3379217182  5.0435019364
Cu  2.9865149045  7.3049679876  7.6705075678
Cu  6.1398852801  9.0235118667  10.2424405741
Cu  6.0930603255  5.5232425114  12.3906653567
Cu  3.4917551432  7.3399172582  14.7268403030
Cu  1.5918602184  7.7222792096  5.3023055792
Cu  4.4798958577  10.0981603316  7.5900341612
Cu  4.4580858848  6.1999027318  10.1311837655
Cu  1.6202823466  8.2183390822  12.7284060212
Cu  5.5737849111  8.8289473334  14.5037520320
Cu  9.9502618565  8.5120669963  5.2364697404
Cu  7.5103749500  9.8906195265  7.8805804009
Cu  13.6523348965  6.3037200869  9.9591271020
Cu  10.7446127966  8.1369515859  12.3728290592
Cu  7.5276587118  10.4038203390  14.5366847278
Cu  8.5667706305  6.5443657225  4.8485801234
Cu  12.0868059575  7.3619357543  7.2776695221
Cu  8.9801777184  8.9935825462  10.2104418609
Cu  9.3273986844  5.4397011062  12.3406928487
Cu  11.7061432370  7.2331464209  14.7218927155
Cu  10.9308118681  6.2884934929  5.2296946245
Cu  9.0252589520  7.1587634296  7.6883116592
Cu  12.0436823571  8.9640426996  10.0914744020
Cu  12.3834315431  5.3951772268  12.9066411137
Cu  9.1752166665  6.7456168927  14.6893291505
Cu  7.2895519746  8.6838554067  5.3646405757
Cu  10.5776042475  10.0835210510  7.5006710128
Cu  10.8392679781  6.2840427612  10.0504348967
Cu  7.6596996160  8.3103379298  12.9958490814
Cu  9.6129530549  9.0864692591  14.4409490853
Cu -4.2531986776  13.1184583292  5.4362020737
Cu -7.4183131009  15.2759261545  7.6855398904
Cu -1.6892987500  11.7309518468  10.0491526932
Cu -4.7435454346  13.7558970816  12.8332953390
Cu -8.3767662712  15.0135307060  14.7946647778
Cu -5.7724097839  11.1287798584  5.3462272239
Cu -3.2363904801  12.3197105672  7.7856105415
Cu -5.8517525312  14.4881011725  9.9280550458
Cu -6.1541155625  10.9756755670  12.5375787935
Cu -3.2259004481  12.3850192011  14.6973862389
Cu -3.1445418560  10.8996391717  5.3711382773
Cu -6.1784700202  12.4659309712  7.7124195649
Cu -3.3216743390  14.4360320916  9.8642061878
Cu -3.2293367919  11.0827914319  12.3486685760
Cu -5.8123958607  12.3090948904  14.7471712200
Cu -6.6924152191  13.5418291109  5.3622348028
Cu -4.5737924589  15.1749954056  7.7932977331
Cu -4.7341021289  11.7860097688  10.0534749994
Cu -7.6461215727  13.3688957617  12.6610512564
Cu -4.8929046308  17.1877451117  14.5106214062
Cu  0.9784047486  13.0099939240  5.2303852695
Cu -1.5475509666  15.1284225935  7.7184951085
Cu  4.6097214844  11.8636396275  10.1949241450
Cu  1.5550696380  13.4420882005  12.3127786847
Cu -1.2817330557  15.5673182883  14.7142595274
Cu -0.0515926601  10.8555401463  5.4371239893
Cu  3.3728401214  12.6043933583  7.8319633247
Cu -0.0360926939  14.3154608512  9.9893828370
Cu -0.0842451073  10.8277065719  12.3898354848
Cu  2.4571930367  12.4875814824  14.6815643276
Cu  2.5466856726  11.0779234442  5.4550555923
Cu  0.0082523680  12.5990104929  7.7517830548
Cu  3.3043264673  14.1454189569  10.1323788807
Cu  3.1345262015  10.7859357843  12.6320978070
Cu -0.0177684539  12.5277783695  14.6589064257
Cu -1.5983484732  13.0453849911  5.3707587310
Cu  1.6162894206  15.1076747161  7.3547086143
Cu  1.7133872068  11.7413135240  10.1104845231
Cu -1.7225689529  13.6029010957  12.6012448868
Cu  1.5204822725  14.9595864750  14.6639024127
Cu  7.5734689235  13.1396256422  5.5357979770
Cu  4.5164808951  15.2237675261  7.5147802585
Cu  10.5676244511  11.7148078093  10.1297706033
Cu  7.4251924624  13.2683452763  12.3580133541
Cu  4.2770015275  14.9364027050  14.5580734750
Cu  6.2037676851  10.9468447552  5.5197400944
Cu  9.0340938248  12.5546057736  7.6742611123
Cu  5.8874044936  13.9835354011  10.2178090425
Cu  6.2634255564  10.9247305666  12.3782786960
Cu  8.6586169468  12.6055258751  14.5403993877
Cu  8.6678611868  10.9016709527  5.5128204546
Cu  6.1334281031  12.5046914510  7.6624416857
Cu  8.9881477509  14.1993662738  10.1801069205
Cu  8.8286982227  10.9312314995  12.4016053707
Cu  6.1774385202  12.5325533192  14.5077708921
Cu  3.2783242287  13.8570233660  5.6452413089
Cu  7.5656519721  15.0842620694  7.4483961916
Cu  7.5296831289  11.6629985982  10.4566386985
Cu  4.5988583227  13.3022730393  12.2851883803
Cu  7.2320839594  14.8004821581  14.4447472705
O   1.9956240434  4.5550724606  5.5550833327
O   1.8282901416  1.3152803782  8.3126214045
O  -1.5390765722  2.7581667612  10.7404361503
O   1.4574525572  4.4633776722  13.4168505626
O  -1.5149363815  2.6990496384  7.1815471671
O   1.5758541501  4.5497175470  9.3895638668
O   1.2323042838  0.9554907116  11.9636569040
O   7.3635677166  5.0080344457  4.6258203986
O   7.8200995421  1.1884902865  8.1868278261
O   4.6838918801  2.7659102671  10.7029132486
O   7.6976412880  4.6341608861  12.8174167654
O   4.8454941334  2.8689989123  6.5393350661
O   7.2507726809  0.9962790196  11.8488952105
O   4.9773695477  3.1570349251  14.5715640005
O   14.1982294786  4.5087796096  5.2940605674
O   13.2631858632  1.2472638588  8.1086484409
O   10.5166745791  2.9222836011  10.6300023497
O   13.8350076255  4.4880210659  13.7371468077
O   10.4223776143  3.1778971527  6.2863890605
O   13.6368809062  4.5643465863  9.1674158237
O   13.8649811407  1.2253198460  11.7776327926
O   10.9017639676  2.7869613703  14.4578690955
O  -1.5796995380  9.6166322336  5.5121221363
O  -1.6276487236  6.3519784324  8.2281227437
O  -4.6036264169  8.0379602916  10.7678499201
O  -1.7322924426  10.0082672229  12.6744117700
O  -4.5659725590  8.0164580039  6.3509000833
O  -1.5926824642  9.9166155253  9.3454655132
O  -1.5237032476  6.2959679385  11.9697673707
O  -4.7325168315  8.2776230830  14.6133333866
O   4.3369438094  10.2144238602  5.6755619924
O   4.4055714314  6.2012102799  8.2708570887
O   1.4961271972  8.1207905430  10.7982851603
O   4.7195361918  9.9488830028  13.1176744456
O   1.4507742238  8.2860575684  7.1906210472
O   4.6190089926  9.9628606411  9.5063402979
O   4.4234461530  6.3405604431  11.9806435942
O   1.6938866001  8.3737178796  14.6268985038
O   10.5869565462  10.3226753858  5.5950134810
O   10.6974999721  6.4255445220  8.1902649803
O   7.5640497626  7.9552811481  10.9689511506
O   10.5062927817  9.9606468633  12.9211967796
O   7.4608386001  8.0976410437  7.3039648638
O   10.5021640686  9.9042839783  9.4316356741
O   10.9695977736  6.2845310486  11.9139566813
O  -4.6264084333  15.0774128926  5.7560803478
O  -4.7676550591  11.3067027727  8.2534642339
O  -7.5084172365  13.5332836274  10.7478835214
O  -4.8417900502  15.3632042692  13.8376473420
O  -7.6437111062  13.5051333703  7.0802093187
O  -4.7526379365  12.1100260630  11.8765843573
O  -7.6450140731  13.1739046237  14.5810146125
O   1.6917200327  14.9949761215  5.3779688570
O   1.6699392134  11.8664691194  8.2679503142
O  -1.6905629257  13.5558651472  10.6776638296
O   1.5226520571  15.2707487280  12.6854026435
O  -1.6947790205  13.2903393854  7.3938192373
O   1.5968986471  15.0966976249  9.2865018602
O   1.5735681722  11.5924281866  11.9470652677
O  -1.6602224783  13.6236654466  14.5221121954
O   7.6808355412  15.1480307431  5.5347084063
O   7.5912976333  11.6658447554  8.5261394087
O   4.7645573422  13.4613047453  6.8066477516
O   7.4304889201  14.9527725059  9.3588996401
O   4.3061979539  13.0142159543  14.2932953025
