245
Lattice="18.1916 0.0 0.0 -9.095799999999997 15.754387735484997 0.0 0.0 0.0 24.9023" Properties=species:S:1:pos:R:3 pbc="T T T"
Cu       1.49625910       2.88620383       5.08878501
Cu      -1.53564391       4.63667385       7.56432265
Cu       4.52816211       1.13573381      10.04010931
Cu       1.49625910       2.88620383      12.51564696
Cu      -1.53564391       4.63667385      14.99118460
Cu      -0.01982884       0.26057757       5.08878501
Cu       3.01207417       2.01104759       7.56432265
Cu      -0.01982884       3.76151762      10.04010931
Cu      -0.01982884       0.26057757      12.51564696
Cu       3.01207417       2.01104759      14.99118460
Cu       3.01216513       0.26057757       5.08878501
Cu      -0.01973789       2.01104759       7.56432265
Cu       3.01216513       3.76151762      10.04010931
Cu       3.01216513       0.26057757      12.51564696
Cu      -0.01973789       2.01104759      14.99118460
Cu      -1.53573487       2.88620383       5.08878501
Cu       1.49616814       4.63667385       7.56432265
Cu       1.49616814       1.13573381      10.04010931
Cu      -1.53573487       2.88620383      12.51564696
Cu       1.49616814       4.63667385      14.99118460
Cu       7.56006513       2.88620383       5.08878501
Cu       4.52816211       4.63667385       7.56432265
Cu      10.59196814       1.13573381      10.04010931
Cu       7.56006513       2.88620383      12.51564696
Cu       4.52816211       4.63667385      14.99118460
Cu       6.04397718       0.26057757       5.08878501
Cu       9.07606211       2.01104759       7.56432265
Cu       6.04397718       3.76151762      10.04010931
Cu       6.04397718       0.26057757      12.51564696
Cu       9.07606211       2.01104759      14.99118460
Cu       9.07597116       0.26057757       5.08878501
Cu       6.04406814       2.01104759       7.56432265
Cu       9.07597116       3.76151762      10.04010931
Cu       9.07597116       0.26057757      12.51564696
Cu       6.04406814       2.01104759      14.99118460
Cu       4.52807116       2.88620383       5.08878501
Cu       7.56015609       4.63667385       7.56432265
Cu       7.55997417       1.13573381      10.04010931
Cu       4.52807116       2.88620383      12.51564696
Cu       7.56015609       4.63667385      14.99118460
Cu      13.62387116       2.88620383       5.08878501
Cu      10.59196814       4.63667385       7.56432265
Cu      16.65577417       1.13573381      10.04010931
Cu      13.62387116       2.88620383      12.51564696
Cu      10.59196814       4.63667385      14.99118460
Cu      12.10796513       0.26057757       5.08878501
Cu      15.13986814       2.01104759       7.56432265
Cu      12.10796513       3.76151762      10.04010931
Cu      12.10796513       0.26057757      12.51564696
Cu      15.13986814       2.01104759      14.99118460
Cu      15.13977718       0.26057757       5.08878501
Cu      12.10787417       2.01104759       7.56432265
Cu      15.13977718       3.76151762      10.04010931
Cu      15.13977718       0.26057757      12.51564696
Cu      12.10787417       2.01104759      14.99118460
Cu      10.59205910       2.88620383       5.08878501
Cu      13.62396211       4.63667385       7.56432265
Cu      13.62396211       1.13573381      10.04010931
Cu      10.59205910       2.88620383      12.51564696
Cu      13.62396211       4.63667385      14.99118460
Cu      -1.53573487       8.13777144       5.08878501
Cu      -4.56763789       9.88824146       7.56432265
Cu       1.49625910       6.38714388      10.04010931
Cu      -1.53573487       8.13777144      12.51564696
Cu      -4.56763789       9.88824146      14.99118460
Cu      -3.05173186       5.51198764       5.08878501
Cu      -0.01982884       7.26245766       7.56432265
Cu      -3.05173186       9.01292768      10.04010931
Cu      -3.05173186       5.51198764      12.51564696
Cu      -0.01982884       7.26245766      14.99118460
Cu      -0.01973789       5.51198764       5.08878501
Cu      -3.05164090       7.26245766       7.56432265
Cu      -0.01973789       9.01292768      10.04010931
Cu      -0.01973789       5.51198764      12.51564696
Cu      -3.05164090       7.26245766      14.99118460
Cu      -4.56772884       8.13777144       5.08878501
Cu      -1.53582583       9.88824146       7.56432265
Cu      -1.53573487       6.38714388      10.04010931
Cu      -4.56772884       8.13777144      12.51564696
Cu      -1.53582583       9.88824146      14.99118460
Cu       4.52807116       8.13777144       5.08878501
Cu       1.49616814       9.88824146       7.56432265
Cu       7.56006513       6.38714388      10.04010931
Cu       4.52807116       8.13777144      12.51564696
Cu       1.49616814       9.88824146      14.99118460
Cu       3.01207417       5.51198764       5.08878501
Cu       6.04415910       7.26245766       7.56432265
Cu       3.01207417       9.01292768      10.04010931
Cu       3.01207417       5.51198764      12.51564696
Cu       6.04415910       7.26245766      14.99118460
Cu       6.04406814       5.51198764       5.08878501
Cu       3.01216513       7.26245766       7.56432265
Cu       6.04406814       9.01292768      10.04010931
Cu       6.04406814       5.51198764      12.51564696
Cu       3.01216513       7.26245766      14.99118460
Cu       1.49607718       8.13777144       5.08878501
Cu       4.52816211       9.88824146       7.56432265
Cu       4.52807116       6.38714388      10.04010931
Cu       1.49607718       8.13777144      12.51564696
Cu       4.52816211       9.88824146      14.99118460
Cu      10.59187718       8.13777144       5.08878501
Cu       7.55997417       9.88824146       7.56432265
Cu      13.62387116       6.38714388      10.04010931
Cu      10.59187718       8.13777144      12.51564696
Cu       7.55997417       9.88824146      14.99118460
Cu       9.07606211       5.51198764       5.08878501
Cu      12.10796513       7.26245766       7.56432265
Cu       9.07606211       9.01292768      10.04010931
Cu       9.07606211       5.51198764      12.51564696
Cu      12.10796513       7.26245766      14.99118460
Cu      12.10787417       5.51198764       5.08878501
Cu       9.07597116       7.26245766       7.56432265
Cu      12.10787417       9.01292768      10.04010931
Cu      12.10787417       5.51198764      12.51564696
Cu       9.07597116       7.26245766      14.99118460
Cu       7.56006513       8.13777144       5.08878501
Cu      10.59196814       9.88824146       7.56432265
Cu      10.59205910       6.38714388      10.04010931
Cu       7.56006513       8.13777144      12.51564696
Cu      10.59196814       9.88824146      14.99118460
Cu      -4.56763789      13.38918150       5.08878501
Cu      -7.59954090      15.13965153       7.56432265
Cu      -1.53573487      11.63871148      10.04010931
Cu      -4.56763789      13.38918150      12.51564696
Cu      -7.59954090      15.13965153      14.99118460
Cu      -6.08363487      10.76339770       5.08878501
Cu      -3.05173186      12.51386772       7.56432265
Cu      -6.08363487      14.26433774      10.04010931
Cu      -6.08363487      10.76339770      12.51564696
Cu      -3.05173186      12.51386772      14.99118460
Cu      -3.05164090      10.76339770       5.08878501
Cu      -6.08354391      12.51386772       7.56432265
Cu      -3.05164090      14.26433774      10.04010931
Cu      -3.05164090      10.76339770      12.51564696
Cu      -6.08354391      12.51386772      14.99118460
Cu      -7.59963186      13.38918150       5.08878501
Cu      -4.56772884      15.13965153       7.56432265
Cu      -4.56772884      11.63871148      10.04010931
Cu      -7.59963186      13.38918150      12.51564696
Cu      -4.56772884      15.13965153      14.99118460
Cu       1.49616814      13.38918150       5.08878501
Cu      -1.53573487      15.13965153       7.56432265
Cu       4.52807116      11.63871148      10.04010931
Cu       1.49616814      13.38918150      12.51564696
Cu      -1.53573487      15.13965153      14.99118460
Cu      -0.01982884      10.76339770       5.08878501
Cu       3.01225609      12.51386772       7.56432265
Cu      -0.01982884      14.26433774      10.04010931
Cu      -0.01982884      10.76339770      12.51564696
Cu       3.01225609      12.51386772      14.99118460
Cu       3.01216513      10.76339770       5.08878501
Cu      -0.01973789      12.51386772       7.56432265
Cu       3.01216513      14.26433774      10.04010931
Cu       3.01216513      10.76339770      12.51564696
Cu      -0.01973789      12.51386772      14.99118460
Cu      -1.53582583      13.38918150       5.08878501
Cu       1.49625910      15.13965153       7.56432265
Cu       1.49607718      11.63871148      10.04010931
Cu      -1.53582583      13.38918150      12.51564696
Cu       1.49625910      15.13965153      14.99118460
Cu       7.55997417      13.38918150       5.08878501
Cu       4.52807116      15.13965153       7.56432265
Cu      10.59187718      11.63871148      10.04010931
Cu       7.55997417      13.38918150      12.51564696
Cu       4.52807116      15.13965153      14.99118460
Cu       6.04415910      10.76339770       5.08878501
Cu       9.07606211      12.51386772       7.56432265
Cu       6.04415910      14.26433774      10.04010931
Cu       6.04415910      10.76339770      12.51564696
Cu       9.07606211      12.51386772      14.99118460
Cu       9.07597116      10.76339770       5.08878501
Cu       6.04406814      12.51386772       7.56432265
Cu       9.07597116      14.26433774      10.04010931
Cu       9.07597116      10.76339770      12.51564696
Cu       6.04406814      12.51386772      14.99118460
Cu       4.52816211      13.38918150       5.08878501
Cu       7.56006513      15.13965153       7.56432265
Cu       7.56006513      11.63871148      10.04010931
Cu       4.52816211      13.38918150      12.51564696
Cu       7.56006513      15.13965153      14.99118460
O        1.49616814       4.63667385       5.70785618
O        1.49616814       1.13573381       8.18339383
O       -1.53573487       2.88620383      10.65893147
O        1.49616814       4.63667385      13.13446911
O       -1.53573487       2.88620383       6.94550049
O        1.49616814       4.63667385       9.42103814
O        1.49616814       1.13573381      11.89657578
O        7.56015609       4.63667385       5.70785618
O        7.55997417       1.13573381       8.18339383
O        4.52807116       2.88620383      10.65893147
O        7.56015609       4.63667385      13.13446911
O        4.52807116       2.88620383       6.94550049
O        7.55997417       1.13573381      11.89657578
O        4.52807116       2.88620383      14.37236245
O       13.62396211       4.63667385       5.70785618
O       13.62396211       1.13573381       8.18339383
O       10.59205910       2.88620383      10.65893147
O       13.62396211       4.63667385      13.13446911
O       10.59205910       2.88620383       6.94550049
O       13.62396211       4.63667385       9.42103814
O       13.62396211       1.13573381      11.89657578
O       10.59205910       2.88620383      14.37236245
O       -1.53582583       9.88824146       5.70785618
O       -1.53573487       6.38714388       8.18339383
O       -4.56772884       8.13777144      10.65893147
O       -1.53582583       9.88824146      13.13446911
O       -4.56772884       8.13777144       6.94550049
O       -1.53582583       9.88824146       9.42103814
O       -1.53573487       6.38714388      11.89657578
O       -4.56772884       8.13777144      14.37236245
O        4.52816211       9.88824146       5.70785618
O        4.52807116       6.38714388       8.18339383
O        1.49607718       8.13777144      10.65893147
O        4.52816211       9.88824146      13.13446911
O        1.49607718       8.13777144       6.94550049
O        4.52816211       9.88824146       9.42103814
O        4.52807116       6.38714388      11.89657578
O        1.49607718       8.13777144      14.37236245
O       10.59196814       9.88824146       5.70785618
O       10.59205910       6.38714388       8.18339383
O        7.56006513       8.13777144      10.65893147
O       10.59196814       9.88824146      13.13446911
O        7.56006513       8.13777144       6.94550049
O       10.59196814       9.88824146       9.42103814
O       10.59205910       6.38714388      11.89657578
O       -4.56772884      15.13965153       5.70785618
O       -4.56772884      11.63871148       8.18339383
O       -7.59963186      13.38918150      10.65893147
O       -4.56772884      15.13965153      13.13446911
O       -7.59963186      13.38918150       6.94550049
O       -4.56772884      11.63871148      11.89657578
O       -7.59963186      13.38918150      14.37236245
O        1.49625910      15.13965153       5.70785618
O        1.49607718      11.63871148       8.18339383
O       -1.53582583      13.38918150      10.65893147
O        1.49625910      15.13965153      13.13446911
O       -1.53582583      13.38918150       6.94550049
O        1.49625910      15.13965153       9.42103814
O        1.49607718      11.63871148      11.89657578
O       -1.53582583      13.38918150      14.37236245
O        7.56006513      15.13965153       5.70785618
O        7.56006513      11.63871148       8.18339383
O        4.52816211      13.38918150       6.94550049
O        7.56006513      15.13965153       9.42103814
O        4.52816211      13.38918150      14.37236245
