22
Frame 1: 1
C   -0.778126   -1.067561   0.321059
C   1.302553   0.052120   -0.028299
C   -0.971993   1.456249   0.823657
C   1.981229   -0.418433   1.250175
C   2.264033   0.435168   -1.133107
N   0.291164   -0.876821   -0.500399
N   -2.019163   -1.372006   -0.233112
O   -1.664734   1.630223   -0.401837
H   -2.258632   0.870139   -0.475899
H   0.027849   -0.678312   -1.458495
H   -0.609759   -1.367856   1.341178
H   0.681264   0.918300   0.286941
H   -2.573263   -2.057361   0.257412
H   -2.052428   -1.504542   -1.233823
H   -0.368993   2.351392   0.991747
H   -1.639609   1.294215   1.674653
H   2.764449   0.291462   1.522846
H   1.725114   0.730695   -2.037794
H   2.435593   -1.406098   1.134215
H   1.273005   -0.447224   2.080579
H   2.850345   1.298697   -0.814322
H   2.960009   -0.368806   -1.388910
22
Frame 2: 2
C   -0.7781   -1.0683   0.3210
C   1.3024   0.0522   -0.0283
C   -0.9714   1.4567   0.8236
C   1.9812   -0.4184   1.2503
C   2.2640   0.4352   -1.1331
N   0.2911   -0.8767   -0.5004
N   -2.0194   -1.3721   -0.2332
O   -1.6647   1.6302   -0.4018
H   -2.2586   0.8701   -0.4759
H   0.0279   -0.6783   -1.4585
H   -0.6098   -1.3678   1.3412
H   0.6812   0.9183   0.2870
H   -2.5733   -2.0574   0.2574
H   -2.0525   -1.5045   -1.2338
H   -0.3690   2.3515   0.9917
H   -1.6396   1.2941   1.6747
H   2.7645   0.2915   1.5229
H   1.7251   0.7307   -2.0378
H   2.4356   -1.4061   1.1342
H   1.2730   -0.4472   2.0806
H   2.8503   1.2987   -0.8143
H   2.9600   -0.3688   -1.3889
22
Frame 3: 3
C   -0.7855   -0.9615   0.3399
C   1.3185   0.0456   -0.0324
C   -1.0305   1.3956   0.8286
C   1.9853   -0.4232   1.2401
C   2.2724   0.4267   -1.1370
N   0.3002   -0.8936   -0.5028
N   -1.9983   -1.3576   -0.2253
O   -1.6693   1.6284   -0.4010
H   -2.2626   0.8713   -0.4824
H   0.0253   -0.6734   -1.4589
H   -0.6081   -1.3710   1.3379
H   0.7001   0.9181   0.2763
H   -2.5678   -2.0501   0.2608
H   -2.0445   -1.5040   -1.2318
H   -0.3702   2.3195   0.9910
H   -1.6578   1.3072   1.6827
H   2.7633   0.2882   1.5218
H   1.7277   0.7291   -2.0348
H   2.4362   -1.4061   1.1345
H   1.2742   -0.4492   2.0761
H   2.8511   1.2940   -0.8149
H   2.9603   -0.3703   -1.3897
22
Frame 4: 4
C   -0.7956   -0.8452   0.3667
C   1.3296   0.0413   -0.0394
C   -1.0795   1.3340   0.8240
C   1.9897   -0.4274   1.2337
C   2.2807   0.4212   -1.1404
N   0.3117   -0.9072   -0.5026
N   -1.9830   -1.3396   -0.2179
O   -1.6773   1.6267   -0.3967
H   -2.2724   0.8695   -0.4945
H   0.0233   -0.6677   -1.4577
H   -0.6068   -1.3694   1.3311
H   0.7278   0.9160   0.2615
H   -2.5565   -2.0372   0.2645
H   -2.0323   -1.5017   -1.2260
H   -0.3762   2.2668   0.9897
H   -1.6891   1.3192   1.6989
H   2.7629   0.2846   1.5206
H   1.7307   0.7268   -2.0321
H   2.4382   -1.4086   1.1342
H   1.2767   -0.4518   2.0690
H   2.8534   1.2887   -0.8160
H   2.9637   -0.3753   -1.3922
22
Frame 5: 5
C   -0.8134   -0.6452   0.4220
C   1.3513   0.0326   -0.0538
C   -1.1618   1.2058   0.8209
C   1.9991   -0.4340   1.2239
C   2.2970   0.4125   -1.1472
N   0.3173   -0.9158   -0.4916
N   -1.9651   -1.2889   -0.2031
O   -1.7095   1.6160   -0.3892
H   -2.2981   0.8688   -0.5290
H   0.0234   -0.6571   -1.4473
H   -0.6080   -1.3419   1.3101
H   0.7916   0.9182   0.2289
H   -2.5264   -2.0048   0.2752
H   -2.0005   -1.4926   -1.2082
H   -0.3894   2.1352   0.9874
H   -1.7521   1.3365   1.7206
H   2.7657   0.2788   1.5188
H   1.7371   0.7219   -2.0295
H   2.4439   -1.4168   1.1324
H   1.2819   -0.4581   2.0544
H   2.8627   1.2806   -0.8180
H   2.9733   -0.3880   -1.3990
22
Frame 6: 6
C   -0.8413   -0.5085   0.4630
C   1.3767   0.0221   -0.0655
C   -1.2192   1.0794   0.8120
C   2.0127   -0.4424   1.2163
C   2.3180   0.4025   -1.1577
N   0.3090   -0.8891   -0.4614
N   -1.9642   -1.2184   -0.1811
O   -1.7378   1.6075   -0.3715
H   -2.3464   0.8552   -0.5799
H   0.0238   -0.6459   -1.4324
H   -0.6141   -1.2744   1.2914
H   0.8562   0.9346   0.1974
H   -2.4892   -1.9633   0.2898
H   -1.9594   -1.4759   -1.1849
H   -0.4074   1.9737   0.9876
H   -1.8130   1.3367   1.7276
H   2.7719   0.2735   1.5176
H   1.7445   0.7163   -2.0296
H   2.4507   -1.4256   1.1301
H   1.2870   -0.4652   2.0394
H   2.8760   1.2722   -0.8211
H   2.9855   -0.4015   -1.4087
22
Frame 7: 7
C   -0.8734   -0.4668   0.4860
C   1.3975   0.0264   -0.0680
C   -1.2494   0.9978   0.8180
C   2.0292   -0.4488   1.2150
C   2.3396   0.3920   -1.1711
N   0.2817   -0.8248   -0.4258
N   -1.9967   -1.1330   -0.1706
O   -1.7925   1.5646   -0.3616
H   -2.3948   0.8605   -0.6409
H   0.0257   -0.6345   -1.4045
H   -0.6272   -1.1600   1.2842
H   0.9279   0.9639   0.1678
H   -2.4437   -1.9113   0.3125
H   -1.9057   -1.4461   -1.1442
H   -0.4301   1.7737   0.9926
H   -1.8631   1.3023   1.7075
H   2.7838   0.2683   1.5177
H   1.7547   0.7094   -2.0336
H   2.4616   -1.4395   1.1267
H   1.2932   -0.4736   2.0222
H   2.8957   1.2627   -0.8263
H   3.0061   -0.4198   -1.4250
22
Frame 8: 8
C   -0.8910   -0.6100   0.4093
C   1.3911   0.0535   -0.0493
C   -1.2252   1.0711   0.7853
C   2.0474   -0.4527   1.2218
C   2.3561   0.3763   -1.1808
N   0.2362   -0.7245   -0.3875
N   -2.1107   -1.0661   -0.1637
O   -1.8055   1.5680   -0.3315
H   -2.4920   0.8147   -0.7134
H   0.0210   -0.6155   -1.3701
H   -0.6442   -1.0482   1.3608
H   0.9896   1.0400   0.1651
H   -2.3966   -1.8544   0.3400
H   -1.8396   -1.4047   -1.0994
H   -0.4327   1.5737   1.0032
H   -1.9006   1.1942   1.6694
H   2.8128   0.2668   1.5258
H   1.7692   0.7014   -2.0510
H   2.4760   -1.4525   1.1199
H   1.2975   -0.4828   2.0141
H   2.9284   1.2514   -0.8396
H   3.0325   -0.4361   -1.4497
22
Frame 9: 9
C   -0.8948   -0.5176   0.4597
C   1.3975   0.0579   -0.0499
C   -1.2798   0.9970   0.7967
C   2.0464   -0.4510   1.2195
C   2.3546   0.3760   -1.1814
N   0.2491   -0.7506   -0.4141
N   -2.0848   -1.0631   -0.1819
O   -1.8427   1.5443   -0.3641
H   -2.4587   0.8494   -0.6970
H   0.0220   -0.6152   -1.3713
H   -0.6459   -1.0582   1.3477
H   0.9982   1.0310   0.1607
H   -2.4027   -1.8650   0.3444
H   -1.8465   -1.4077   -1.0955
H   -0.4007   1.5909   1.0100
H   -1.9055   1.2065   1.6743
H   2.8097   0.2638   1.5245
H   1.7710   0.7003   -2.0475
H   2.4760   -1.4527   1.1198
H   1.2995   -0.4833   2.0122
H   2.9265   1.2482   -0.8398
H   3.0315   -0.4372   -1.4486
22
Frame 10: 10
C   -0.9056   -0.4906   0.4620
C   1.4001   0.0620   -0.0511
C   -1.2803   0.9798   0.7892
C   2.0488   -0.4510   1.2192
C   2.3571   0.3732   -1.1816
N   0.2503   -0.7475   -0.4041
N   -2.0912   -1.0566   -0.1762
O   -1.8578   1.5388   -0.3718
H   -2.4613   0.8557   -0.7003
H   0.0174   -0.6076   -1.3796
H   -0.6506   -1.0503   1.3622
H   1.0105   1.0455   0.1625
H   -2.4003   -1.8597   0.3475
H   -1.8383   -1.4072   -1.0948
H   -0.3956   1.5658   1.0120
H   -1.9174   1.1888   1.6732
H   2.8140   0.2612   1.5262
H   1.7754   0.6979   -2.0494
H   2.4777   -1.4523   1.1176
H   1.3016   -0.4853   2.0120
H   2.9318   1.2425   -0.8444
H   3.0336   -0.4394   -1.4517
22
Frame 11: 11
C   -0.9145   -0.4969   0.4646
C   1.3971   0.0737   -0.0479
C   -1.2693   0.9882   0.7755
C   2.0499   -0.4478   1.2212
C   2.3560   0.3712   -1.1807
N   0.2498   -0.7444   -0.4054
N   -2.0995   -1.0640   -0.1780
O   -1.8645   1.5443   -0.3820
H   -2.4634   0.8589   -0.6967
H   0.0116   -0.5979   -1.3884
H   -0.6611   -1.0471   1.3853
H   1.0158   1.0664   0.1746
H   -2.4070   -1.8642   0.3505
H   -1.8373   -1.4096   -1.0956
H   -0.3805   1.5668   1.0149
H   -1.9207   1.1546   1.6663
H   2.8205   0.2577   1.5299
H   1.7819   0.6946   -2.0531
H   2.4786   -1.4486   1.1136
H   1.3045   -0.4871   2.0163
H   2.9388   1.2347   -0.8522
H   3.0332   -0.4399   -1.4542
22
Frame 12: 12
C   -0.9336   -0.4757   0.4778
C   1.3937   0.1121   -0.0368
C   -1.2720   0.9659   0.7480
C   2.0562   -0.4384   1.2224
C   2.3611   0.3598   -1.1851
N   0.2314   -0.7146   -0.4058
N   -2.1211   -1.0586   -0.1669
O   -1.8714   1.5665   -0.3929
H   -2.5004   0.8547   -0.7094
H   -0.0038   -0.5604   -1.3888
H   -0.7070   -0.9973   1.4406
H   1.0601   1.1323   0.2018
H   -2.4209   -1.8683   0.3631
H   -1.8209   -1.4158   -1.0900
H   -0.3513   1.5120   1.0189
H   -1.9369   1.0368   1.6244
H   2.8456   0.2444   1.5434
H   1.8057   0.6818   -2.0667
H   2.4827   -1.4377   1.0970
H   1.3180   -0.4951   2.0264
H   2.9716   1.2088   -0.8794
H   3.0332   -0.4496   -1.4634
22
Frame 13: 13
C   -0.9267   -0.4935   0.4739
C   1.3902   0.1199   -0.0369
C   -1.2637   0.9842   0.7505
C   2.0537   -0.4317   1.2234
C   2.3584   0.3621   -1.1839
N   0.2333   -0.7041   -0.4011
N   -2.1086   -1.0814   -0.1724
O   -1.8737   1.5547   -0.3994
H   -2.4876   0.8761   -0.6949
H   -0.0102   -0.5452   -1.3856
H   -0.7258   -0.9877   1.4401
H   1.0653   1.1395   0.2133
H   -2.4364   -1.8786   0.3595
H   -1.8337   -1.4227   -1.0811
H   -0.3595   1.5266   1.0154
H   -1.9322   1.0060   1.6099
H   2.8511   0.2397   1.5483
H   1.8115   0.6784   -2.0723
H   2.4802   -1.4295   1.0878
H   1.3249   -0.4959   2.0333
H   2.9833   1.2028   -0.8894
H   3.0259   -0.4563   -1.4600
22
Frame 14: 14
C   -0.9239   -0.4963   0.4693
C   1.3922   0.1181   -0.0366
C   -1.2672   0.9811   0.7497
C   2.0538   -0.4312   1.2228
C   2.3588   0.3630   -1.1845
N   0.2371   -0.7011   -0.4013
N   -2.1023   -1.0847   -0.1685
O   -1.8645   1.5553   -0.3930
H   -2.4882   0.8763   -0.6940
H   -0.0101   -0.5431   -1.3779
H   -0.7261   -0.9868   1.4311
H   1.0650   1.1329   0.2115
H   -2.4383   -1.8793   0.3567
H   -1.8373   -1.4263   -1.0817
H   -0.3684   1.5338   1.0143
H   -1.9334   1.0119   1.6128
H   2.8500   0.2397   1.5482
H   1.8105   0.6788   -2.0733
H   2.4785   -1.4281   1.0854
H   1.3262   -0.4952   2.0341
H   2.9852   1.2043   -0.8897
H   3.0222   -0.4597   -1.4567
22
Frame 15: 15
C   -0.9205   -0.4950   0.4639
C   1.3983   0.1247   -0.0335
C   -1.2722   0.9687   0.7462
C   2.0557   -0.4277   1.2225
C   2.3616   0.3627   -1.1869
N   0.2429   -0.6901   -0.3995
N   -2.0922   -1.0938   -0.1654
O   -1.8531   1.5564   -0.3891
H   -2.4918   0.8852   -0.6912
H   -0.0142   -0.5254   -1.3629
H   -0.7366   -0.9747   1.4240
H   1.0748   1.1346   0.2144
H   -2.4475   -1.8852   0.3555
H   -1.8443   -1.4377   -1.0803
H   -0.3857   1.5399   1.0132
H   -1.9423   0.9972   1.6113
H   2.8542   0.2368   1.5514
H   1.8142   0.6761   -2.0791
H   2.4753   -1.4225   1.0735
H   1.3333   -0.4952   2.0385
H   2.9990   1.2008   -0.8985
H   3.0112   -0.4722   -1.4498
22
Frame 16: 16
C   -0.9172   -0.4939   0.4563
C   1.4057   0.1353   -0.0308
C   -1.2797   0.9597   0.7473
C   2.0605   -0.4230   1.2236
C   2.3662   0.3627   -1.1890
N   0.2518   -0.6806   -0.3899
N   -2.0895   -1.1086   -0.1591
O   -1.8442   1.5593   -0.3911
H   -2.4985   0.8987   -0.6893
H   -0.0209   -0.4963   -1.3545
H   -0.7462   -0.9641   1.4256
H   1.0868   1.1462   0.2211
H   -2.4567   -1.8894   0.3545
H   -1.8505   -1.4564   -1.0859
H   -0.4056   1.5468   1.0158
H   -1.9553   0.9730   1.6064
H   2.8625   0.2336   1.5563
H   1.8206   0.6713   -2.0857
H   2.4720   -1.4172   1.0562
H   1.3431   -0.4951   2.0441
H   3.0188   1.1929   -0.9129
H   2.9962   -0.4914   -1.4406
22
Frame 17: 17
C   -0.9173   -0.4935   0.4583
C   1.4132   0.1497   -0.0252
C   -1.2869   0.9530   0.7457
C   2.0671   -0.4186   1.2246
C   2.3713   0.3604   -1.1915
N   0.2574   -0.6732   -0.3911
N   -2.0856   -1.1190   -0.1657
O   -1.8396   1.5622   -0.3954
H   -2.5066   0.9131   -0.6892
H   -0.0249   -0.4658   -1.3435
H   -0.7529   -0.9552   1.4304
H   1.0991   1.1618   0.2283
H   -2.4656   -1.8972   0.3589
H   -1.8569   -1.4742   -1.0876
H   -0.4233   1.5516   1.0217
H   -1.9717   0.9475   1.6020
H   2.8726   0.2308   1.5615
H   1.8279   0.6659   -2.0913
H   2.4695   -1.4130   1.0384
H   1.3529   -0.4951   2.0490
H   3.0398   1.1836   -0.9282
H   2.9806   -0.5113   -1.4315
22
Frame 18: 18
C   -0.9193   -0.4968   0.4613
C   1.4193   0.1675   -0.0191
C   -1.3000   0.9505   0.7442
C   2.0771   -0.4148   1.2251
C   2.3783   0.3552   -1.1922
N   0.2620   -0.6650   -0.3923
N   -2.0859   -1.1308   -0.1734
O   -1.8413   1.5634   -0.4015
H   -2.5184   0.9325   -0.6939
H   -0.0261   -0.4247   -1.3344
H   -0.7511   -0.9532   1.4399
H   1.1109   1.1840   0.2358
H   -2.4688   -1.9004   0.3645
H   -1.8605   -1.4981   -1.0925
H   -0.4440   1.5560   1.0367
H   -1.9967   0.9243   1.5969
H   2.8880   0.2289   1.5672
H   1.8370   0.6583   -2.0949
H   2.4678   -1.4106   1.0170
H   1.3654   -0.4945   2.0517
H   3.0661   1.1695   -0.9481
H   2.9603   -0.5377   -1.4196
22
Frame 19: 19
C   -0.9203   -0.5056   0.4634
C   1.4261   0.1918   -0.0105
C   -1.3266   0.9471   0.7569
C   2.0951   -0.4042   1.2217
C   2.3846   0.3460   -1.1885
N   0.2662   -0.6409   -0.3864
N   -2.0767   -1.1450   -0.1928
O   -1.8461   1.5679   -0.4085
H   -2.5466   0.9620   -0.7102
H   -0.0241   -0.3495   -1.3261
H   -0.7367   -0.9604   1.4452
H   1.1251   1.2184   0.2453
H   -2.4691   -1.9057   0.3762
H   -1.8619   -1.5384   -1.0909
H   -0.4872   1.5606   1.0705
H   -2.0418   0.9023   1.5796
H   2.9149   0.2225   1.5729
H   1.8530   0.6432   -2.0948
H   2.4672   -1.4068   0.9831
H   1.3885   -0.4938   2.0523
H   3.1116   1.1382   -0.9819
H   2.9249   -0.5859   -1.3979
22
Frame 20: 20
C   -0.9218   -0.5057   0.4680
C   1.4264   0.2046   -0.0047
C   -1.3395   0.9465   0.7569
C   2.1030   -0.4031   1.2185
C   2.3886   0.3360   -1.1852
N   0.2632   -0.6265   -0.3947
N   -2.0778   -1.1509   -0.1910
O   -1.8566   1.5651   -0.4097
H   -2.5575   0.9764   -0.7203
H   -0.0179   -0.3179   -1.3206
H   -0.7219   -0.9728   1.4447
H   1.1275   1.2317   0.2471
H   -2.4608   -1.8994   0.3781
H   -1.8543   -1.5578   -1.0941
H   -0.5047   1.5603   1.0928
H   -2.0682   0.9032   1.5737
H   2.9286   0.2199   1.5727
H   1.8587   0.6360   -2.0919
H   2.4684   -1.4045   0.9717
H   1.3989   -0.4934   2.0492
H   3.1296   1.1199   -0.9949
H   2.9082   -0.6040   -1.3880
22
Frame 21: 21
C   -0.9214   -0.5028   0.4677
C   1.4254   0.2096   -0.0031
C   -1.3503   0.9447   0.7571
C   2.1061   -0.4025   1.2154
C   2.3892   0.3287   -1.1813
N   0.2602   -0.6113   -0.3964
N   -2.0741   -1.1520   -0.1897
O   -1.8626   1.5635   -0.4055
H   -2.5662   0.9820   -0.7291
H   -0.0133   -0.2982   -1.3217
H   -0.7073   -0.9862   1.4364
H   1.1254   1.2361   0.2463
H   -2.4527   -1.8945   0.3798
H   -1.8436   -1.5672   -1.0895
H   -0.5173   1.5583   1.1103
H   -2.0878   0.9138   1.5688
H   2.9366   0.2167   1.5685
H   1.8608   0.6307   -2.0877
H   2.4707   -1.4018   0.9681
H   1.4058   -0.4936   2.0455
H   3.1384   1.1036   -0.9999
H   2.8979   -0.6139   -1.3815
22
Frame 22: 22
C   -0.9193   -0.4967   0.4651
C   1.4272   0.2202   0.0005
C   -1.3707   0.9405   0.7662
C   2.1111   -0.3976   1.2103
C   2.3867   0.3174   -1.1780
N   0.2581   -0.5796   -0.4003
N   -2.0630   -1.1538   -0.1863
O   -1.8732   1.5623   -0.4033
H   -2.5768   0.9943   -0.7398
H   -0.0099   -0.2574   -1.3238
H   -0.6854   -1.0030   1.4135
H   1.1258   1.2448   0.2469
H   -2.4428   -1.8904   0.3866
H   -1.8184   -1.5853   -1.0785
H   -0.5478   1.5520   1.1386
H   -2.1267   0.9257   1.5582
H   2.9502   0.2084   1.5575
H   1.8641   0.6198   -2.0832
H   2.4755   -1.3960   0.9591
H   1.4183   -0.4950   2.0444
H   3.1586   1.0713   -1.0064
H   2.8781   -0.6382   -1.3689
22
Frame 23: 23
C   -0.9165   -0.4850   0.4633
C   1.4316   0.2426   0.0048
C   -1.4084   0.9340   0.7691
C   2.1166   -0.3970   1.2067
C   2.3956   0.2974   -1.1756
N   0.2538   -0.5386   -0.4129
N   -2.0489   -1.1680   -0.1942
O   -1.8683   1.5730   -0.3948
H   -2.5978   1.0046   -0.7521
H   -0.0122   -0.1893   -1.3230
H   -0.6605   -1.0146   1.3864
H   1.1365   1.2668   0.2537
H   -2.4338   -1.8879   0.4006
H   -1.7794   -1.6121   -1.0568
H   -0.5925   1.5478   1.1761
H   -2.1884   0.9217   1.5467
H   2.9733   0.1999   1.5421
H   1.8666   0.6049   -2.0872
H   2.4802   -1.3854   0.9402
H   1.4379   -0.4967   2.0499
H   3.1924   1.0225   -1.0152
H   2.8423   -0.6768   -1.3490
22
Frame 24: 24
C   -0.9178   -0.4862   0.4594
C   1.4315   0.2358   0.0019
C   -1.4001   0.9362   0.7722
C   2.1137   -0.3958   1.2082
C   2.3918   0.3032   -1.1784
N   0.2550   -0.5453   -0.4087
N   -2.0502   -1.1639   -0.1903
O   -1.8719   1.5693   -0.3995
H   -2.5863   1.0034   -0.7449
H   -0.0155   -0.2021   -1.3262
H   -0.6665   -1.0087   1.3889
H   1.1363   1.2622   0.2531
H   -2.4368   -1.8894   0.3989
H   -1.7809   -1.6063   -1.0595
H   -0.5857   1.5471   1.1665
H   -2.1768   0.9197   1.5487
H   2.9666   0.2009   1.5420
H   1.8656   0.6075   -2.0871
H   2.4796   -1.3878   0.9447
H   1.4332   -0.4968   2.0516
H   3.1851   1.0306   -1.0095
H   2.8497   -0.6699   -1.3537
22
Frame 25: 25
C   -0.9191   -0.4850   0.4576
C   1.4323   0.2370   0.0013
C   -1.4028   0.9369   0.7748
C   2.1131   -0.3949   1.2086
C   2.3910   0.3028   -1.1808
N   0.2540   -0.5417   -0.4113
N   -2.0487   -1.1651   -0.1907
O   -1.8721   1.5701   -0.4015
H   -2.5818   1.0048   -0.7413
H   -0.0199   -0.1945   -1.3271
H   -0.6665   -1.0038   1.3871
H   1.1413   1.2654   0.2552
H   -2.4376   -1.8903   0.4011
H   -1.7721   -1.6097   -1.0572
H   -0.5909   1.5467   1.1673
H   -2.1823   0.9124   1.5474
H   2.9667   0.2003   1.5386
H   1.8662   0.6060   -2.0888
H   2.4796   -1.3878   0.9427
H   1.4344   -0.4972   2.0556
H   3.1889   1.0258   -1.0072
H   2.8462   -0.6748   -1.3528
22
Frame 26: 26
C   -0.9217   -0.4806   0.4543
C   1.4328   0.2429   0.0004
C   -1.4135   0.9370   0.7787
C   2.1124   -0.3942   1.2082
C   2.3917   0.2977   -1.1838
N   0.2498   -0.5283   -0.4182
N   -2.0453   -1.1700   -0.1924
O   -1.8712   1.5741   -0.4023
H   -2.5772   1.0079   -0.7376
H   -0.0296   -0.1675   -1.3288
H   -0.6616   -0.9952   1.3827
H   1.1541   1.2753   0.2600
H   -2.4367   -1.8898   0.4061
H   -1.7478   -1.6228   -1.0505
H   -0.6072   1.5467   1.1763
H   -2.2024   0.8956   1.5424
H   2.9704   0.1989   1.5296
H   1.8690   0.6012   -2.0930
H   2.4794   -1.3864   0.9357
H   1.4405   -0.4975   2.0635
H   3.2013   1.0085   -1.0045
H   2.8326   -0.6898   -1.3487
22
Frame 27: 27
C   -0.9251   -0.4738   0.4532
C   1.4297   0.2495   -0.0005
C   -1.4276   0.9361   0.7827
C   2.1108   -0.3940   1.2044
C   2.3912   0.2876   -1.1840
N   0.2382   -0.5029   -0.4297
N   -2.0370   -1.1754   -0.2021
O   -1.8742   1.5788   -0.3987
H   -2.5713   1.0114   -0.7372
H   -0.0443   -0.1244   -1.3302
H   -0.6501   -0.9820   1.3808
H   1.1746   1.2879   0.2649
H   -2.4326   -1.8872   0.4114
H   -1.7092   -1.6465   -1.0353
H   -0.6308   1.5489   1.1965
H   -2.2309   0.8710   1.5308
H   2.9738   0.1975   1.5147
H   1.8776   0.5946   -2.0959
H   2.4768   -1.3859   0.9274
H   1.4522   -0.4967   2.0710
H   3.2181   0.9793   -1.0014
H   2.8102   -0.7103   -1.3444
22
Frame 28: 28
C   -0.9284   -0.4605   0.4478
C   1.4235   0.2615   -0.0039
C   -1.4543   0.9350   0.7932
C   2.1068   -0.3957   1.1951
C   2.3905   0.2673   -1.1817
N   0.2182   -0.4550   -0.4445
N   -2.0252   -1.1853   -0.2077
O   -1.8779   1.5921   -0.3874
H   -2.5657   1.0123   -0.7437
H   -0.0751   -0.0395   -1.3350
H   -0.6266   -0.9569   1.3797
H   1.2122   1.3094   0.2717
H   -2.4215   -1.8747   0.4132
H   -1.6314   -1.6986   -1.0105
H   -0.6763   1.5526   1.2377
H   -2.2815   0.8260   1.5073
H   2.9778   0.1958   1.4849
H   1.8964   0.5843   -2.1003
H   2.4696   -1.3869   0.9137
H   1.4740   -0.4938   2.0822
H   3.2467   0.9223   -0.9952
H   2.7678   -0.7482   -1.3384
22
Frame 29: 29
C   -0.9260   -0.4614   0.4521
C   1.4232   0.2594   -0.0036
C   -1.4497   0.9347   0.7912
C   2.1063   -0.3973   1.1943
C   2.3912   0.2674   -1.1795
N   0.2192   -0.4587   -0.4439
N   -2.0211   -1.1838   -0.2142
O   -1.8815   1.5903   -0.3856
H   -2.5665   1.0106   -0.7481
H   -0.0722   -0.0489   -1.3315
H   -0.6273   -0.9590   1.3825
H   1.2071   1.3040   0.2682
H   -2.4223   -1.8746   0.4110
H   -1.6412   -1.6938   -1.0071
H   -0.6704   1.5528   1.2372
H   -2.2723   0.8328   1.5090
H   2.9748   0.1971   1.4871
H   1.8972   0.5879   -2.0982
H   2.4678   -1.3891   0.9176
H   1.4716   -0.4926   2.0768
H   3.2398   0.9275   -0.9957
H   2.7723   -0.7416   -1.3414
22
Frame 30: 30
C   -0.9237   -0.4594   0.4538
C   1.4227   0.2592   -0.0043
C   -1.4512   0.9340   0.7908
C   2.1051   -0.3989   1.1916
C   2.3910   0.2641   -1.1782
N   0.2177   -0.4533   -0.4453
N   -2.0157   -1.1837   -0.2177
O   -1.8857   1.5914   -0.3817
H   -2.5659   1.0090   -0.7539
H   -0.0760   -0.0405   -1.3286
H   -0.6236   -0.9562   1.3844
H   1.2090   1.3036   0.2662
H   -2.4214   -1.8714   0.4086
H   -1.6336   -1.7011   -1.0004
H   -0.6741   1.5533   1.2448
H   -2.2741   0.8305   1.5074
H   2.9727   0.1977   1.4831
H   1.9015   0.5898   -2.0971
H   2.4643   -1.3917   0.9185
H   1.4726   -0.4908   2.0743
H   3.2397   0.9217   -0.9945
H   2.7685   -0.7440   -1.3433
22
Frame 31: 31
C   -0.9188   -0.4551   0.4550
C   1.4232   0.2599   -0.0066
C   -1.4565   0.9335   0.7928
C   2.1029   -0.4014   1.1868
C   2.3913   0.2576   -1.1779
N   0.2165   -0.4423   -0.4476
N   -2.0040   -1.1836   -0.2222
O   -1.8952   1.5941   -0.3761
H   -2.5623   1.0072   -0.7648
H   -0.0853   -0.0186   -1.3229
H   -0.6158   -0.9493   1.3861
H   1.2135   1.3049   0.2628
H   -2.4216   -1.8642   0.4052
H   -1.6134   -1.7188   -0.9871
H   -0.6858   1.5532   1.2602
H   -2.2812   0.8238   1.5057
H   2.9693   0.1980   1.4736
H   1.9099   0.5940   -2.0963
H   2.4570   -1.3975   0.9189
H   1.4736   -0.4869   2.0707
H   3.2428   0.9082   -0.9911
H   2.7595   -0.7529   -1.3466
22
Frame 32: 32
C   -0.9113   -0.4442   0.4583
C   1.4284   0.2652   -0.0135
C   -1.4807   0.9314   0.7994
C   2.0976   -0.4062   1.1780
C   2.3966   0.2425   -1.1860
N   0.2128   -0.4167   -0.4630
N   -1.9776   -1.1946   -0.2314
O   -1.9097   1.6079   -0.3611
H   -2.5519   0.9991   -0.7899
H   -0.1073   0.0424   -1.3038
H   -0.5955   -0.9311   1.3852
H   1.2271   1.3129   0.2564
H   -2.4275   -1.8398   0.4018
H   -1.5514   -1.7654   -0.9521
H   -0.7216   1.5534   1.2939
H   -2.3062   0.8018   1.5083
H   2.9672   0.1947   1.4490
H   1.9274   0.6060   -2.0996
H   2.4375   -1.4111   0.9165
H   1.4702   -0.4762   2.0665
H   3.2616   0.8726   -0.9792
H   2.7344   -0.7812   -1.3551
22
Frame 33: 33
C   -0.9089   -0.4422   0.4557
C   1.4303   0.2655   -0.0180
C   -1.4849   0.9316   0.8031
C   2.0952   -0.4081   1.1757
C   2.4000   0.2395   -1.1879
N   0.2143   -0.4126   -0.4601
N   -1.9668   -1.1958   -0.2342
O   -1.9204   1.6072   -0.3596
H   -2.5435   1.0000   -0.7966
H   -0.1140   0.0606   -1.2998
H   -0.5893   -0.9272   1.3857
H   1.2288   1.3136   0.2528
H   -2.4332   -1.8321   0.4017
H   -1.5339   -1.7794   -0.9405
H   -0.7326   1.5523   1.3020
H   -2.3116   0.7975   1.5122
H   2.9665   0.1926   1.4429
H   1.9326   0.6123   -2.1009
H   2.4298   -1.4157   0.9171
H   1.4664   -0.4717   2.0628
H   3.2663   0.8633   -0.9758
H   2.7286   -0.7876   -1.3598
22
Frame 34: 34
C   -0.9093   -0.4426   0.4545
C   1.4321   0.2658   -0.0204
C   -1.4886   0.9311   0.8058
C   2.0941   -0.4077   1.1756
C   2.4025   0.2399   -1.1910
N   0.2145   -0.4113   -0.4605
N   -1.9629   -1.1987   -0.2341
O   -1.9239   1.6069   -0.3591
H   -2.5375   1.0002   -0.7983
H   -0.1151   0.0686   -1.2971
H   -0.5868   -0.9260   1.3843
H   1.2296   1.3143   0.2509
H   -2.4393   -1.8263   0.4037
H   -1.5238   -1.7862   -0.9349
H   -0.7390   1.5518   1.3022
H   -2.3148   0.7951   1.5166
H   2.9683   0.1890   1.4414
H   1.9344   0.6161   -2.1027
H   2.4254   -1.4170   0.9171
H   1.4618   -0.4688   2.0615
H   3.2718   0.8594   -0.9740
H   2.7265   -0.7899   -1.3630
22
Frame 35: 35
C   -0.9097   -0.4424   0.4536
C   1.4344   0.2669   -0.0246
C   -1.4971   0.9286   0.8102
C   2.0914   -0.4071   1.1741
C   2.4067   0.2396   -1.1954
N   0.2132   -0.4055   -0.4619
N   -1.9550   -1.2043   -0.2349
O   -1.9289   1.6088   -0.3540
H   -2.5280   0.9975   -0.8044
H   -0.1184   0.0875   -1.2929
H   -0.5806   -0.9231   1.3822
H   1.2333   1.3158   0.2469
H   -2.4511   -1.8140   0.4071
H   -1.5011   -1.8027   -0.9219
H   -0.7520   1.5520   1.3049
H   -2.3225   0.7886   1.5232
H   2.9719   0.1814   1.4380
H   1.9400   0.6233   -2.1058
H   2.4157   -1.4193   0.9170
H   1.4540   -0.4624   2.0582
H   3.2832   0.8487   -0.9710
H   2.7205   -0.7943   -1.3702
22
Frame 36: 36
C   -0.9109   -0.4430   0.4553
C   1.4372   0.2688   -0.0283
C   -1.5060   0.9227   0.8162
C   2.0870   -0.4050   1.1727
C   2.4117   0.2421   -1.1996
N   0.2096   -0.3956   -0.4663
N   -1.9465   -1.2157   -0.2377
O   -1.9369   1.6066   -0.3467
H   -2.5119   0.9937   -0.8106
H   -0.1175   0.1055   -1.2890
H   -0.5739   -0.9233   1.3795
H   1.2382   1.3166   0.2402
H   -2.4719   -1.7944   0.4117
H   -1.4770   -1.8223   -0.9000
H   -0.7655   1.5534   1.3029
H   -2.3302   0.7813   1.5326
H   2.9788   0.1658   1.4395
H   1.9492   0.6340   -2.1094
H   2.4005   -1.4199   0.9182
H   1.4414   -0.4514   2.0512
H   3.2991   0.8356   -0.9703
H   2.7154   -0.7919   -1.3834
22
Frame 37: 37
C   -0.9103   -0.4421   0.4554
C   1.4392   0.2719   -0.0324
C   -1.5162   0.9173   0.8220
C   2.0825   -0.4038   1.1695
C   2.4147   0.2423   -1.2019
N   0.2066   -0.3816   -0.4693
N   -1.9378   -1.2218   -0.2375
O   -1.9443   1.6081   -0.3346
H   -2.5003   0.9849   -0.8227
H   -0.1210   0.1302   -1.2881
H   -0.5647   -0.9222   1.3787
H   1.2461   1.3201   0.2339
H   -2.4892   -1.7740   0.4121
H   -1.4486   -1.8506   -0.8760
H   -0.7794   1.5551   1.3078
H   -2.3399   0.7710   1.5374
H   2.9833   0.1510   1.4387
H   1.9620   0.6445   -2.1110
H   2.3839   -1.4226   0.9191
H   1.4322   -0.4398   2.0441
H   3.3138   0.8179   -0.9699
H   2.7073   -0.7922   -1.3970
22
Frame 38: 38
C   -0.9087   -0.4418   0.4575
C   1.4396   0.2747   -0.0326
C   -1.5175   0.9150   0.8237
C   2.0807   -0.4035   1.1680
C   2.4146   0.2430   -1.2008
N   0.2051   -0.3746   -0.4713
N   -1.9349   -1.2228   -0.2385
O   -1.9482   1.6067   -0.3297
H   -2.4970   0.9793   -0.8276
H   -0.1212   0.1351   -1.2910
H   -0.5620   -0.9239   1.3790
H   1.2502   1.3232   0.2320
H   -2.4957   -1.7659   0.4095
H   -1.4454   -1.8617   -0.8627
H   -0.7800   1.5557   1.3099
H   -2.3415   0.7671   1.5365
H   2.9842   0.1437   1.4417
H   1.9689   0.6491   -2.1099
H   2.3762   -1.4237   0.9199
H   1.4299   -0.4341   2.0408
H   3.3171   0.8117   -0.9722
H   2.7055   -0.7885   -1.4039
22
Frame 39: 39
C   -0.9049   -0.4398   0.4594
C   1.4415   0.2817   -0.0341
C   -1.5195   0.9118   0.8273
C   2.0763   -0.4039   1.1656
C   2.4161   0.2441   -1.2008
N   0.2044   -0.3619   -0.4750
N   -1.9285   -1.2227   -0.2405
O   -1.9581   1.6023   -0.3237
H   -2.4891   0.9685   -0.8357
H   -0.1226   0.1449   -1.2958
H   -0.5558   -0.9274   1.3791
H   1.2591   1.3319   0.2293
H   -2.5103   -1.7485   0.4047
H   -1.4389   -1.8871   -0.8349
H   -0.7817   1.5551   1.3151
H   -2.3452   0.7582   1.5362
H   2.9862   0.1296   1.4476
H   1.9815   0.6609   -2.1089
H   2.3591   -1.4281   0.9211
H   1.4244   -0.4223   2.0358
H   3.3248   0.8006   -0.9755
H   2.7012   -0.7842   -1.4178
22
Frame 40: 40
C   -0.8968   -0.4397   0.4595
C   1.4483   0.2931   -0.0392
C   -1.5264   0.9091   0.8331
C   2.0712   -0.4022   1.1635
C   2.4229   0.2490   -1.2087
N   0.2068   -0.3433   -0.4794
N   -1.9200   -1.2294   -0.2430
O   -1.9732   1.5961   -0.3171
H   -2.4749   0.9475   -0.8457
H   -0.1265   0.1611   -1.3002
H   -0.5446   -0.9295   1.3731
H   1.2755   1.3491   0.2265
H   -2.5343   -1.7106   0.3962
H   -1.4277   -1.9307   -0.7858
H   -0.7883   1.5506   1.3238
H   -2.3498   0.7419   1.5390
H   2.9873   0.1054   1.4544
H   1.9992   0.6857   -2.1095
H   2.3263   -1.4381   0.9216
H   1.4115   -0.4026   2.0325
H   3.3415   0.7855   -0.9764
H   2.6917   -0.7845   -1.4399
22
Frame 41: 41
C   -0.8927   -0.4367   0.4558
C   1.4572   0.3079   -0.0452
C   -1.5331   0.9018   0.8374
C   2.0600   -0.4045   1.1618
C   2.4330   0.2516   -1.2165
N   0.2098   -0.3246   -0.4845
N   -1.9031   -1.2312   -0.2484
O   -1.9903   1.5879   -0.3111
H   -2.4570   0.9251   -0.8543
H   -0.1302   0.1790   -1.3027
H   -0.5308   -0.9319   1.3671
H   1.2943   1.3656   0.2226
H   -2.5670   -1.6694   0.3933
H   -1.4131   -1.9816   -0.7327
H   -0.7975   1.5459   1.3326
H   -2.3557   0.7239   1.5450
H   2.9922   0.0800   1.4618
H   2.0172   0.7157   -2.1128
H   2.2879   -1.4469   0.9226
H   1.3975   -0.3804   2.0271
H   3.3619   0.7693   -0.9764
H   2.6795   -0.7831   -1.4640
22
Frame 42: 42
C   -0.8930   -0.4357   0.4522
C   1.4579   0.3076   -0.0425
C   -1.5244   0.9029   0.8305
C   2.0603   -0.4065   1.1650
C   2.4331   0.2526   -1.2161
N   0.2151   -0.3353   -0.4819
N   -1.9099   -1.2263   -0.2468
O   -1.9845   1.5844   -0.3213
H   -2.4657   0.9268   -0.8427
H   -0.1272   0.1573   -1.3035
H   -0.5360   -0.9326   1.3655
H   1.2922   1.3643   0.2278
H   -2.5559   -1.6755   0.3914
H   -1.4385   -1.9666   -0.7454
H   -0.7868   1.5425   1.3290
H   -2.3464   0.7300   1.5424
H   2.9889   0.0890   1.4632
H   2.0079   0.7138   -2.1120
H   2.2930   -1.4448   0.9221
H   1.4040   -0.3869   2.0328
H   3.3527   0.7843   -0.9760
H   2.6831   -0.7816   -1.4552
22
Frame 43: 43
C   -0.8909   -0.4367   0.4520
C   1.4589   0.3072   -0.0432
C   -1.5255   0.9021   0.8316
C   2.0601   -0.4043   1.1645
C   2.4336   0.2553   -1.2173
N   0.2158   -0.3332   -0.4825
N   -1.9091   -1.2262   -0.2475
O   -1.9857   1.5837   -0.3197
H   -2.4636   0.9226   -0.8436
H   -0.1274   0.1597   -1.3036
H   -0.5340   -0.9310   1.3632
H   1.2956   1.3652   0.2271
H   -2.5607   -1.6669   0.3927
H   -1.4345   -1.9753   -0.7402
H   -0.7901   1.5409   1.3289
H   -2.3463   0.7274   1.5434
H   2.9886   0.0850   1.4624
H   2.0103   0.7180   -2.1116
H   2.2864   -1.4459   0.9221
H   1.4016   -0.3843   2.0328
H   3.3566   0.7824   -0.9753
H   2.6804   -0.7820   -1.4578
22
Frame 44: 44
C   -0.8881   -0.4373   0.4499
C   1.4606   0.3079   -0.0441
C   -1.5261   0.8999   0.8313
C   2.0582   -0.4029   1.1644
C   2.4352   0.2589   -1.2184
N   0.2181   -0.3324   -0.4830
N   -1.9073   -1.2266   -0.2501
O   -1.9864   1.5814   -0.3188
H   -2.4619   0.9150   -0.8426
H   -0.1266   0.1593   -1.3044
H   -0.5309   -0.9291   1.3599
H   1.3011   1.3659   0.2267
H   -2.5676   -1.6520   0.3953
H   -1.4342   -1.9864   -0.7324
H   -0.7929   1.5382   1.3282
H   -2.3441   0.7240   1.5447
H   2.9887   0.0801   1.4616
H   2.0123   0.7257   -2.1109
H   2.2753   -1.4468   0.9223
H   1.3989   -0.3806   2.0334
H   3.3613   0.7821   -0.9740
H   2.6761   -0.7807   -1.4605
22
Frame 45: 45
C   -0.8855   -0.4387   0.4464
C   1.4618   0.3082   -0.0443
C   -1.5245   0.8970   0.8296
C   2.0558   -0.4020   1.1649
C   2.4365   0.2633   -1.2177
N   0.2212   -0.3338   -0.4845
N   -1.9071   -1.2262   -0.2520
O   -1.9864   1.5768   -0.3199
H   -2.4618   0.9071   -0.8389
H   -0.1238   0.1543   -1.3066
H   -0.5276   -0.9276   1.3574
H   1.3061   1.3653   0.2269
H   -2.5730   -1.6338   0.3985
H   -1.4385   -1.9961   -0.7276
H   -0.7930   1.5357   1.3262
H   -2.3398   0.7209   1.5455
H   2.9893   0.0765   1.4598
H   2.0130   0.7336   -2.1084
H   2.2635   -1.4471   0.9227
H   1.3974   -0.3774   2.0345
H   3.3642   0.7843   -0.9726
H   2.6718   -0.7767   -1.4615
22
Frame 46: 46
C   -0.8806   -0.4431   0.4426
C   1.4608   0.3055   -0.0426
C   -1.5169   0.8927   0.8253
C   2.0544   -0.4005   1.1664
C   2.4357   0.2720   -1.2123
N   0.2262   -0.3429   -0.4862
N   -1.9034   -1.2268   -0.2587
O   -1.9831   1.5695   -0.3226
H   -2.4682   0.8946   -0.8320
H   -0.1157   0.1408   -1.3165
H   -0.5237   -0.9258   1.3547
H   1.3080   1.3616   0.2288
H   -2.5793   -1.6055   0.4077
H   -1.4561   -1.9993   -0.7270
H   -0.7878   1.5338   1.3189
H   -2.3300   0.7171   1.5454
H   2.9903   0.0739   1.4530
H   2.0109   0.7425   -2.0995
H   2.2490   -1.4472   0.9238
H   1.3978   -0.3742   2.0377
H   3.3641   0.7916   -0.9695
H   2.6672   -0.7668   -1.4589
22
Frame 47: 47
C   -0.8813   -0.4426   0.4415
C   1.4605   0.3064   -0.0422
C   -1.5171   0.8928   0.8251
C   2.0539   -0.4019   1.1666
C   2.4358   0.2704   -1.2118
N   0.2259   -0.3426   -0.4872
N   -1.9070   -1.2242   -0.2544
O   -1.9836   1.5687   -0.3238
H   -2.4682   0.8969   -0.8313
H   -0.1153   0.1395   -1.3156
H   -0.5241   -0.9270   1.3560
H   1.3063   1.3614   0.2291
H   -2.5767   -1.6078   0.4054
H   -1.4557   -1.9993   -0.7300
H   -0.7861   1.5346   1.3191
H   -2.3298   0.7179   1.5449
H   2.9910   0.0752   1.4535
H   2.0100   0.7415   -2.1000
H   2.2514   -1.4469   0.9240
H   1.3987   -0.3748   2.0376
H   3.3628   0.7921   -0.9696
H   2.6684   -0.7665   -1.4583
22
Frame 48: 48
C   -0.8811   -0.4429   0.4414
C   1.4597   0.3060   -0.0416
C   -1.5157   0.8930   0.8246
C   2.0541   -0.4025   1.1668
C   2.4352   0.2704   -1.2104
N   0.2260   -0.3439   -0.4880
N   -1.9077   -1.2229   -0.2532
O   -1.9835   1.5678   -0.3248
H   -2.4696   0.8976   -0.8307
H   -0.1138   0.1373   -1.3169
H   -0.5242   -0.9280   1.3569
H   1.3036   1.3608   0.2297
H   -2.5758   -1.6078   0.4055
H   -1.4581   -1.9974   -0.7325
H   -0.7840   1.5355   1.3179
H   -2.3289   0.7181   1.5444
H   2.9916   0.0761   1.4524
H   2.0088   0.7408   -2.0987
H   2.2529   -1.4472   0.9242
H   1.3997   -0.3749   2.0379
H   3.3613   0.7933   -0.9691
H   2.6694   -0.7655   -1.4573
22
Frame 49: 49
C   -0.8789   -0.4443   0.4405
C   1.4574   0.3050   -0.0398
C   -1.5113   0.8930   0.8230
C   2.0544   -0.4037   1.1674
C   2.4338   0.2722   -1.2064
N   0.2274   -0.3482   -0.4902
N   -1.9092   -1.2191   -0.2511
O   -1.9829   1.5648   -0.3269
H   -2.4742   0.8962   -0.8290
H   -0.1086   0.1299   -1.3225
H   -0.5232   -0.9308   1.3578
H   1.2953   1.3594   0.2318
H   -2.5763   -1.6023   0.4075
H   -1.4668   -1.9944   -0.7374
H   -0.7776   1.5376   1.3131
H   -2.3245   0.7173   1.5431
H   2.9935   0.0766   1.4481
H   2.0057   0.7417   -2.0938
H   2.2540   -1.4487   0.9254
H   1.4021   -0.3736   2.0395
H   3.3581   0.7971   -0.9664
H   2.6718   -0.7618   -1.4554
22
Frame 50: 50
C   -0.8750   -0.4455   0.4395
C   1.4558   0.3045   -0.0380
C   -1.5058   0.8933   0.8212
C   2.0546   -0.4048   1.1679
C   2.4334   0.2756   -1.2034
N   0.2299   -0.3527   -0.4931
N   -1.9116   -1.2157   -0.2503
O   -1.9839   1.5604   -0.3298
H   -2.4784   0.8924   -0.8265
H   -0.1018   0.1198   -1.3283
H   -0.5202   -0.9346   1.3555
H   1.2836   1.3576   0.2349
H   -2.5816   -1.5913   0.4105
H   -1.4778   -1.9939   -0.7383
H   -0.7707   1.5393   1.3056
H   -2.3169   0.7150   1.5424
H   2.9959   0.0740   1.4423
H   2.0021   0.7467   -2.0883
H   2.2522   -1.4514   0.9276
H   1.4048   -0.3697   2.0424
H   3.3565   0.8023   -0.9607
H   2.6748   -0.7580   -1.4546
22
Frame 51: 51
C   -0.8709   -0.4476   0.4346
C   1.4533   0.3033   -0.0367
C   -1.4975   0.8922   0.8158
C   2.0540   -0.4067   1.1692
C   2.4341   0.2823   -1.1988
N   0.2354   -0.3620   -0.4937
N   -1.9156   -1.2091   -0.2477
O   -1.9841   1.5557   -0.3317
H   -2.4856   0.8824   -0.8240
H   -0.0921   0.1047   -1.3396
H   -0.5140   -0.9412   1.3507
H   1.2642   1.3543   0.2402
H   -2.5921   -1.5717   0.4146
H   -1.4957   -1.9952   -0.7370
H   -0.7594   1.5432   1.2931
H   -2.3036   0.7114   1.5426
H   3.0008   0.0681   1.4329
H   1.9972   0.7569   -2.0798
H   2.2476   -1.4554   0.9317
H   1.4102   -0.3619   2.0470
H   3.3541   0.8106   -0.9505
H   2.6796   -0.7506   -1.4542
22
Frame 52: 52
C   -0.8715   -0.4478   0.4354
C   1.4543   0.3034   -0.0370
C   -1.4984   0.8925   0.8164
C   2.0543   -0.4058   1.1687
C   2.4347   0.2827   -1.2007
N   0.2345   -0.3610   -0.4947
N   -1.9153   -1.2109   -0.2494
O   -1.9858   1.5560   -0.3316
H   -2.4829   0.8823   -0.8242
H   -0.0934   0.1060   -1.3370
H   -0.5138   -0.9403   1.3484
H   1.2659   1.3541   0.2397
H   -2.5941   -1.5715   0.4139
H   -1.4936   -1.9972   -0.7326
H   -0.7617   1.5424   1.2935
H   -2.3036   0.7114   1.5437
H   3.0006   0.0662   1.4339
H   1.9991   0.7584   -2.0813
H   2.2457   -1.4552   0.9319
H   1.4099   -0.3610   2.0470
H   3.3558   0.8098   -0.9501
H   2.6791   -0.7509   -1.4556
22
Frame 53: 53
C   -0.8720   -0.4480   0.4349
C   1.4549   0.3032   -0.0377
C   -1.4988   0.8924   0.8164
C   2.0544   -0.4053   1.1685
C   2.4356   0.2841   -1.2019
N   0.2343   -0.3615   -0.4951
N   -1.9163   -1.2119   -0.2504
O   -1.9876   1.5562   -0.3312
H   -2.4805   0.8807   -0.8244
H   -0.0944   0.1062   -1.3358
H   -0.5128   -0.9402   1.3454
H   1.2660   1.3531   0.2396
H   -2.5975   -1.5689   0.4131
H   -1.4930   -2.0006   -0.7271
H   -0.7630   1.5422   1.2925
H   -2.3019   0.7114   1.5454
H   3.0014   0.0633   1.4343
H   2.0012   0.7615   -2.0823
H   2.2428   -1.4551   0.9327
H   1.4104   -0.3590   2.0475
H   3.3574   0.8098   -0.9485
H   2.6791   -0.7499   -1.4572
22
Frame 54: 54
C   -0.8729   -0.4488   0.4320
C   1.4544   0.3018   -0.0384
C   -1.4972   0.8918   0.8148
C   2.0541   -0.4053   1.1685
C   2.4371   0.2883   -1.2016
N   0.2347   -0.3658   -0.4979
N   -1.9190   -1.2117   -0.2514
O   -1.9915   1.5547   -0.3310
H   -2.4774   0.8758   -0.8245
H   -0.0939   0.1022   -1.3364
H   -0.5101   -0.9422   1.3401
H   1.2614   1.3497   0.2404
H   -2.6059   -1.5595   0.4119
H   -1.4969   -2.0075   -0.7168
H   -0.7612   1.5435   1.2874
H   -2.2955   0.7113   1.5492
H   3.0053   0.0570   1.4326
H   2.0049   0.7697   -2.0818
H   2.2362   -1.4561   0.9354
H   1.4137   -0.3533   2.0494
H   3.3587   0.8122   -0.9432
H   2.6808   -0.7443   -1.4603
22
Frame 55: 55
C   -0.8715   -0.4527   0.4283
C   1.4515   0.2974   -0.0398
C   -1.4929   0.8926   0.8134
C   2.0562   -0.4048   1.1687
C   2.4376   0.2982   -1.1994
N   0.2351   -0.3764   -0.5017
N   -1.9256   -1.2119   -0.2529
O   -1.9987   1.5519   -0.3298
H   -2.4735   0.8657   -0.8267
H   -0.0935   0.0950   -1.3431
H   -0.5075   -0.9460   1.3316
H   1.2516   1.3429   0.2418
H   -2.6203   -1.5407   0.4085
H   -1.5067   -2.0205   -0.6983
H   -0.7551   1.5461   1.2763
H   -2.2824   0.7126   1.5567
H   3.0124   0.0454   1.4277
H   2.0139   0.7847   -2.0786
H   2.2240   -1.4598   0.9410
H   1.4204   -0.3422   2.0542
H   3.3593   0.8182   -0.9329
H   2.6856   -0.7319   -1.4663
22
Frame 56: 56
C   -0.8727   -0.4526   0.4267
C   1.4508   0.2969   -0.0397
C   -1.4917   0.8916   0.8124
C   2.0552   -0.4063   1.1690
C   2.4379   0.2989   -1.1979
N   0.2351   -0.3778   -0.5040
N   -1.9250   -1.2106   -0.2530
O   -1.9997   1.5506   -0.3297
H   -2.4735   0.8643   -0.8271
H   -0.0927   0.0922   -1.3443
H   -0.5075   -0.9477   1.3327
H   1.2490   1.3416   0.2421
H   -2.6228   -1.5378   0.4088
H   -1.5097   -2.0225   -0.6968
H   -0.7521   1.5473   1.2741
H   -2.2801   0.7134   1.5579
H   3.0145   0.0447   1.4260
H   2.0150   0.7874   -2.0777
H   2.2226   -1.4606   0.9422
H   1.4224   -0.3405   2.0547
H   3.3582   0.8200   -0.9309
H   2.6869   -0.7288   -1.4670
22
Frame 57: 57
C   -0.8728   -0.4530   0.4264
C   1.4499   0.2963   -0.0395
C   -1.4906   0.8913   0.8121
C   2.0549   -0.4073   1.1692
C   2.4377   0.2994   -1.1966
N   0.2350   -0.3784   -0.5049
N   -1.9249   -1.2102   -0.2526
O   -2.0002   1.5495   -0.3296
H   -2.4739   0.8639   -0.8278
H   -0.0922   0.0904   -1.3461
H   -0.5087   -0.9486   1.3345
H   1.2474   1.3410   0.2421
H   -2.6232   -1.5362   0.4085
H   -1.5119   -2.0234   -0.6970
H   -0.7493   1.5478   1.2727
H   -2.2790   0.7145   1.5586
H   3.0153   0.0449   1.4242
H   2.0157   0.7885   -2.0766
H   2.2222   -1.4617   0.9430
H   1.4236   -0.3398   2.0551
H   3.3568   0.8215   -0.9296
H   2.6883   -0.7269   -1.4675
