22
Image 0  Energy = -383.6556808916
C  -0.8735454552 -0.4714419965  0.4305928780
C   1.4461583122  0.2960570373 -0.0460654797
C  -1.4856258736  0.8734806945  0.8225870740
C   2.0538784437 -0.3939476800  1.1685169289
C   2.4338095725  0.3065264979 -1.2055735180
N   0.2377048320 -0.3948563808 -0.4998901751
N  -1.9212769908 -1.2261526082 -0.2578689168
O  -1.9524468482  1.5717383290 -0.3135332528
H  -2.4190069461  0.9143854738 -0.8499917024
H  -0.1008641783  0.0640383982 -1.3401189055
H  -0.5225898155 -0.9691441090  1.3413566025
H   1.2276115490  1.3401719315  0.2261372863
H  -2.6477889032 -1.5118765339  0.3864436456
H  -1.5153538400 -2.0570594003 -0.6710023029
H  -0.7467914665  1.5072545446  1.3131066800
H  -2.2951947364  0.6986240653  1.5450741394
H   3.0177019963  0.0568564222  1.4065110975
H   2.0126040166  0.8120502685 -2.0772755409
H   2.2108811237 -1.4548724695  0.9625098424
H   1.4267002369 -0.3059580594  2.0562135725
H   3.3519622297  0.8254698450 -0.9270329976
H   2.6813753362 -0.7177034688 -1.4922404737
