22
Image 0  Energy = -383.5281735566
C  -0.7781260000 -1.0675610000  0.3210590000
C   1.3025530000  0.0521200000 -0.0282990000
C  -0.9719930000  1.4562490000  0.8236570000
C   1.9812290000 -0.4184330000  1.2501750000
C   2.2640330000  0.4351680000 -1.1331070000
N   0.2911640000 -0.8768210000 -0.5003990000
N  -2.0191630000 -1.3720060000 -0.2331120000
O  -1.6647340000  1.6302230000 -0.4018370000
H  -2.2586320000  0.8701390000 -0.4758990000
H   0.0278490000 -0.6783120000 -1.4584950000
H  -0.6097590000 -1.3678560000  1.3411780000
H   0.6812640000  0.9183000000  0.2869410000
H  -2.5732630000 -2.0573610000  0.2574120000
H  -2.0524280000 -1.5045420000 -1.2338230000
H  -0.3689930000  2.3513920000  0.9917470000
H  -1.6396090000  1.2942150000  1.6746530000
H   2.7644490000  0.2914620000  1.5228460000
H   1.7251140000  0.7306950000 -2.0377940000
H   2.4355930000 -1.4060980000  1.1342150000
H   1.2730050000 -0.4472240000  2.0805790000
H   2.8503450000  1.2986970000 -0.8143220000
H   2.9600090000 -0.3688060000 -1.3889100000
22
Image 1  Energy = -383.5280898252
C  -0.7780744976 -1.0682551050  0.3209896722
C   1.3024043695  0.0521704948 -0.0282825089
C  -0.9714503189  1.4567389493  0.8235666042
C   1.9811930371 -0.4183931102  1.2502647638
C   2.2639656269  0.4352408538 -1.1330758553
N   0.2910920216 -0.8766922716 -0.5003651199
N  -2.0193158572 -1.3720730894 -0.2331814948
O  -1.6647301809  1.6302406417 -0.4018664213
H  -2.2586520095  0.8700950307 -0.4758765811
H   0.0278703423 -0.6783378641 -1.4585273206
H  -0.6097656269 -1.3678242154  1.3411921731
H   0.6811726398  0.9182952209  0.2870137692
H  -2.5732930452 -2.0574089499  0.2574021489
H  -2.0524759831 -1.5045479598 -1.2338480980
H  -0.3690257884  2.3514927414  0.9917593106
H  -1.6395583027  1.2941162853  1.6746785336
H   2.7644586571  0.2914803352  1.5228519741
H   1.7251078847  0.7307047644 -2.0378139433
H   2.4356013710 -1.4061070677  1.1342160556
H   1.2730118511 -0.4472106574  2.0805978443
H   2.8503441982  1.2987218566 -0.8143194664
H   2.9600266111 -0.3688068836 -1.3889110401
22
Image 2  Energy = -383.5363548532
C  -0.7865042149 -0.9511657962  0.3411745188
C   1.3211226792  0.0462386112 -0.0326746461
C  -1.0343100926  1.3900543903  0.8305388156
C   1.9861558111 -0.4237000293  1.2401668802
C   2.2740132471  0.4266300828 -1.1378620301
N   0.3054660132 -0.8952221282 -0.5044225031
N  -1.9985055064 -1.3616445406 -0.2255149438
O  -1.6696376251  1.6274903677 -0.3974390083
H  -2.2589502136  0.8754918788 -0.4828466501
H   0.0245074538 -0.6735215066 -1.4539169605
H  -0.6089805973 -1.3709914120  1.3349608502
H   0.6995568934  0.9164747010  0.2734164363
H  -2.5654064176 -2.0467233710  0.2594008857
H  -2.0431426259 -1.5022903971 -1.2268041286
H  -0.3732360361  2.3150272306  0.9882841047
H  -1.6610259456  1.3082270535  1.6810682731
H   2.7631333660  0.2881545967  1.5216812783
H   1.7263800200  0.7286493802 -2.0343504501
H   2.4354013214 -1.4067453989  1.1336528445
H   1.2733678936 -0.4495126919  2.0749833694
H   2.8508456477  1.2940138096 -0.8150892661
H   2.9596563316 -0.3712949624 -1.3899418639
22
Image 3  Energy = -383.5426297219
C  -0.7963678597 -0.8323748865  0.3692066149
C   1.3334430506  0.0428354845 -0.0397089954
C  -1.0830263247  1.3252969240  0.8262605060
C   1.9911554650 -0.4277403576  1.2341623907
C   2.2830654166  0.4218022858 -1.1417377799
N   0.3197908729 -0.9093744706 -0.5041732175
N  -1.9825111867 -1.3454627811 -0.2174145608
O  -1.6771011943  1.6269274226 -0.3900033926
H  -2.2665924385  0.8762853245 -0.4957113152
H   0.0221814110 -0.6677859085 -1.4484805135
H  -0.6088095704 -1.3683246711  1.3248707869
H   0.7263614188  0.9129934859  0.2561607911
H  -2.5528367954 -2.0321256477  0.2628441705
H  -2.0301034989 -1.4986492185 -1.2185571126
H  -0.3815034406  2.2592510481  0.9848502671
H  -1.6955082459  1.3201563774  1.6963375377
H   2.7629655848  0.2847224127  1.5206048874
H   1.7279633528  0.7259451603 -2.0313440263
H   2.4366239407 -1.4101030733  1.1324612296
H   1.2748624014 -0.4524178323  2.0669558997
H   2.8531989908  1.2892604766 -0.8163464117
H   2.9626561375 -0.3774777303 -1.3927717711
22
Image 4  Energy = -383.5530197695
C  -0.8130612208 -0.6323748836  0.4259173126
C   1.3575280396  0.0342096912 -0.0545648571
C  -1.1630789986  1.1908443873  0.8265084468
C   2.0011662392 -0.4339307516  1.2247727592
C   2.3003868486  0.4138005755 -1.1493739042
N   0.3278800009 -0.9174207317 -0.4893579047
N  -1.9620458015 -1.2936035550 -0.2012516010
O  -1.7103025908  1.6184081558 -0.3805174466
H  -2.2891408328  0.8805614111 -0.5332357322
H   0.0219522478 -0.6566281472 -1.4326620722
H  -0.6120417564 -1.3374906203  1.2996540715
H   0.7883365291  0.9143594825  0.2194502904
H  -2.5216851189 -1.9982278045  0.2747520424
H  -1.9966533760 -1.4869991359 -1.1981512762
H  -0.3980534339  2.1198889662  0.9800835509
H  -1.7635030490  1.3365662290  1.7150620462
H   2.7666679075  0.2793250757  1.5197088768
H   1.7317551455  0.7201991557 -2.0282466229
H   2.4407378324 -1.4194325721  1.1289944693
H   1.2783201271 -0.4592569936  2.0504971499
H   2.8634363829  1.2827054809 -0.8191850987
H   2.9713062196 -0.3918635944 -1.4003887571
22
Image 5  Energy = -383.5674330243
C  -0.8404398321 -0.5009385505  0.4712460824
C   1.3847381057  0.0254198324 -0.0644132943
C  -1.2234564026  1.0613879119  0.8152832615
C   2.0161721416 -0.4413372583  1.2169165206
C   2.3221049819  0.4039094632 -1.1611165054
N   0.3198136829 -0.8886451217 -0.4608135048
N  -1.9635572534 -1.2224047190 -0.1757761083
O  -1.7330564069  1.6149400437 -0.3562318228
H  -2.3393732768  0.8671802568 -0.5897035634
H   0.0232831503 -0.6458908585 -1.4106586749
H  -0.6197252221 -1.2654810643  1.2788452425
H   0.8524635497  0.9310393543  0.1842261768
H  -2.4812086328 -1.9531321223  0.2899143958
H  -1.9532925802 -1.4679122310 -1.1744665846
H  -0.4168933017  1.9507531721  0.9801907287
H  -1.8274084074  1.3337252370  1.7189234025
H   2.7737526436  0.2738282799  1.5198320876
H   1.7373702244  0.7138574543 -2.0277771586
H   2.4460282773 -1.4287771173  1.1251322890
H   1.2817099823 -0.4668055600  2.0338861159
H   2.8778598007  1.2754151912 -0.8236403559
H   2.9830215498 -0.4064916742 -1.4113340270
22
Image 6  Energy = -383.6046238135
C  -0.8736853136 -0.4949087924  0.4901014157
C   1.4024579370  0.0300663144 -0.0664947777
C  -1.2393416496  0.9954479938  0.8156429553
C   2.0323406894 -0.4463126913  1.2179173317
C   2.3422691959  0.3953038414 -1.1740935811
N   0.2898837022 -0.8174478280 -0.4174211297
N  -2.0011827339 -1.1313751421 -0.1654467118
O  -1.7834737147  1.5746176431 -0.3449553942
H  -2.3892354194  0.8734805078 -0.6550753151
H   0.0257560236 -0.6344954767 -1.3846419366
H  -0.6327563630 -1.1476805305  1.2749151515
H   0.9191599774  0.9644908668  0.1556330482
H  -2.4363749168 -1.9045987796  0.3154048772
H  -1.8994020129 -1.4373305332 -1.1366605542
H  -0.4376224113  1.7507531692  0.9895313195
H  -1.8760362719  1.2916589460  1.6969620022
H   2.7872731862  0.2689156879  1.5221439430
H   1.7459123048  0.7067363975 -2.0320454435
H   2.4554120926 -1.4417806305  1.1206179115
H   1.2869333878 -0.4747884725  2.0162669568
H   2.8985177890  1.2671900314 -0.8309830731
H   3.0030998941 -0.4243022740 -1.4288569264
22
Image 7  Energy = -383.6172447497
C  -0.8889821751 -0.5409784070  0.4171663114
C   1.3953471834  0.0620234564 -0.0455268024
C  -1.2277625635  1.0222579637  0.8055866832
C   2.0441847135 -0.4469044324  1.2219348622
C   2.3517885420  0.3805476490 -1.1825153049
N   0.2462866001 -0.7536952736 -0.3972256623
N  -2.0902951796 -1.0811448513 -0.1724500028
O  -1.8179624783  1.5508935752 -0.3492498167
H  -2.4423018035  0.8655793291 -0.7034512197
H   0.0244684795 -0.6221618210 -1.3614843754
H  -0.6372243030 -1.0861470682  1.3621607872
H   0.9700786981  1.0196652212  0.1537121629
H  -2.4016415729 -1.8659013766  0.3382649162
H  -1.8508230763 -1.4054390420 -1.1002882764
H  -0.4264647524  1.6008179087  1.0061566102
H  -1.8994879206  1.2057058743  1.6659350484
H   2.8088403036  0.2663094275  1.5298593377
H   1.7578042454  0.7008113769 -2.0439947256
H   2.4666291988 -1.4511668980  1.1160746205
H   1.2912431003 -0.4809728609  2.0090172238
H   2.9228414294  1.2581666528 -0.8425743446
H   3.0233373604 -0.4346258395 -1.4486484625
22
Image 8  Energy = -383.6269794381
C  -0.9053766283 -0.4766691527  0.4591629096
C   1.4046755925  0.0678857427 -0.0462839964
C  -1.2860991828  0.9466627562  0.7958992483
C   2.0518130058 -0.4482704370  1.2203968854
C   2.3597092030  0.3732219802 -1.1861041436
N   0.2450476597 -0.7396682453 -0.3949261395
N  -2.1028769555 -1.0354643992 -0.1810324458
O  -1.8570831413  1.5326894207 -0.3634346343
H  -2.4548683485  0.8801709997 -0.7246371263
H   0.0221835582 -0.6111504822 -1.3565298413
H  -0.6484639853 -1.0422283990  1.3698191287
H   1.0102590981  1.0482308981  0.1444128334
H  -2.3853012129 -1.8518904779  0.3571409733
H  -1.8257179724 -1.3926770775 -1.0805422149
H  -0.3985585767  1.5181318570  1.0167553228
H  -1.9286447805  1.1741983524  1.6575928429
H   2.8184174093  0.2615798330  1.5329253240
H   1.7655284621  0.6956228354 -2.0473833642
H   2.4718276114 -1.4556436138  1.1121183134
H   1.2952892154 -0.4860940040  2.0020594116
H   2.9353248334  1.2484265088 -0.8504474699
H   3.0328187811 -0.4434242469 -1.4585029347
22
Image 9  Energy = -383.6299806562
C  -0.8989533347 -0.5420207357  0.4733184158
C   1.3925678524  0.0689035919 -0.0462921111
C  -1.2670992095  0.9985303418  0.7819778329
C   2.0448774713 -0.4435125288  1.2241753272
C   2.3478172987  0.3796013126 -1.1781414110
N   0.2612933508 -0.7584623926 -0.4116596667
N  -2.0918563519 -1.0791342227 -0.1865987094
O  -1.8330728593  1.5552203322 -0.3727974651
H  -2.4362024518  0.8765348784 -0.6940979508
H   0.0182123294 -0.6123709810 -1.3803305906
H  -0.6537177450 -1.0731901584  1.3676983020
H   0.9776641230  1.0479394042  0.1681075089
H  -2.4103682983 -1.8769563321  0.3465643955
H  -1.8521116523 -1.4085347815 -1.1009245895
H  -0.3743135716  1.6202775512  1.0185699901
H  -1.9006477003  1.1688118066  1.6605335717
H   2.8151939832  0.2618071543  1.5338333097
H   1.7653503747  0.6974977587 -2.0478916357
H   2.4680053003 -1.4465246527  1.1124391689
H   1.2947667965 -0.4827721510  2.0137829328
H   2.9284108236  1.2470257802 -0.8518687242
H   3.0240875268 -0.4350304219 -1.4519382696
22
Image 10  Energy = -383.6342902533
C  -0.9125526801 -0.5145523301  0.4715504674
C   1.3951095967  0.0801573894 -0.0459388387
C  -1.2590897468  0.9854388978  0.7762226584
C   2.0481271605 -0.4424178351  1.2233397704
C   2.3516859894  0.3745455143 -1.1805205996
N   0.2561905138 -0.7508351186 -0.4034555372
N  -2.1000264183 -1.0709286264 -0.1705774149
O  -1.8401970597  1.5580786597 -0.3771760526
H  -2.4524400050  0.8746956325 -0.7062380153
H   0.0129741810 -0.6013903656 -1.3836149001
H  -0.6651377006 -1.0547894856  1.3873850009
H   0.9980023398  1.0688768376  0.1720881594
H  -2.4082713340 -1.8688234077  0.3483768378
H  -1.8401382471 -1.4092635225 -1.1013840376
H  -0.3750092213  1.5772715707  1.0203105722
H  -1.9158582543  1.1359191287  1.6543364386
H   2.8222021143  0.2574084404  1.5374526343
H   1.7725055011  0.6935583932 -2.0511906986
H   2.4701379778 -1.4444511088  1.1084458347
H   1.2985345330 -0.4855107681  2.0150118959
H   2.9374911079  1.2383615569 -0.8598552595
H   3.0256634818 -0.4377088450 -1.4561097155
22
Image 11  Energy = -383.6367818985
C  -0.9202398837 -0.4939996930  0.4726835956
C   1.3948973432  0.0960817686 -0.0418274123
C  -1.2578277682  0.9765731390  0.7676349078
C   2.0508289694 -0.4384714088  1.2230014806
C   2.3545172410  0.3691006929 -1.1838831458
N   0.2458615895 -0.7385564175 -0.4034299880
N  -2.1065510156 -1.0649787636 -0.1728211500
O  -1.8488491508  1.5582105229 -0.3849553984
H  -2.4669329125  0.8778150481 -0.7147602418
H   0.0073442355 -0.5869298951 -1.3801984785
H  -0.6834112628 -1.0302433373  1.4114797483
H   1.0228582739  1.0960424331  0.1804111034
H  -2.4112627007 -1.8684766623  0.3549449888
H  -1.8321068071 -1.4068778298 -1.0891513764
H  -0.3696874429  1.5350059618  1.0235477165
H  -1.9288234594  1.0878742050  1.6412570049
H   2.8320844471  0.2514624804  1.5430322335
H   1.7823983476  0.6883380010 -2.0567318486
H   2.4726465328 -1.4407567456  1.1019976491
H   1.3045167159 -0.4887444798  2.0181308528
H   2.9509285290  1.2273799040 -0.8711883488
H   3.0267137372 -0.4422082553 -1.4607152081
22
Image 12  Energy = -383.6389690387
C  -0.9204943181 -0.4872201653  0.4671092798
C   1.3910773470  0.1121305837 -0.0392254819
C  -1.2644180279  0.9713852476  0.7567913477
C   2.0507494639 -0.4312550339  1.2234036550
C   2.3547011567  0.3662008769 -1.1855770416
N   0.2410320296 -0.7213681907 -0.3983807342
N  -2.1072948594 -1.0752159945 -0.1618326147
O  -1.8487022784  1.5600990471 -0.3937011731
H  -2.4734843240  0.8875143602 -0.7108722564
H  -0.0025957853 -0.5649075230 -1.3770776364
H  -0.7114579025 -1.0055716431  1.4314040183
H   1.0463509939  1.1235922885  0.1964107782
H  -2.4245816482 -1.8734455211  0.3544222507
H  -1.8313769674 -1.4143917823 -1.0851108623
H  -0.3615104456  1.5195058959  1.0265939508
H  -1.9346898161  1.0287725750  1.6210124270
H   2.8435651901  0.2438673739  1.5507924411
H   1.7940804976  0.6822774286 -2.0661409139
H   2.4729900067 -1.4313077442  1.0908150885
H   1.3142353063 -0.4914791795  2.0264077000
H   2.9694491673  1.2147201922 -0.8870000473
H   3.0222785863 -0.4502623842 -1.4617858548
22
Image 13  Energy = -383.6407776420
C  -0.9229193962 -0.4931647716  0.4707614738
C   1.3924921388  0.1335914205 -0.0327085126
C  -1.2546466455  0.9668562180  0.7410792411
C   2.0519235059 -0.4213030764  1.2239000489
C   2.3546359603  0.3635852532 -1.1882277169
N   0.2439903224 -0.6982510843 -0.3999738462
N  -2.0911425557 -1.0926793638 -0.1628174832
O  -1.8337927986  1.5701150368 -0.3977085559
H  -2.4801912128  0.8997044218 -0.6997753626
H  -0.0155842148 -0.5326594953 -1.3644921333
H  -0.7469408232 -0.9764255306  1.4386537015
H   1.0700834512  1.1476518375  0.2171229526
H  -2.4510486660 -1.8956073085  0.3563408157
H  -1.8441622568 -1.4311673680 -1.0790890893
H  -0.3715610283  1.5238572156  1.0268054738
H  -1.9452669434  0.9630587149  1.6012079772
H   2.8555613513  0.2347569176  1.5597872235
H   1.8071267538  0.6752567363 -2.0805545650
H   2.4697753927 -1.4158057300  1.0719210569
H   1.3279634928 -0.4932792030  2.0404631542
H   2.9956244856  1.2010974678 -0.9078996598
H   3.0079829450 -0.4655475781 -1.4563381146
22
Image 14  Energy = -383.6418205978
C  -0.9161893655 -0.4987526461  0.4671898243
C   1.3976075654  0.1355867076 -0.0314335645
C  -1.2620933150  0.9655247529  0.7469385807
C   2.0532192065 -0.4194676111  1.2254355790
C   2.3567734204  0.3659546981 -1.1897360382
N   0.2485866778 -0.6951578220 -0.3958765130
N  -2.0920512616 -1.1070836756 -0.1632072368
O  -1.8300196689  1.5663751133 -0.3963461473
H  -2.4756040920  0.9091687528 -0.6945583646
H  -0.0177435742 -0.5228719554 -1.3594813818
H  -0.7485183537 -0.9746058588  1.4327768423
H   1.0712766279  1.1464662578  0.2182022618
H  -2.4530394360 -1.8945492591  0.3528594858
H  -1.8497625281 -1.4378888557 -1.0799695663
H  -0.3821128051  1.5346989168  1.0272458506
H  -1.9465835348  0.9622798577  1.5966120600
H   2.8566662474  0.2347509889  1.5604110223
H   1.8080221847  0.6740496348 -2.0827873296
H   2.4678502109 -1.4143397567  1.0653836465
H   1.3314967595 -0.4924272035  2.0422312754
H   3.0013565739  1.1996094002 -0.9121321185
H   3.0007657511 -0.4736797164 -1.4513000292
22
Image 15  Energy = -383.6424523442
C  -0.9146206775 -0.5026970924  0.4636350966
C   1.4029678823  0.1380058252 -0.0301232319
C  -1.2694837466  0.9606207616  0.7491902452
C   2.0562151054 -0.4186127694  1.2265174120
C   2.3596605622  0.3667562186 -1.1911045761
N   0.2544765941 -0.6925944761 -0.3930318727
N  -2.0904001392 -1.1131397445 -0.1630167766
O  -1.8241991016  1.5655560958 -0.3933256591
H  -2.4754116959  0.9165482041 -0.6924091107
H  -0.0191116947 -0.5110210870 -1.3536915035
H  -0.7471979374 -0.9744115532  1.4289504385
H   1.0726050397  1.1469617024  0.2186393882
H  -2.4550879117 -1.8967334145  0.3528240448
H  -1.8541636778 -1.4471831570 -1.0848634797
H  -0.3936927377  1.5446513847  1.0296888373
H  -1.9527052275  0.9630913568  1.5952155128
H   2.8589574797  0.2355949772  1.5612402738
H   1.8089263736  0.6725874918 -2.0846677578
H   2.4659711961 -1.4136699076  1.0579906216
H   1.3350583424 -0.4913654883  2.0435181147
H   3.0086556768  1.1982062052 -0.9170846922
H   2.9924836065 -0.4835108217 -1.4456331511
22
Image 16  Energy = -383.6435135069
C  -0.9136930804 -0.5075423424  0.4601130568
C   1.4123906996  0.1480693645 -0.0262897506
C  -1.2795999950  0.9518862430  0.7522961724
C   2.0651560136 -0.4160919511  1.2275229509
C   2.3663975444  0.3651301627 -1.1932195300
N   0.2640185639 -0.6852972047 -0.3880338519
N  -2.0895070928 -1.1259994886 -0.1674146094
O  -1.8173259103  1.5647798708 -0.3919505226
H  -2.4810022726  0.9345434386 -0.6929304171
H  -0.0211940289 -0.4785375279 -1.3417185061
H  -0.7439042136 -0.9722710729  1.4277351798
H   1.0802521102  1.1565900626  0.2210600469
H  -2.4571876657 -1.8991936262  0.3550937182
H  -1.8614492662 -1.4681260089 -1.0923724458
H  -0.4209327775  1.5540328633  1.0392959363
H  -1.9756974827  0.9562354266  1.5933249037
H   2.8685112261  0.2369846448  1.5646265401
H   1.8134392383  0.6675852693 -2.0886479087
H   2.4631945028 -1.4130347581  1.0397867391
H   1.3444871499 -0.4894954839  2.0458471906
H   3.0297977498  1.1918606179 -0.9318357056
H   2.9737522750 -0.5084677931 -1.4338310571
22
Image 17  Energy = -383.6443248686
C  -0.9114322530 -0.5144757185  0.4596644161
C   1.4257519794  0.1725748679 -0.0147433102
C  -1.3235941647  0.9382736914  0.7678710989
C   2.0851325438 -0.4087937014  1.2264253820
C   2.3795775786  0.3573346472 -1.1947685737
N   0.2716165714 -0.6710327971 -0.3897063787
N  -2.0807873589 -1.1389749410 -0.1864548996
O  -1.8078050173  1.5676234932 -0.3937390725
H  -2.5035197488  0.9679706175 -0.7048071846
H  -0.0178618372 -0.4083856997 -1.3183937223
H  -0.7281115233 -0.9786706169  1.4299606533
H   1.0947126888  1.1822048104  0.2249844083
H  -2.4570838773 -1.9065470680  0.3669220523
H  -1.8703967495 -1.5104062321 -1.1019456968
H  -0.4668181131  1.5657108689  1.0714258424
H  -2.0233252260  0.9456876965  1.5812014856
H   2.8923624214  0.2378153924  1.5704081510
H   1.8251862111  0.6546183635 -2.0904895928
H   2.4608359461 -1.4134626691  1.0048881227
H   1.3660441606 -0.4860916541  2.0451522435
H   3.0738609789  1.1704375202 -0.9647682851
H   2.9355579987 -0.5597701554 -1.4106291631
22
Image 18  Energy = -383.6457736367
C  -0.9155837370 -0.5141760636  0.4620762003
C   1.4267312236  0.1820179843 -0.0128237405
C  -1.3214075564  0.9385583531  0.7625665654
C   2.0917500982 -0.4064649621  1.2241524331
C   2.3823429017  0.3507328242 -1.1929335660
N   0.2744548585 -0.6596750119 -0.3858679707
N  -2.0797061133 -1.1457636190 -0.1837843885
O  -1.8108778344  1.5680064034 -0.3969632375
H  -2.5130148703  0.9808028130 -0.7110186638
H  -0.0182367278 -0.3800211419 -1.3164713741
H  -0.7255044467 -0.9798015808  1.4334270126
H   1.1021673020  1.1973812379  0.2292611440
H  -2.4557402978 -1.9050177480  0.3682656710
H  -1.8689164613 -1.5259605009 -1.1053783954
H  -0.4842529486  1.5594491933  1.0852093224
H  -2.0495425190  0.9326367678  1.5805182297
H   2.9035594184  0.2357090953  1.5728593311
H   1.8313055364  0.6487468758 -2.0914926571
H   2.4609633729 -1.4101513985  0.9935249834
H   1.3750042624 -0.4858187488  2.0455119354
H   3.0916837195  1.1584940151 -0.9783074439
H   2.9227239591 -0.5760440562 -1.4038735465
22
Image 19  Energy = -383.6465996173
C  -0.9183019840 -0.5103448675  0.4665916340
C   1.4246490959  0.1902303421 -0.0107883085
C  -1.3243113878  0.9406127876  0.7610355075
C   2.0961083531 -0.4038098432  1.2208334556
C   2.3826708153  0.3433677986 -1.1898300067
N   0.2709241377 -0.6477570530 -0.3876232756
N  -2.0769184732 -1.1487286239 -0.1849151489
O  -1.8180463709  1.5692668775 -0.4018637563
H  -2.5226689694  0.9889808469 -0.7195164104
H  -0.0159859403 -0.3588372097 -1.3171446690
H  -0.7209069029 -0.9851716585  1.4363789618
H   1.1069201838  1.2104683364  0.2324550906
H  -2.4522524387 -1.9028635146  0.3705770819
H  -1.8629949382 -1.5344634975 -1.1011993330
H  -0.4932224129  1.5492251136  1.1006223134
H  -2.0695178087  0.9235346980  1.5760018023
H   2.9132585526  0.2317944024  1.5729517688
H   1.8367583583  0.6430148317 -2.0895946670
H   2.4630091011 -1.4065550980  0.9878189166
H   1.3824814770 -0.4863099855  2.0439438707
H   3.1039279803  1.1438810237 -0.9882587317
H   2.9143226425 -0.5858949597 -1.4000183738
22
Image 20  Energy = -383.6474633259
C  -0.9196860157 -0.5059274010  0.4706528253
C   1.4242087868  0.2059034430 -0.0064361687
C  -1.3416390318  0.9395653559  0.7626615121
C   2.1035799234 -0.3976433972  1.2161295539
C   2.3829396564  0.3327351216 -1.1854421567
N   0.2664793304 -0.6238759398 -0.3879838696
N  -2.0710230579 -1.1545088286 -0.1860889849
O  -1.8264914783  1.5722719257 -0.4069237264
H  -2.5399398809  1.0043560410 -0.7342131407
H  -0.0133954831 -0.3167590127 -1.3181427905
H  -0.7109986924 -0.9948000140  1.4357809488
H   1.1151409449  1.2313976133  0.2373432326
H  -2.4463698994 -1.9002906803  0.3757211718
H  -1.8503738223 -1.5518561905 -1.0935981823
H  -0.5125529648  1.5364065349  1.1300689227
H  -2.1046559352  0.9113130329  1.5638658952
H   2.9305441529  0.2243184670  1.5710700415
H   1.8457035198  0.6319137460 -2.0867433733
H   2.4669655350 -1.4003812140  0.9756552058
H   1.3969349179 -0.4870468792  2.0417726935
H   3.1272913824  1.1152429626 -1.0055771351
H   2.8972410783 -0.6086939188 -1.3911149439
22
Image 21  Energy = -383.6478767521
C  -0.9248631192 -0.5004192333  0.4708382436
C   1.4293177314  0.2321206950  0.0028565354
C  -1.3703284833  0.9340694961  0.7681849181
C   2.1139309917 -0.3910348463  1.2095801713
C   2.3879075787  0.3085560113 -1.1831968407
N   0.2603699475 -0.5683418825 -0.4052810984
N  -2.0561520194 -1.1600367864 -0.1834898526
O  -1.8429554398  1.5706041723 -0.4076977105
H  -2.5538442922  1.0333588062 -0.7504762178
H  -0.0128979394 -0.2507470028 -1.3089719612
H  -0.6958538963 -1.0040793051  1.4176768520
H   1.1287925627  1.2597475307  0.2454704348
H  -2.4403069610 -1.9024668857  0.3889902712
H  -1.8145489572 -1.5784888180 -1.0748260943
H  -0.5565326095  1.5167088613  1.1762077941
H  -2.1635849353  0.8948713133  1.5377984501
H   2.9566623364  0.2099450072  1.5595125220
H   1.8538019461  0.6139208732 -2.0887859454
H   2.4738722516 -1.3835202316  0.9571673147
H   1.4189405169 -0.4891075694  2.0450073184
H   3.1641077708  1.0608717621 -1.0246532999
H   2.8640678301 -0.6428911524 -1.3734545645
22
Image 22  Energy = -383.6489015537
C  -0.9217858345 -0.4977058627  0.4682809505
C   1.4316042068  0.2380592818  0.0027661341
C  -1.3839771767  0.9297602591  0.7714496859
C   2.1156303863 -0.3877301824  1.2099034488
C   2.3873496286  0.3080535137 -1.1834348841
N   0.2608368558 -0.5600907249 -0.3977113975
N  -2.0551526320 -1.1669640820 -0.1856392182
O  -1.8386205490  1.5754008356 -0.4046972071
H  -2.5620969520  1.0374605259 -0.7557591865
H  -0.0156138691 -0.2282960565 -1.3135803655
H  -0.6904208729 -1.0065175639  1.4135184813
H   1.1331511878  1.2670194035  0.2474460648
H  -2.4379813573 -1.9014568624  0.3912030031
H  -1.8068615669 -1.5867185999 -1.0701978318
H  -0.5689166070  1.5164340417  1.1878563113
H  -2.1783032797  0.8915998707  1.5311204500
H   2.9633250702  0.2075552977  1.5567081905
H   1.8566595473  0.6087547091 -2.0884679071
H   2.4755361329 -1.3822087053  0.9501449660
H   1.4253895918 -0.4891912605  2.0458405530
H   3.1749201521  1.0477781052 -1.0299757074
H   2.8552307169 -0.6573551201 -1.3683173519
22
Image 23  Energy = -383.6492176590
C  -0.9199652636 -0.4961737244  0.4649910061
C   1.4338621827  0.2397532973  0.0021902919
C  -1.3910787866  0.9264076110  0.7744771360
C   2.1147440345 -0.3868627059  1.2109646152
C   2.3870651105  0.3080707171 -1.1854070944
N   0.2604396576 -0.5548202140 -0.3976971422
N  -2.0543052516 -1.1696314827 -0.1856222184
O  -1.8360440235  1.5770530214 -0.4009775506
H  -2.5602025971  1.0386620401 -0.7545585229
H  -0.0190478610 -0.2198280348 -1.3145674902
H  -0.6877552018 -1.0050641357  1.4068363699
H   1.1356261724  1.2675183828  0.2481446860
H  -2.4375010066 -1.9021971933  0.3929848449
H  -1.7978432919 -1.5896746359 -1.0667495489
H  -0.5770450982  1.5186309192  1.1911230663
H  -2.1837547643  0.8914951417  1.5269841243
H   2.9645241882  0.2067303285  1.5523764072
H   1.8558166915  0.6068034680 -2.0900038271
H   2.4763851336 -1.3813666674  0.9478886945
H   1.4270640172 -0.4893571419  2.0487469391
H   3.1782558720  1.0407151499 -1.0278408648
H   2.8506628600 -0.6632233133 -1.3658267453
22
Image 24  Energy = -383.6495510688
C  -0.9197753225 -0.4926110663  0.4616675000
C   1.4353486662  0.2446875719  0.0019854256
C  -1.4020856010  0.9228502449  0.7779961211
C   2.1144880912 -0.3857525487  1.2107644557
C   2.3865297272  0.3036049438 -1.1875805587
N   0.2579025179 -0.5421810686 -0.4016470293
N  -2.0511061527 -1.1729779306 -0.1859250892
O  -1.8343637676  1.5806362927 -0.3962453991
H  -2.5579366676  1.0427537942 -0.7542048692
H  -0.0249561309 -0.1987317774 -1.3159763668
H  -0.6807524561 -1.0033934305  1.3970332759
H   1.1423795342  1.2726793320  0.2504005053
H  -2.4353434251 -1.9033631290  0.3973256608
H  -1.7777764681 -1.5986984122 -1.0604044222
H  -0.5939601588  1.5197460884  1.2014694380
H  -2.2012917192  0.8871041095  1.5199854735
H   2.9692565335  0.2049566665  1.5442284848
H   1.8556902394  0.6021186715 -2.0928165772
H   2.4780656459 -1.3789885606  0.9428053240
H   1.4318577003 -0.4895632828  2.0540977183
H   3.1881904408  1.0244661508 -1.0257234657
H   2.8395415218 -0.6757018204 -1.3607784820
22
Image 25  Energy = -383.6500715764
C  -0.9199914564 -0.4857201198  0.4578248593
C   1.4334009138  0.2487038627 -0.0004639818
C  -1.4174463764  0.9225679267  0.7863264504
C   2.1126170188 -0.3856475811  1.2100536437
C   2.3868603051  0.2965134812 -1.1897244854
N   0.2493106154 -0.5253108848 -0.4120905817
N  -2.0462407951 -1.1823067308 -0.1934715624
O  -1.8329014184  1.5887192590 -0.3907941916
H  -2.5476849314  1.0478952293 -0.7508891953
H  -0.0381375090 -0.1618303667 -1.3194480347
H  -0.6652378746 -0.9979800417  1.3861519181
H   1.1567695371  1.2818576240  0.2540005345
H  -2.4286342671 -1.9021572413  0.4020096811
H  -1.7391769919 -1.6165077771 -1.0469812038
H  -0.6222681201  1.5253194282  1.2185704948
H  -2.2318264132  0.8752644421  1.5110954156
H   2.9738977804  0.2051177815  1.5283460244
H   1.8563887503  0.5956277541 -2.0977773000
H   2.4787584231 -1.3784125260  0.9354228026
H   1.4403496988 -0.4885408303  2.0632488474
H   3.2022707035  0.9969936175 -1.0186572684
H   2.8188251154 -0.6965254519 -1.3542958245
22
Image 26  Energy = -383.6503792004
C  -0.9263094160 -0.4769049514  0.4537323909
C   1.4277233842  0.2568797704 -0.0025884832
C  -1.4445137210  0.9236540036  0.7943719366
C   2.1108487070 -0.3877573739  1.2034418685
C   2.3837738099  0.2768743766 -1.1916869593
N   0.2341685043 -0.4931671504 -0.4328127325
N  -2.0326946710 -1.1841566018 -0.1977512779
O  -1.8285689817  1.6054855408 -0.3791522477
H  -2.5372796293  1.0525709888 -0.7522934653
H  -0.0599493054 -0.0985071893 -1.3231991580
H  -0.6381740522 -0.9891173870  1.3745348797
H   1.1810691270  1.2969001935  0.2587885072
H  -2.4174729481 -1.9012418443  0.4088413424
H  -1.6716053072 -1.6560129683 -1.0322276023
H  -0.6641619413  1.5350615215  1.2533482293
H  -2.2828805966  0.8511679737  1.4967471546
H   2.9800385727  0.2058426351  1.5021862518
H   1.8628759182  0.5855748105 -2.1023967056
H   2.4773210724 -1.3772829919  0.9250862639
H   1.4561069802 -0.4858033059  2.0757866639
H   3.2268808374  0.9520384719 -1.0087523148
H   2.7827062765 -0.7284576419 -1.3455476554
22
Image 27  Energy = -383.6508587294
C  -0.9249176784 -0.4773027898  0.4571527417
C   1.4260970476  0.2534203166 -0.0035150698
C  -1.4373530360  0.9267670019  0.7942128072
C   2.1096964823 -0.3887251006  1.2024927549
C   2.3837627746  0.2785212040 -1.1894305612
N   0.2338217828 -0.4980470716 -0.4307162334
N  -2.0315148023 -1.1850652277 -0.2032683076
O  -1.8326177548  1.6030812755 -0.3819314605
H  -2.5342757235  1.0510925760 -0.7526024524
H  -0.0597146989 -0.1062270269 -1.3228286507
H  -0.6401603738 -0.9874593715  1.3801512209
H   1.1787342375  1.2930299259  0.2568392068
H  -2.4176286636 -1.8993806381  0.4052682938
H  -1.6787678120 -1.6530995715 -1.0302844755
H  -0.6572680229  1.5355464345  1.2502078023
H  -2.2742723168  0.8511989858  1.4999833492
H   2.9751951030  0.2075774914  1.5039418673
H   1.8647782746  0.5887661288 -2.1004692409
H   2.4749084827 -1.3803094003  0.9284949736
H   1.4545400812 -0.4848287511  2.0724869829
H   3.2203081419  0.9581717615 -1.0082949087
H   2.7865511064 -0.7230872783 -1.3494337297
22
Image 28  Energy = -383.6511464030
C  -0.9240034085 -0.4751822321  0.4596483323
C   1.4227139655  0.2505336306 -0.0052065474
C  -1.4349194140  0.9308104608  0.7958762433
C   2.1076140795 -0.3906805224  1.1990754625
C   2.3831157319  0.2757889278 -1.1866628432
N   0.2299172847 -0.4951454227 -0.4328571302
N  -2.0271584813 -1.1863305706 -0.2081863544
O  -1.8363668983  1.6047756935 -0.3815376572
H  -2.5293123237  1.0493224392 -0.7555717076
H  -0.0650757222 -0.0999863903 -1.3221961684
H  -0.6361144119 -0.9830475777  1.3856174861
H   1.1810506785  1.2917422064  0.2551405877
H  -2.4148261100 -1.8951275692  0.4005953730
H  -1.6700927909 -1.6613363355 -1.0251508876
H  -0.6585611797  1.5383534240  1.2559785988
H  -2.2748913471  0.8450503891  1.5005260883
H   2.9699115438  0.2099500925  1.4994786958
H   1.8697925442  0.5910112034 -2.0986728117
H   2.4706894732 -1.3843206192  0.9306776215
H   1.4564911227 -0.4825499582  2.0704312660
H   3.2174307270  0.9545968946 -1.0056176590
H   2.7824975608 -0.7245872882 -1.3529290879
22
Image 29  Energy = -383.6514304230
C  -0.9213631430 -0.4707595451  0.4614975955
C   1.4193349186  0.2490913360 -0.0076769518
C  -1.4386287004  0.9333647927  0.7996263561
C   2.1042885855 -0.3931699391  1.1939307281
C   2.3816590873  0.2697650240 -1.1845117347
N   0.2241976621 -0.4850202951 -0.4363396294
N  -2.0177513410 -1.1867871858 -0.2149458829
O  -1.8405085653  1.6096501688 -0.3774174354
H  -2.5230511761  1.0471554699 -0.7627678509
H  -0.0757495721 -0.0808290496 -1.3209877941
H  -0.6279702959 -0.9753427823  1.3896999600
H   1.1859775779  1.2920043520  0.2531837309
H  -2.4116585890 -1.8899754396  0.3964217589
H  -1.6481300551 -1.6790160137 -1.0149360885
H  -0.6668798451  1.5425946539  1.2703388692
H  -2.2810151292  0.8345221534  1.4979993983
H   2.9640057875  0.2122765784  1.4891975045
H   1.8780165547  0.5933450592 -2.0967643841
H   2.4643888934 -1.3897693778  0.9318966687
H   1.4606393717 -0.4789264256  2.0687802832
H   3.2178972268  0.9426302601 -1.0010862443
H   2.7722033469 -0.7331629177 -1.3566819923
22
Image 30  Energy = -383.6514876326
C  -0.9148874615 -0.4604059436  0.4613072289
C   1.4190064574  0.2522914516 -0.0126307352
C  -1.4448187736  0.9340167191  0.8071548930
C   2.0978958029 -0.3986593764  1.1839902762
C   2.3821761018  0.2527725761 -1.1866058738
N   0.2187770415 -0.4574776779 -0.4475573279
N  -1.9991656107 -1.1919855397 -0.2167510898
O  -1.8555405605  1.6145605200 -0.3644221578
H  -2.5042026042  1.0468840899 -0.7816036842
H  -0.0989847031 -0.0346505894 -1.3095623809
H  -0.6133161372 -0.9567569831  1.3904462829
H   1.1925488484  1.2934199823  0.2486453159
H  -2.4105290079 -1.8722962121  0.3876951388
H  -1.5908369715 -1.7212933834 -0.9911541258
H  -0.6959830721  1.5447146491  1.3016418987
H  -2.2966039985  0.8149826779  1.4946914986
H   2.9552200145  0.2136805445  1.4641284634
H   1.8930332911  0.6025260958 -2.0975851653
H   2.4490297851 -1.4005850914  0.9329585322
H   1.4623355321 -0.4704823483  2.0679408992
H   3.2259545576  0.9140166462 -0.9896355885
H   2.7487940119 -0.7556319111 -1.3646355309
22
Image 31  Energy = -383.6519232041
C  -0.9142788155 -0.4605874183  0.4613565613
C   1.4192913916  0.2516861184 -0.0136324585
C  -1.4489813907  0.9321035157  0.8067651465
C   2.0969155105 -0.3984730632  1.1846129926
C   2.3823480814  0.2543813613 -1.1870631798
N   0.2187395262 -0.4582022728 -0.4452971323
N  -1.9946002232 -1.1904455987 -0.2221606937
O  -1.8526936676  1.6176632803 -0.3620190723
H  -2.5064627404  1.0440108941 -0.7842754470
H  -0.0998017177 -0.0322301580 -1.3106126747
H  -0.6129816188 -0.9563394161  1.3905870613
H   1.1923564519  1.2941008548  0.2484551052
H  -2.4132223613 -1.8742387462  0.3906959542
H  -1.5905356634 -1.7210628163 -0.9876984527
H  -0.6953601418  1.5453862334  1.3029033150
H  -2.2953944769  0.8146830661  1.4945458916
H   2.9554992533  0.2132241091  1.4636842749
H   1.8938082170  0.6031181255 -2.0973591730
H   2.4482235228 -1.4010891958  0.9329537130
H   1.4619796959 -0.4699736205  2.0670414211
H   3.2263971788  0.9128411110 -0.9896422464
H   2.7486565315 -0.7569154689 -1.3653841405
22
Image 32  Energy = -383.6520398488
C  -0.9135451488 -0.4608071788  0.4604333383
C   1.4210949542  0.2527523278 -0.0143537459
C  -1.4517322365  0.9296315810  0.8067865742
C   2.0963227079 -0.3981607659  1.1855083713
C   2.3834842475  0.2550081411 -1.1892486816
N   0.2201827136 -0.4579371648 -0.4446562013
N  -1.9923503671 -1.1911704348 -0.2223325761
O  -1.8531153875  1.6180454904 -0.3603570276
H  -2.5056433459  1.0435511846 -0.7864763925
H  -0.1001264294 -0.0292446570 -1.3092451804
H  -0.6134426113 -0.9557562163  1.3889400635
H   1.1912884211  1.2949507231  0.2481370050
H  -2.4168750504 -1.8729480125  0.3927209291
H  -1.5875478320 -1.7220652470 -0.9847413489
H  -0.6974799151  1.5438267342  1.3034550519
H  -2.2950165184  0.8151154948  1.4954964924
H   2.9569869924  0.2116158708  1.4629329903
H   1.8937683944  0.6048424387 -2.0984812640
H   2.4469015314 -1.4011984950  0.9326098287
H   1.4594236865 -0.4692437245  2.0668271579
H   3.2288939783  0.9113111775 -0.9893023940
H   2.7484297581 -0.7584783677 -1.3661962283
22
Image 33  Energy = -383.6522394102
C  -0.9112692114 -0.4594845878  0.4596309767
C   1.4239414930  0.2553232896 -0.0172541435
C  -1.4585978329  0.9256567968  0.8085670418
C   2.0934841510 -0.3982943232  1.1849691672
C   2.3865943033  0.2531671006 -1.1937973901
N   0.2208634377 -0.4523071089 -0.4467756829
N  -1.9833707048 -1.1947154962 -0.2244998522
O  -1.8575738228  1.6207984988 -0.3546628957
H  -2.4987136019  1.0418075367 -0.7954980314
H  -0.1054633865 -0.0115218548 -1.3041594104
H  -0.6102414738 -0.9509975873  1.3868400370
H   1.1912905416  1.2976763364  0.2461120992
H  -2.4256437747 -1.8646818569  0.3959152493
H  -1.5670286965 -1.7348587069 -0.9722270194
H  -0.7084207565  1.5404944523  1.3109943899
H  -2.2990408736  0.8104370782  1.4985674464
H   2.9589553827  0.2075304078  1.4563735792
H   1.8975166886  0.6112585890 -2.1013974443
H   2.4395331037 -1.4037358903  0.9322628036
H   1.4534641780 -0.4650329185  2.0654634487
H   3.2372215192  0.9008898288 -0.9863568530
H   2.7424018663 -0.7657686752 -1.3706107904
22
Image 34  Energy = -383.6525256644
C  -0.9100622543 -0.4584256956  0.4590483261
C   1.4260484580  0.2585660820 -0.0216451297
C  -1.4698362831  0.9213521033  0.8119811532
C   2.0891997994 -0.3973925606  1.1838909777
C   2.3906193430  0.2524601406 -1.1992062611
N   0.2199695517 -0.4458483864 -0.4507947682
N  -1.9725785537 -1.2026435957 -0.2285086637
O  -1.8649139653  1.6242103520 -0.3491262287
H  -2.4865066368  1.0391300085 -0.8069270013
H  -0.1107130446  0.0138232379 -1.2982241089
H  -0.6039177250 -0.9473159591  1.3871220229
H   1.1932574460  1.3021414605  0.2423233232
H  -2.4398863967 -1.8486004586  0.4004283705
H  -1.5379816302 -1.7548255700 -0.9525610722
H  -0.7214367225  1.5354192397  1.3196032070
H  -2.3060683771  0.8020380816  1.5049835791
H   2.9637090054  0.1990409145  1.4501814492
H   1.9045827061  0.6208964627 -2.1048181104
H   2.4269407060 -1.4062336188  0.9320081987
H   1.4439568758 -0.4573729566  2.0613211089
H   3.2517136110  0.8853213517 -0.9840372752
H   2.7338065990 -0.7720997152 -1.3785864125
22
Image 35  Energy = -383.6526727693
C  -0.9088804709 -0.4573494389  0.4621229558
C   1.4297180487  0.2664410504 -0.0298875822
C  -1.4890031625  0.9150756131  0.8190236567
C   2.0805663376 -0.3954395293  1.1769764711
C   2.3983496924  0.2480095270 -1.2065415016
N   0.2147751913 -0.4241619144 -0.4625756104
N  -1.9491326811 -1.2122610026 -0.2348059624
O  -1.8781794791  1.6329595325 -0.3314269144
H  -2.4618553198  1.0292753314 -0.8344656026
H  -0.1237694476  0.0704735300 -1.2859069897
H  -0.5879039798 -0.9375234142  1.3866567936
H   1.2012229688  1.3105716900  0.2326504142
H  -2.4697083067 -1.8130826542  0.4073660709
H  -1.4698573731 -1.8101979162 -0.9101936586
H  -0.7509572714  1.5260208184  1.3397642769
H  -2.3262917712  0.7797947588  1.5170781289
H   2.9708370178  0.1799508804  1.4368219724
H   1.9236711346  0.6422741491 -2.1110717822
H   2.3967363559 -1.4127892766  0.9319247257
H   1.4261087958 -0.4385470661  2.0520164001
H   3.2819664402  0.8481850056 -0.9795116733
H   2.7114897613 -0.7840387342 -1.3975579898
22
Image 36  Energy = -383.6531248522
C  -0.9097350615 -0.4569031793  0.4623144596
C   1.4283383096  0.2659956176 -0.0296091214
C  -1.4877346137  0.9155732718  0.8209301912
C   2.0805773792 -0.3946637419  1.1768772890
C   2.3976705481  0.2505689966 -1.2045197637
N   0.2132928808 -0.4244923222 -0.4614532721
N  -1.9517310781 -1.2163169073 -0.2368156778
O  -1.8802479764  1.6286244676 -0.3359011971
H  -2.4595457800  1.0310469187 -0.8296490710
H  -0.1210555578  0.0662735716 -1.2885963296
H  -0.5872744483 -0.9411306582  1.3885215561
H   1.2034164356  1.3108967699  0.2320774438
H  -2.4692247122 -1.8102967038  0.4047497685
H  -1.4775087217 -1.8089479673 -0.9067551647
H  -0.7462368601  1.5265179038  1.3361491877
H  -2.3264502719  0.7794149715  1.5165821774
H   2.9714604292  0.1778686331  1.4417318589
H   1.9252797729  0.6419176283 -2.1093990642
H   2.3954545554 -1.4117174623  0.9320052941
H   1.4271215344 -0.4371278629  2.0500726648
H   3.2816469701  0.8492524968 -0.9821931582
H   2.7123887573 -0.7787135025 -1.3986634615
22
Image 37  Energy = -383.6533457965
C  -0.9102215701 -0.4562850464  0.4627410660
C   1.4281347278  0.2683140383 -0.0311223312
C  -1.4912671386  0.9141413592  0.8243694814
C   2.0784716467 -0.3936483202  1.1745111205
C   2.3984049683  0.2514323546 -1.2042509323
N   0.2108628269 -0.4174143563 -0.4633388118
N  -1.9490781329 -1.2205390899 -0.2378592758
O  -1.8843175971  1.6269881280 -0.3334491892
H  -2.4522224670  1.0283981367 -0.8329221818
H  -0.1219400115  0.0760440404 -1.2883872115
H  -0.5823776734 -0.9424543095  1.3896948509
H   1.2084296239  1.3136102087  0.2288747766
H  -2.4765577739 -1.7977839492  0.4026002143
H  -1.4675725297 -1.8252704366 -0.8927183258
H  -0.7486310478  1.5250605314  1.3377991768
H  -2.3320056642  0.7731010053  1.5180955673
H   2.9733685573  0.1705405764  1.4438916220
H   1.9325789847  0.6474596300 -2.1088878131
H   2.3855954433 -1.4126305682  0.9319779719
H   1.4240981386 -0.4302128249  2.0457683116
H   3.2890547690  0.8408894622 -0.9838943158
H   2.7070944129 -0.7760996258 -1.4050371687
22
Image 38  Energy = -383.6536250589
C  -0.9096576595 -0.4552011704  0.4641925487
C   1.4292061031  0.2741812806 -0.0343068344
C  -1.4984974516  0.9102775835  0.8308483601
C   2.0740109683 -0.3921227837  1.1698898458
C   2.4006801409  0.2525817392 -1.2046619405
N   0.2070886180 -0.4015616126 -0.4670294860
N  -1.9388033883 -1.2264384447 -0.2429183993
O  -1.8919025173  1.6250820085 -0.3255495621
H  -2.4384762361  1.0209353744 -0.8417508963
H  -0.1255565324  0.0973929899 -1.2877466546
H  -0.5726631678 -0.9435278600  1.3896228272
H   1.2187084160  1.3203800475  0.2227931461
H  -2.4942545643 -1.7741346031  0.4003765829
H  -1.4470035833 -1.8603757508 -0.8619673396
H  -0.7552775632  1.5220117852  1.3430444610
H  -2.3431611773  0.7602325758  1.5200605948
H   2.9763687470  0.1560008801  1.4469069898
H   1.9473496275  0.6601297809 -2.1084951688
H   2.3647160945 -1.4158959484  0.9315433594
H   1.4178863497 -0.4157736631  2.0381247661
H   3.3037548325  0.8233675556 -0.9862588662
H   2.6953864365 -0.7739008137 -1.4182617500
22
Image 39  Energy = -383.6538737428
C  -0.8989380277 -0.4549006571  0.4609488157
C   1.4385658139  0.2912506558 -0.0407853471
C  -1.5125566879  0.8963853856  0.8409137816
C   2.0655341550 -0.3907307633  1.1659071230
C   2.4096217317  0.2579942009 -1.2115381530
N   0.2090482478 -0.3710677739 -0.4679546001
N  -1.9247380807 -1.2362565786 -0.2403841549
O  -1.9065592025  1.6183189111 -0.3095197329
H  -2.4142376273  1.0009546067 -0.8537505797
H  -0.1343182643  0.1288383218 -1.2913518732
H  -0.5572586602 -0.9467557547  1.3791918272
H   1.2417102135  1.3427700685  0.2153070053
H  -2.5305006964 -1.7217657424  0.3875850546
H  -1.4225404103 -1.9342408440 -0.7985753412
H  -0.7649891798  1.5158010306  1.3523854197
H  -2.3583133523  0.7396815108  1.5183041655
H   2.9801674556  0.1272727974  1.4563740877
H   1.9728120724  0.6916568270 -2.1093147018
H   2.3205949781 -1.4264504912  0.9282977537
H   1.4052164092 -0.3860314147  2.0296549722
H   3.3280041608  0.7964428505 -0.9886765734
H   2.6735774527 -0.7755261892 -1.4445624113
22
Image 40  Energy = -383.6543120610
C  -0.8984494752 -0.4545600743  0.4615254629
C   1.4413855395  0.2965323286 -0.0413917934
C  -1.5121637659  0.8946610048  0.8426820446
C   2.0634073870 -0.3907512408  1.1645378034
C   2.4115725197  0.2574286880 -1.2137311285
N   0.2092356861 -0.3625282490 -0.4725083261
N  -1.9143967857 -1.2388154453 -0.2466518706
O  -1.9106921327  1.6161344307 -0.3059913710
H  -2.4084094027  0.9957631283 -0.8564932584
H  -0.1356187344  0.1348254449 -1.2900428818
H  -0.5527806923 -0.9476673816  1.3767695503
H   1.2480145838  1.3481945517  0.2136947738
H  -2.5430089797 -1.7105244228  0.3884528509
H  -1.4193295721 -1.9503531064 -0.7805898035
H  -0.7692666015  1.5129685303  1.3546280174
H  -2.3627524278  0.7341319910  1.5187425844
H   2.9812118833  0.1202093554  1.4583410459
H   1.9787831419  0.7003203901 -2.1098782942
H   2.3090143488 -1.4286639497  0.9276652166
H   1.4018548442 -0.3787199961  2.0282424997
H   3.3346207476  0.7905277838 -0.9886736899
H   2.6676703912 -0.7754728028 -1.4508729054
22
Image 41  Energy = -383.6544666704
C  -0.8964289532 -0.4551200057  0.4597256105
C   1.4444209645  0.2991734823 -0.0406392054
C  -1.5079883963  0.8940304917  0.8402076095
C   2.0635363928 -0.3915333537  1.1667840671
C   2.4130820834  0.2577418674 -1.2161365890
N   0.2135406516 -0.3638687328 -0.4726672710
N  -1.9130378207 -1.2386167722 -0.2471852583
O  -1.9103395113  1.6141387899 -0.3075973532
H  -2.4110444552  0.9933600047 -0.8526217758
H  -0.1347371612  0.1264304325 -1.2912598811
H  -0.5537723810 -0.9489634771  1.3731216927
H   1.2499248509  1.3514946798  0.2163624381
H  -2.5449729158 -1.7097369297  0.3879167878
H  -1.4318422783 -1.9479871787 -0.7790181742
H  -0.7684581404  1.5118003899  1.3534418224
H  -2.3591184085  0.7364497200  1.5171203315
H   2.9804205357  0.1207175178  1.4598805769
H   1.9760350190  0.7032794203 -2.1105871551
H   2.3079434955 -1.4292834588  0.9269904303
H   1.4021114054 -0.3791159164  2.0320099773
H   3.3320943859  0.7960059191 -0.9873831564
H   2.6685331425 -0.7767559337 -1.4500089935
22
Image 42  Energy = -383.6545847740
C  -0.8927823073 -0.4551181674  0.4576158661
C   1.4488246269  0.3063296453 -0.0424607403
C  -1.5091706122  0.8902444424  0.8413829898
C   2.0598618915 -0.3909008729  1.1664313542
C   2.4166523432  0.2595049994 -1.2195223638
N   0.2167460203 -0.3553500630 -0.4752143212
N  -1.9070265647 -1.2400963395 -0.2492088323
O  -1.9153405393  1.6109839675 -0.3045127150
H  -2.4046855192  0.9843048512 -0.8544705366
H  -0.1363103761  0.1320538047 -1.2926576786
H  -0.5471775019 -0.9512133157  1.3689277907
H   1.2601126947  1.3605450444  0.2156388838
H  -2.5603551516 -1.6899133449  0.3861975207
H  -1.4293746549 -1.9736827523 -0.7574190249
H  -0.7730055771  1.5078420799  1.3567712962
H  -2.3616305100  0.7298229599  1.5170236172
H   2.9821336201  0.1109156252  1.4628963650
H   1.9827888394  0.7166418373 -2.1113954743
H   2.2910914333 -1.4323381450  0.9259732227
H   1.3975189383 -0.3695642479  2.0316688241
H   3.3401652469  0.7902543433 -0.9868949673
H   2.6608661714 -0.7776253957 -1.4583145609
22
Image 43  Energy = -383.6547476281
C  -0.8887815001 -0.4558697994  0.4555191931
C   1.4515928822  0.3108543657 -0.0434199332
C  -1.5092270216  0.8881535951  0.8393303097
C   2.0567298651 -0.3892033332  1.1671486652
C   2.4192366190  0.2623679816 -1.2219130127
N   0.2205976718 -0.3534803106 -0.4779911565
N  -1.9068152309 -1.2420848836 -0.2522713604
O  -1.9178779496  1.6083201398 -0.3058885116
H  -2.4036259207  0.9753369385 -0.8537158067
H  -0.1349363021  0.1309271989 -1.2952324144
H  -0.5404056114 -0.9534511702  1.3659859085
H   1.2697561246  1.3663632111  0.2168874465
H  -2.5700106161 -1.6703564053  0.3859253558
H  -1.4333379395 -1.9905300796 -0.7438843672
H  -0.7763510750  1.5042669828  1.3604656442
H  -2.3584922589  0.7252132060  1.5176592942
H   2.9837204959  0.1039718350  1.4632826014
H   1.9855689244  0.7274034606 -2.1110070284
H   2.2775429930 -1.4324592074  0.9261046353
H   1.3945545956 -0.3644740848  2.0336074860
H   3.3451839091  0.7895324967 -0.9854749163
H   2.6552798560 -0.7771611858 -1.4626615248
22
Image 44  Energy = -383.6548377818
C  -0.8853910210 -0.4616028307  0.4460136185
C   1.4540436966  0.3128307896 -0.0450902766
C  -1.5054176089  0.8849410223  0.8341059151
C   2.0517462881 -0.3854793844  1.1705229200
C   2.4229202466  0.2703799700 -1.2213469225
N   0.2273061112 -0.3598055085 -0.4773514631
N  -1.9055754478 -1.2371940473 -0.2552077760
O  -1.9201936703  1.5999857024 -0.3154702981
H  -2.4084668074  0.9629955556 -0.8481182479
H  -0.1284876649  0.1210381495 -1.3045434227
H  -0.5299363350 -0.9558499941  1.3609959729
H   1.2824685241  1.3702360730  0.2207633727
H  -2.5812874498 -1.6393180503  0.3898810101
H  -1.4490031093 -2.0073174224 -0.7330734612
H  -0.7795431156  1.5001555299  1.3656898670
H  -2.3465684168  0.7194240369  1.5193072715
H   2.9866200404  0.0965003267  1.4593070717
H   1.9853575419  0.7409652234 -2.1072064958
H   2.2596398923 -1.4293944470  0.9281894999
H   1.3928805959 -0.3612226072  2.0384799343
H   3.3476592511  0.7934682068 -0.9827540290
H   2.6491309808 -0.7720953633 -1.4646375601
22
Image 45  Energy = -383.6549872261
C  -0.8842493587 -0.4612855893  0.4485076587
C   1.4525131314  0.3109119306 -0.0430275587
C  -1.5042102011  0.8849826003  0.8321895625
C   2.0527373047 -0.3851805492  1.1703762976
C   2.4209353064  0.2703454058 -1.2199693731
N   0.2266483698 -0.3620808206 -0.4806845639
N  -1.9094446051 -1.2373774103 -0.2547004065
O  -1.9171244884  1.6006077102 -0.3155273072
H  -2.4133048470  0.9618487770 -0.8484272647
H  -0.1252768453  0.1159032592 -1.3041039590
H  -0.5308042174 -0.9550402829  1.3604623517
H   1.2802552823  1.3668535473  0.2211596915
H  -2.5774123858 -1.6384388057  0.3905436268
H  -1.4523823684 -2.0016942517 -0.7386068197
H  -0.7781397838  1.5011282514  1.3647593860
H  -2.3440814863  0.7199379423  1.5196555810
H   2.9867923032  0.0984018510  1.4571378927
H   1.9834362982  0.7387976652 -2.1054345840
H   2.2619756752 -1.4282729806  0.9291838559
H   1.3939790587 -0.3632686048  2.0394763430
H   3.3462730919  0.7962388312 -0.9821988499
H   2.6507872886 -0.7696775482 -1.4623150591
22
Image 46  Energy = -383.6550319591
C  -0.8836295705 -0.4605433562  0.4489544104
C   1.4516490889  0.3102291522 -0.0425061285
C  -1.5037988409  0.8844363164  0.8328551699
C   2.0529678833 -0.3853945095  1.1699874457
C   2.4201501156  0.2706109334 -1.2186414577
N   0.2263127421 -0.3618969385 -0.4811915315
N  -1.9091756684 -1.2370467421 -0.2546378846
O  -1.9169563983  1.5992781896 -0.3151083217
H  -2.4139119283  0.9618508565 -0.8488769168
H  -0.1242273146  0.1157002501 -1.3048332477
H  -0.5308178847 -0.9547305060  1.3600782930
H   1.2786404947  1.3655196888  0.2205780709
H  -2.5778647741 -1.6365566934  0.3912946202
H  -1.4521911714 -2.0015929613 -0.7389534746
H  -0.7775864132  1.5016561685  1.3638431152
H  -2.3443700668  0.7188934630  1.5196559253
H   2.9872530774  0.0983553103  1.4562376198
H   1.9837696292  0.7385661459 -2.1042835168
H   2.2618492833 -1.4287497912  0.9296266995
H   1.3942258761 -0.3626090160  2.0390261802
H   3.3465712871  0.7958388155 -0.9821991138
H   2.6510430788 -0.7681738480 -1.4624494553
22
Image 47  Energy = -383.6551717874
C  -0.8792320004 -0.4597072349  0.4463500045
C   1.4502545762  0.3088476750 -0.0412087078
C  -1.5013733337  0.8807723642  0.8338288712
C   2.0523428603 -0.3862670819  1.1700225827
C   2.4198253347  0.2750553067 -1.2131215432
N   0.2283303500 -0.3616688883 -0.4838286021
N  -1.9067823824 -1.2352122968 -0.2547082252
O  -1.9170532099  1.5907805900 -0.3139963309
H  -2.4181668134  0.9552045106 -0.8496630826
H  -0.1172271794  0.1116943784 -1.3121227691
H  -0.5262966745 -0.9551898541  1.3564321034
H   1.2734723730  1.3627595665  0.2195033647
H  -2.5857339907 -1.6136314358  0.3948086081
H  -1.4577517222 -2.0083512921 -0.7323138757
H  -0.7756216295  1.5029228399  1.3601192284
H  -2.3424419641  0.7103515605  1.5198576732
H   2.9904407778  0.0942759125  1.4506673520
H   1.9855451779  0.7447524347 -2.0976067218
H   2.2534598188 -1.4320614532  0.9323047521
H   1.3947331281 -0.3558529883  2.0387064675
H   3.3491772094  0.7946067177 -0.9803279141
H   2.6500018292 -0.7604404280 -1.4652467532
22
Image 48  Energy = -383.6551590260
C  -0.8719729840 -0.4618527426  0.4442419684
C   1.4510926054  0.3100640273 -0.0388795555
C  -1.4974452851  0.8750111040  0.8343040731
C   2.0516406784 -0.3880684218  1.1699198456
C   2.4207082652  0.2803491523 -1.2105304781
N   0.2323933081 -0.3626898447 -0.4903605578
N  -1.9060437577 -1.2315097608 -0.2536776612
O  -1.9235320485  1.5777943910 -0.3193521807
H  -2.4200545394  0.9474518388 -0.8448803360
H  -0.1068777874  0.1036466319 -1.3221269421
H  -0.5185053881 -0.9569018033  1.3496891193
H   1.2657941385  1.3612323930  0.2200841164
H  -2.5975861610 -1.5776567656  0.3970243879
H  -1.4692682206 -2.0207244760 -0.7188131368
H  -0.7731140243  1.5036118326  1.3543895699
H  -2.3376344048  0.6975660419  1.5200931761
H   2.9945786226  0.0866150155  1.4429839622
H   1.9874669363  0.7574160142 -2.0883223922
H   2.2395487773 -1.4373317653  0.9365059729
H   1.3954407732 -0.3445889565  2.0408384721
H   3.3545747560  0.7956357136 -0.9748096523
H   2.6486982886 -0.7514287515 -1.4698653122
22
Image 49  Energy = -383.6552947888
C  -0.8726362532 -0.4617817500  0.4422889750
C   1.4513338669  0.3098841059 -0.0400910878
C  -1.4977780765  0.8755186918  0.8330545976
C   2.0510093200 -0.3877122613  1.1706086110
C   2.4218984416  0.2811296663 -1.2102802733
N   0.2332720919 -0.3634258593 -0.4885305124
N  -1.9051988233 -1.2314372008 -0.2544018055
O  -1.9214831190  1.5802720572 -0.3169324040
H  -2.4217145890  0.9447138445 -0.8464243832
H  -0.1076788194  0.1038743521 -1.3226028317
H  -0.5178888093 -0.9575827428  1.3503749950
H   1.2670037578  1.3622319365  0.2206124125
H  -2.5983729697 -1.5782701056  0.3973053885
H  -1.4700747272 -2.0210251746 -0.7181411483
H  -0.7735495413  1.5033045800  1.3548780059
H  -2.3370974260  0.6980632181  1.5201272694
H   2.9945559281  0.0864183954  1.4434281429
H   1.9871406628  0.7581048518 -2.0892282147
H   2.2391591256 -1.4370646891  0.9362936566
H   1.3955573022 -0.3448638984  2.0409956032
H   3.3539781623  0.7957181766 -0.9749145396
H   2.6484670441 -0.7524293257 -1.4699639982
22
Image 50  Energy = -383.6553337697
C  -0.8716715827 -0.4626382901  0.4406541334
C   1.4521302218  0.3103665721 -0.0406097487
C  -1.4971748130  0.8750475155  0.8317862124
C   2.0504647386 -0.3878688121  1.1711184475
C   2.4234153099  0.2825800637 -1.2105445595
N   0.2349282268 -0.3645781587 -0.4890762187
N  -1.9052274062 -1.2305291113 -0.2545270893
O  -1.9222816903  1.5799253289 -0.3170030766
H  -2.4226519415  0.9414221756 -0.8456566065
H  -0.1063227064  0.1018422356 -1.3244158786
H  -0.5157783462 -0.9587750828  1.3495038099
H   1.2660122193  1.3630464007  0.2216588223
H  -2.6011047654 -1.5718922969  0.3971913367
H  -1.4737574169 -2.0236416697 -0.7144065706
H  -0.7733955122  1.5030273166  1.3538139585
H  -2.3352695422  0.6960969682  1.5201299923
H   2.9952402230  0.0845164912  1.4424183243
H   1.9870321470  0.7617349469 -2.0884095820
H   2.2362366035 -1.4379756760  0.9370557149
H   1.3960745105 -0.3426730524  2.0420409972
H   3.3546311672  0.7966718943 -0.9732879445
H   2.6483729070 -0.7520648964 -1.4709780194
22
Image 51  Energy = -383.6553879610
C  -0.8683433874 -0.4642795042  0.4376659864
C   1.4534239841  0.3112684767 -0.0412323721
C  -1.4951412177  0.8733269105  0.8292923070
C   2.0494774754 -0.3885206488  1.1716364274
C   2.4263432726  0.2862259027 -1.2107549314
N   0.2386831374 -0.3674758795 -0.4917639612
N  -1.9055953635 -1.2276810810 -0.2548241378
O  -1.9257358465  1.5774953160 -0.3175356920
H  -2.4244674138  0.9336881992 -0.8433193456
H  -0.1019822864  0.0962260983 -1.3291841026
H  -0.5104883683 -0.9616048816  1.3464595861
H   1.2614732846  1.3635760502  0.2239123720
H  -2.6088918030 -1.5538150724  0.3970451572
H  -1.4832012970 -2.0309207329 -0.7043505797
H  -0.7723371068  1.5028391256  1.3498298713
H  -2.3305854399  0.6900808376  1.5200005063
H   2.9975336230  0.0790878129  1.4391661968
H   1.9875428163  0.7713223065 -2.0852502176
H   2.2285157526 -1.4407887389  0.9396629094
H   1.3979602729 -0.3359135192  2.0445449306
H   3.3570319005  0.7991045303 -0.9685930081
H   2.6486865691 -0.7496006665 -1.4739514621
22
Image 52  Energy = -383.6554399530
C  -0.8660401051 -0.4645168959  0.4352718489
C   1.4530723025  0.3103377870 -0.0424193662
C  -1.4927814680  0.8729160320  0.8276957847
C   2.0492475021 -0.3886971348  1.1713908220
C   2.4283958016  0.2898851829 -1.2101491970
N   0.2410109586 -0.3714104668 -0.4933594784
N  -1.9079324919 -1.2261017644 -0.2552931555
O  -1.9311117031  1.5756762185 -0.3167104500
H  -2.4243259785  0.9286110550 -0.8416583429
H  -0.0998458014  0.0915804857 -1.3319327563
H  -0.5073120207 -0.9641595611  1.3436313275
H   1.2557377499  1.3612402147  0.2255764928
H  -2.6152172942 -1.5414530234  0.3950424567
H  -1.4914692063 -2.0365410723 -0.6950280901
H  -0.7703419985  1.5036982728  1.3449134553
H  -2.3257471744  0.6862917138  1.5196104955
H   3.0002184714  0.0735782487  1.4370403788
H   1.9900315649  0.7792974415 -2.0832815074
H   2.2233147244 -1.4425162332  0.9427618052
H   1.4018745742 -0.3294972328  2.0462916954
H   3.3582646261  0.8015220817 -0.9640609773
H   2.6508595303 -0.7461005204 -1.4768768073
22
Image 53  Energy = -383.6554886419
C  -0.8634834379 -0.4668447914  0.4324109007
C   1.4529039957  0.3083559773 -0.0430538798
C  -1.4887010933  0.8714776002  0.8246003295
C   2.0498276276 -0.3892771936  1.1703331527
C   2.4307660341  0.2959335838 -1.2096665859
N   0.2434736514 -0.3785600891 -0.4992470943
N  -1.9101202743 -1.2207050453 -0.2570371008
O  -1.9409555564  1.5734556111 -0.3143722962
H  -2.4244195228  0.9186377796 -0.8399648060
H  -0.0957106743  0.0821241511 -1.3358645520
H  -0.5027545727 -0.9680247256  1.3375093917
H   1.2440516754  1.3553842721  0.2280069514
H  -2.6291203030 -1.5196281308  0.3929096763
H  -1.5059909057 -2.0481696907 -0.6783468586
H  -0.7652090975  1.5066787165  1.3355527023
H  -2.3165707255  0.6795757795  1.5198438161
H   3.0059395986  0.0632838979  1.4325704574
H   1.9961763186  0.7937724640 -2.0791619389
H   2.2139356551 -1.4458196765  0.9489824365
H   1.4093670266 -0.3170851663  2.0498214792
H   3.3608135358  0.8064785115 -0.9549576009
H   2.6556836205 -0.7374030265 -1.4824121496
22
Image 54  Energy = -383.6555283457
C  -0.8649446665 -0.4669003374  0.4323016951
C   1.4519350606  0.3066365481 -0.0433563675
C  -1.4882069165  0.8722493548  0.8255113925
C   2.0509079086 -0.3894777947  1.1703219359
C   2.4302221749  0.2963783462 -1.2090247013
N   0.2422987536 -0.3803162534 -0.4980466497
N  -1.9121098781 -1.2220177149 -0.2568082265
O  -1.9427376712  1.5739250961 -0.3140660279
H  -2.4229694265  0.9203122921 -0.8409877863
H  -0.0977185443  0.0827187901 -1.3357003156
H  -0.5050687564 -0.9676091920  1.3376111813
H   1.2423457263  1.3528990508  0.2273022842
H  -2.6288199492 -1.5225096508  0.3915194932
H  -1.5051188615 -2.0475879988 -0.6787336517
H  -0.7635968189  1.5080360198  1.3344392453
H  -2.3160609767  0.6813301720  1.5212871754
H   3.0072107875  0.0632033277  1.4323352751
H   1.9984793855  0.7932261076 -2.0799271822
H   2.2154537973 -1.4457211010  0.9497228234
H   1.4109261657 -0.3166890872  2.0497090946
H   3.3597137240  0.8069622238 -0.9541515109
H   2.6577615593 -0.7354073868 -1.4828027400
22
Image 55  Energy = -383.6555568607
C  -0.8670664831 -0.4668235240  0.4323178576
C   1.4507129471  0.3043017867 -0.0435002517
C  -1.4879768345  0.8732500941  0.8263369779
C   2.0523143942 -0.3897002132  1.1704862604
C   2.4297016083  0.2971593394 -1.2080100097
N   0.2404543200 -0.3820402195 -0.4979213335
N  -1.9136940313 -1.2237918075 -0.2572171855
O  -1.9440773494  1.5747487351 -0.3131085055
H  -2.4216852407  0.9217705665 -0.8429586802
H  -0.0998558020  0.0828111851 -1.3348821588
H  -0.5082933178 -0.9671018616  1.3380717222
H   1.2403137774  1.3499951949  0.2263167589
H  -2.6293568970 -1.5259927383  0.3906603716
H  -1.5039110565 -2.0469121563 -0.6794921857
H  -0.7614992419  1.5096175262  1.3330038513
H  -2.3151939506  0.6837736686  1.5237334278
H   3.0090324297  0.0633040464  1.4315383124
H   2.0013217601  0.7927242104 -2.0809895064
H   2.2172595272 -1.4459912711  0.9506735216
H   1.4126687825 -0.3162460275  2.0497113277
H   3.3582236116  0.8077264657 -0.9528800145
H   2.6605096235 -0.7329421846 -1.4834341154
22
Image 56  Energy = -383.6555878027
C  -0.8701405221 -0.4677153147  0.4307095216
C   1.4487772721  0.3006458452 -0.0442360090
C  -1.4878389161  0.8746757721  0.8263350747
C   2.0542106913 -0.3909665407  1.1708048016
C   2.4299412828  0.2995435394 -1.2069846588
N   0.2388142727 -0.3866177794 -0.4982235060
N  -1.9170005769 -1.2241191594 -0.2570023578
O  -1.9471588841  1.5748968119 -0.3118803582
H  -2.4199332396  0.9215166893 -0.8460207832
H  -0.1022203972  0.0803388980 -1.3357548164
H  -0.5132545826 -0.9672939932  1.3386352157
H   1.2350789450  1.3453579904  0.2254222335
H  -2.6343867109 -1.5254861835  0.3896441031
H  -1.5041387429 -2.0503532710 -0.6786378961
H  -0.7573629538  1.5113923339  1.3283390400
H  -2.3105896506  0.6873185108  1.5298883841
H   3.0135483341  0.0619570850  1.4272009750
H   2.0064836993  0.7961739812 -2.0818148138
H   2.2175774575 -1.4481776968  0.9538211421
H   1.4163726945 -0.3131453799  2.0513892758
H   3.3567101071  0.8114421296 -0.9472070581
H   2.6664130035 -0.7277434512 -1.4859710512
22
Image 57  Energy = -383.6556212374
C  -0.8722149070 -0.4684332598  0.4309918324
C   1.4477822651  0.2983383934 -0.0445459353
C  -1.4875450727  0.8753217671  0.8259627038
C   2.0554618957 -0.3918474798  1.1710788466
C   2.4307469143  0.3015064876 -1.2066428206
N   0.2373077032 -0.3895394479 -0.4997110501
N  -1.9183821671 -1.2268102387 -0.2583613158
O  -1.9491034414  1.5750559404 -0.3117288511
H  -2.4188151100  0.9209739186 -0.8482131526
H  -0.1032596976  0.0774394739 -1.3360980404
H  -0.5173517398 -0.9673083648  1.3391392921
H   1.2315184371  1.3426319058  0.2249409538
H  -2.6384928609 -1.5242261243  0.3893271510
H  -1.5055118677 -2.0511154942 -0.6772609620
H  -0.7545466052  1.5118269476  1.3245695818
H  -2.3067116755  0.6904653799  1.5353675802
H   3.0164000436  0.0610292257  1.4227627638
H   2.0097598574  0.7993605203 -2.0821993649
H   2.2174411079 -1.4502988675  0.9563137962
H   1.4189985419 -0.3110438854  2.0529156692
H   3.3554015954  0.8147838861 -0.9421612744
H   2.6710193715 -0.7244698688 -1.4879909352
22
Image 58  Energy = -383.6556403686
C  -0.8726760833 -0.4691900392  0.4307197102
C   1.4477327470  0.2978611328 -0.0448979884
C  -1.4873955626  0.8748240061  0.8249822775
C   2.0553890834 -0.3923968812  1.1709539074
C   2.4319231602  0.3028074003 -1.2068339418
N   0.2373558559 -0.3908314078 -0.5006667649
N  -1.9190695043 -1.2270293870 -0.2582419018
O  -1.9498726176  1.5747435674 -0.3120977559
H  -2.4188482011  0.9192094234 -0.8488090816
H  -0.1026060654  0.0745397878 -1.3369412176
H  -0.5186182881 -0.9678043667  1.3394553473
H   1.2298752405  1.3421793317  0.2252721932
H  -2.6412573080 -1.5205868286  0.3889757094
H  -1.5076106323 -2.0528233230 -0.6755792568
H  -0.7533208778  1.5110095969  1.3220395611
H  -2.3037445798  0.6917884581  1.5382705594
H   3.0172726308  0.0599539739  1.4191607643
H   2.0106013665  0.8026639610 -2.0815667561
H   2.2159414805 -1.4517938166  0.9579677662
H   1.4204766633 -0.3095170910  2.0540880517
H   3.3550387467  0.8172687150 -0.9384775921
H   2.6733153348 -0.7232354039 -1.4893171178
22
Image 59  Energy = -383.6556597583
C  -0.8732246656 -0.4705135453  0.4301756047
C   1.4473109005  0.2972680445 -0.0456865954
C  -1.4867739933  0.8740792276  0.8235189645
C   2.0546346959 -0.3934089705  1.1700681609
C   2.4334528350  0.3046387063 -1.2068761648
N   0.2378598136 -0.3930188936 -0.5005862522
N  -1.9193566882 -1.2266552835 -0.2583398790
O  -1.9513869092  1.5732475754 -0.3131425951
H  -2.4187332213  0.9167527691 -0.8492200588
H  -0.1015575225  0.0696298510 -1.3389160648
H  -0.5205257652 -0.9686191009  1.3402130058
H   1.2279703154  1.3414392296  0.2258704615
H  -2.6457273383 -1.5151761197  0.3884518477
H  -1.5116243723 -2.0553070390 -0.6727863261
H  -0.7510133087  1.5090234314  1.3176080955
H  -2.2989497587  0.6945428642  1.5424208034
H   3.0179435085  0.0582108272  1.4128167007
H   2.0116319800  0.8080132953 -2.0798501855
H   2.2132578656 -1.4537169660  0.9606628792
H   1.4233366565 -0.3073510161  2.0556156012
H   3.3541958777  0.8215627966 -0.9323581136
H   2.6771816892 -0.7210008786 -1.4912034093
22
Image 60  Energy = -383.6556682528
C  -0.8733212637 -0.4715989084  0.4308888069
C   1.4462654974  0.2959855563 -0.0460770540
C  -1.4859132248  0.8733571381  0.8222355986
C   2.0540667798 -0.3939971887  1.1686368724
C   2.4342037060  0.3067278789 -1.2059900161
N   0.2376800177 -0.3950023409 -0.5006398397
N  -1.9222769305 -1.2267053662 -0.2574162085
O  -1.9526168348  1.5720070502 -0.3134563706
H  -2.4189348237  0.9141033918 -0.8502823772
H  -0.1007152655  0.0637909874 -1.3401018213
H  -0.5230591950 -0.9691210943  1.3411163564
H   1.2268454299  1.3400372245  0.2261775194
H  -2.6480283468 -1.5108153721  0.3860496471
H  -1.5154212682 -2.0575395312 -0.6706651081
H  -0.7470397776  1.5072275075  1.3127722323
H  -2.2944874518  0.6985854332  1.5460250364
H   3.0180784870  0.0565878334  1.4060221181
H   2.0129723606  0.8127133102 -2.0774950766
H   2.2107894077 -1.4553184899  0.9630416326
H   1.4268472175 -0.3055584227  2.0566142873
H   3.3522218999  0.8258976478 -0.9263053639
H   2.6817461743 -0.7177234437 -1.4926943886
22
Image 61  Energy = -383.6556808916
C  -0.8735454552 -0.4714419965  0.4305928780
C   1.4461583122  0.2960570373 -0.0460654797
C  -1.4856258736  0.8734806945  0.8225870740
C   2.0538784437 -0.3939476800  1.1685169289
C   2.4338095725  0.3065264979 -1.2055735180
N   0.2377048320 -0.3948563808 -0.4998901751
N  -1.9212769908 -1.2261526082 -0.2578689168
O  -1.9524468482  1.5717383290 -0.3135332528
H  -2.4190069461  0.9143854738 -0.8499917024
H  -0.1008641783  0.0640383982 -1.3401189055
H  -0.5225898155 -0.9691441090  1.3413566025
H   1.2276115490  1.3401719315  0.2261372863
H  -2.6477889032 -1.5118765339  0.3864436456
H  -1.5153538400 -2.0570594003 -0.6710023029
H  -0.7467914665  1.5072545446  1.3131066800
H  -2.2951947364  0.6986240653  1.5450741394
H   3.0177019963  0.0568564222  1.4065110975
H   2.0126040166  0.8120502685 -2.0772755409
H   2.2108811237 -1.4548724695  0.9625098424
H   1.4267002369 -0.3059580594  2.0562135725
H   3.3519622297  0.8254698450 -0.9270329976
H   2.6813753362 -0.7177034688 -1.4922404737
