7
Image 0  Energy = -29.6075593150
C   0.8613385983  0.7718101966 -0.1718765723
H   0.6612420581  1.5335521738 -0.9375784433
O   0.5522144760  0.9888425120  1.1202821002
C   1.3421672047 -0.5678817246 -0.1813062290
H   0.8249916849 -0.2459457147  1.0724829219
H   1.0212189895 -1.3464360026 -0.8849097417
H   2.3232944365 -0.7019884559  0.2958788688
7
Image 1  Energy = -29.6088789618
C   0.8603208332  0.7733997196 -0.1690091265
H   0.6608574394  1.5332932544 -0.9369718087
O   0.5521000961  0.9909960026  1.1186167477
C   1.3423363764 -0.5691089855 -0.1791798864
H   0.8360032491 -0.2857983873  1.0408756905
H   1.0187722838 -1.3455217082 -0.8824788090
H   2.3270409492 -0.7012877479  0.2913724276
7
Image 2  Energy = -29.6110135084
C   0.8591236947  0.7752604726 -0.1655143519
H   0.6604138869  1.5330015708 -0.9360720264
O   0.5521531802  0.9929872453  1.1163691395
C   1.3425645492 -0.5703809047 -0.1769592161
H   0.8458049652 -0.3261104309  1.0102320671
H   1.0161112326 -1.3445116892 -0.8798945107
H   2.3310471135 -0.7003151942  0.2861016164
7
Image 3  Energy = -29.6142613208
C   0.8579643179  0.7770141922 -0.1620674351
H   0.6600991582  1.5326179758 -0.9350516823
O   0.5522055525  0.9951009291  1.1140878287
C   1.3426999251 -0.5715223537 -0.1747799692
H   0.8553260096 -0.3685456539  0.9823946414
H   1.0141262693 -1.3435277160 -0.8782341169
H   2.3351961904 -0.6993243192  0.2804281282
7
Image 4  Energy = -29.6188156223
C   0.8568786436  0.7787083982 -0.1589200347
H   0.6599029892  1.5323062392 -0.9341832082
O   0.5522255179  0.9973011301  1.1119483291
C   1.3426934517 -0.5726022251 -0.1725259401
H   0.8651031450 -0.4127108317  0.9563368985
H   1.0129768189 -1.3423255097 -0.8773742348
H   2.3394614438 -0.6982914697  0.2743542233
7
Image 5  Energy = -29.6244124836
C   0.8557940585  0.7804120255 -0.1557597923
H   0.6598242228  1.5320384016 -0.9335541550
O   0.5522523706  0.9995150400  1.1097973355
C   1.3426023415 -0.5737432070 -0.1701675375
H   0.8744157421 -0.4569568598  0.9307228719
H   1.0125051213 -1.3407857832 -0.8770295589
H   2.3442822894 -0.6971608518  0.2673767325
7
Image 6  Energy = -29.6310993797
C   0.8547343584  0.7820350297 -0.1525877204
H   0.6598987695  1.5317174035 -0.9331075694
O   0.5522457925  1.0018807635  1.1076869254
C   1.3424881760 -0.5749200187 -0.1679290185
H   0.8832228051 -0.5024145561  0.9073869688
H   1.0127703973 -1.3391353200 -0.8775527060
H   2.3492272112 -0.6958981315  0.2598148701
7
Image 7  Energy = -29.6385668284
C   0.8536861081  0.7835670153 -0.1493610073
H   0.6601600537  1.5312343914 -0.9326896965
O   0.5521851451  1.0044887133  1.1056236496
C   1.3424547204 -0.5761960858 -0.1659949664
H   0.8908826449 -0.5496557303  0.8879207864
H   1.0137589128 -1.3373502318 -0.8790583843
H   2.3541694026 -0.6944019224  0.2516231614
7
Image 8  Energy = -29.6458882159
C   0.8525435462  0.7851302738 -0.1457451452
H   0.6606604919  1.5306076684 -0.9323039212
O   0.5521361523  1.0072858792  1.1033497332
C   1.3425542747 -0.5776788593 -0.1642919349
H   0.8963954093 -0.5985339748  0.8724733094
H   1.0154877289 -1.3351348076 -0.8816369713
H   2.3596331021 -0.6924680852  0.2419767700
7
Image 9  Energy = -29.6528012520
C   0.8512900035  0.7867344396 -0.1417065948
H   0.6614634067  1.5298085749 -0.9320096427
O   0.5521244440  1.0101689947  1.1008366384
C   1.3427621368 -0.5793988595 -0.1627139365
H   0.8996126620 -0.6473481874  0.8602351236
H   1.0179847525 -1.3323610173 -0.8853940185
H   2.3657617287 -0.6900092122  0.2306405742
7
Image 10  Energy = -29.6593120909
C   0.8499480734  0.7882598364 -0.1372737426
H   0.6626015271  1.5287661004 -0.9317305197
O   0.5521215111  1.0132073404  1.0981607179
C   1.3430274589 -0.5813522125 -0.1611862486
H   0.9013756864 -0.6958392464  0.8493501387
H   1.0213187813 -1.3289673768 -0.8904749729
H   2.3724016172 -0.6869946478  0.2177756792
7
Image 11  Energy = -29.6653798586
C   0.8485206849  0.7895992680 -0.1324166802
H   0.6641057612  1.5274078074 -0.9313242216
O   0.5521107909  1.0164598849  1.0953451859
C   1.3433428718 -0.5835733328 -0.1596795716
H   0.9020219512 -0.7434434927  0.8389102039
H   1.0256239536 -1.3247056198 -0.8971109491
H   2.3793660474 -0.6834124461  0.2033051310
7
Image 12  Energy = -29.6710956609
C   0.8470440696  0.7907048535 -0.1273073906
H   0.6659389946  1.5257147999 -0.9306858525
O   0.5520528250  1.0199773799  1.0925214492
C   1.3437027757 -0.5860588968 -0.1582274135
H   0.9022832835 -0.7903483644  0.8286480199
H   1.0308651003 -1.3194674866 -0.9052520540
H   2.3862567547 -0.6794391539  0.1877043498
7
Image 13  Energy = -29.6764521217
C   0.8455084822  0.7915570938 -0.1219445242
H   0.6681180886  1.5236425470 -0.9298249395
O   0.5519202176  1.0238454566  1.0897208710
C   1.3441273174 -0.5888686532 -0.1568580742
H   0.9025101150 -0.8370571134  0.8184672698
H   1.0370661997 -1.3130153185 -0.9150389547
H   2.3929933391 -0.6751794729  0.1710429910
7
Image 14  Energy = -29.6811198658
C   0.8438994493  0.7920812220 -0.1162662308
H   0.6707507759  1.5210291024 -0.9288501933
O   0.5517104352  1.0280269573  1.0869517471
C   1.3446228200 -0.5920927076 -0.1555638408
H   0.9026957035 -0.8811619376  0.8078867196
H   1.0442931795 -1.3050268567 -0.9267597534
H   2.3995462300 -0.6706472294  0.1532384723
7
Image 15  Energy = -29.6852392322
C   0.8421675342  0.7921694382 -0.1100958150
H   0.6740451491  1.5176506511 -0.9278199841
O   0.5513759371  1.0327390051  1.0842183870
C   1.3452352416 -0.5959280506 -0.1543594594
H   0.9029986968 -0.9230089337  0.7961560410
H   1.0528408630 -1.2948474878 -0.9410425091
H   2.4060498598 -0.6657415312  0.1337296848
7
Image 16  Energy = -29.6888248390
C   0.8404244666  0.7917479816 -0.1038347004
H   0.6779439053  1.5134680123 -0.9268801725
O   0.5508646145  1.0379426089  1.0817966674
C   1.3459573911 -0.6002431520 -0.1534030219
H   0.9037844285 -0.9622401713  0.7840674316
H   1.0623229522 -1.2825887923 -0.9573124108
H   2.4121639214 -0.6607390589  0.1135837375
7
Image 17  Energy = -29.6919716662
C   0.8387306011  0.7907311173 -0.0976281444
H   0.6824376265  1.5083740594 -0.9260319269
O   0.5501273097  1.0437255891  1.0798211518
C   1.3467888944 -0.6050104666 -0.1527924548
H   0.9052997036 -0.9994758677  0.7717736214
H   1.0725566316 -1.2681685441 -0.9753611658
H   2.4178993656 -0.6556951983  0.0932026344
7
Image 18  Energy = -29.6947518206
C   0.8371596921  0.7889927537 -0.0915870278
H   0.6874767187  1.5023248546 -0.9253969852
O   0.5491219121  1.0501520043  1.0784137289
C   1.3477274222 -0.6101291243 -0.1526429271
H   0.9077458385 -1.0350797040  0.7591614069
H   1.0832085597 -1.2517919953 -0.9947557685
H   2.4232551110 -0.6507132765  0.0731471781
7
Image 19  Energy = -29.6972195274
C   0.8357592767  0.7864674811 -0.0857552619
H   0.6929337316  1.4953162394 -0.9251419395
O   0.5478378340  1.0572128484  1.0776294889
C   1.3487943908 -0.6154590837 -0.1530760790
H   0.9111510452 -1.0690340871  0.7460470612
H   1.0937939534 -1.2340320395 -1.0147889155
H   2.4281616257 -0.6459801283  0.0541584652
7
Image 20  Energy = -29.6994529581
C   0.8344640187  0.7830289455 -0.0797909335
H   0.6989371948  1.4869061261 -0.9252950880
O   0.5462363327  1.0651293519  1.0773969258
C   1.3501008211 -0.6211163084 -0.1542717234
H   0.9152853739 -1.1014284934  0.7319159118
H   1.1043484453 -1.2148484220 -1.0355600532
H   2.4327552111 -0.6416285321  0.0360818084
7
Image 21  Energy = -29.7014605618
C   0.8332351116  0.7785341889 -0.0734156647
H   0.7055197333  1.4766964696 -0.9256655320
O   0.5442801760  1.0740350083  1.0776604652
C   1.3517887987 -0.6271080647 -0.1564880817
H   0.9196562296 -1.1314415888  0.7167207105
H   1.1146779664 -1.1945514705 -1.0567228452
H   2.4370501526 -0.6381002270  0.0190691036
7
Image 22  Energy = -29.7033023900
C   0.8320776661  0.7728595088 -0.0664226516
H   0.7125832689  1.4643993234 -0.9260488929
O   0.5418996469  1.0841309408  1.0784172796
C   1.3539985173 -0.6333908109 -0.1599694001
H   0.9240327854 -1.1599384058  0.7002601261
H   1.1243620069 -1.1737032139 -1.0780185135
H   2.4411710739 -0.6359168341  0.0033509278
7
Image 23  Energy = -29.7049985594
C   0.8310471392  0.7662358379 -0.0588974384
H   0.7196828585  1.4503462761 -0.9263961924
O   0.5391240771  1.0952579017  1.0795989679
C   1.3566893091 -0.6398053310 -0.1646033296
H   0.9286773095 -1.1880550508  0.6823128639
H   1.1328722955 -1.1533389721 -1.0988816834
H   2.4451873206 -0.6353596655 -0.0106987000
7
Image 24  Energy = -29.7065184331
C   0.8301172718  0.7590017783 -0.0508606803
H   0.7263619660  1.4353862752 -0.9263553151
O   0.5360346846  1.1071742390  1.0810119886
C   1.3597969382 -0.6463638022 -0.1701359078
H   0.9336515651 -1.2160404625  0.6628775552
H   1.1403196524 -1.1340457972 -1.1190800233
H   2.4491721319 -0.6364961377 -0.0233720416
7
Image 25  Energy = -29.7078096634
C   0.8292239924  0.7514043591 -0.0422443332
H   0.7322549406  1.4206247082 -0.9253350798
O   0.5327051107  1.1197161181  1.0824514252
C   1.3633033149 -0.6531655398 -0.1763843881
H   0.9386801805 -1.2440170778  0.6421321242
H   1.1470950552 -1.1160867410 -1.1385672639
H   2.4531858145 -0.6392060293 -0.0352207257
7
Image 26  Energy = -29.7088217503
C   0.8283670403  0.7437956502 -0.0333027925
H   0.7369265102  1.4068254972 -0.9227173823
O   0.5293127927  1.1324808070  1.0837136771
C   1.3669689280 -0.6601285235 -0.1828765419
H   0.9442090902 -1.2723342569  0.6201375431
H   1.1533690757 -1.0993130427 -1.1573424474
H   2.4570884420 -0.6428333679 -0.0462873329
7
Image 27  Energy = -29.7095225221
C   0.8275131438  0.7362077726 -0.0241381121
H   0.7402231878  1.3935038854 -0.9191001254
O   0.5259756537  1.1453403028  1.0847187180
C   1.3705823123 -0.6673469961 -0.1892299808
H   0.9509120058 -1.2993866619  0.5973019183
H   1.1596345423 -1.0821655845 -1.1772528324
H   2.4609129368 -0.6472903627 -0.0566112573
7
Image 28  Energy = -29.7098371154
C   0.8265921163  0.7289690382 -0.0147462294
H   0.7417916378  1.3801015217 -0.9149649415
O   0.5225521888  1.1577598177  1.0856578251
C   1.3746344576 -0.6745345283 -0.1956111189
H   0.9578278554 -1.3229726055  0.5747951391
H   1.1655003206 -1.0636685210 -1.2010306267
H   2.4635842743 -0.6540182318 -0.0652863417
7
Image 29  Energy = -29.7099306053
C   0.8261952948  0.7268037091 -0.0114726530
H   0.7425376513  1.3760866737 -0.9129996162
O   0.5212033855  1.1617256485  1.0861158230
C   1.3770737955 -0.6760427864 -0.1994622194
H   0.9526291409 -1.3383318755  0.5673273787
H   1.1631489056 -1.0646943606 -1.1890316354
H   2.4674607769 -0.6527847035 -0.0722126867
7
Image 30  Energy = -29.7099802560
C   0.8253511024  0.7238849719 -0.0082163900
H   0.7411315795  1.3700957206 -0.9120683110
O   0.5199853736  1.1668324949  1.0863462989
C   1.3786836649 -0.6795804950 -0.2007694607
H   0.9606023222 -1.3421645445  0.5603461638
H   1.1642770807 -1.0560672261 -1.2036836591
H   2.4699142186 -0.6557093904 -0.0783667238
7
Image 31  Energy = -29.7099751002
C   0.8219744229  0.7232966706 -0.0052464042
H   0.7303283647  1.3668341545 -0.9091796270
O   0.5198809435  1.1664188709  1.0883940568
C   1.3822584456 -0.6781413813 -0.2057326364
H   0.9645986632 -1.3512941741  0.5553759430
H   1.1696495809 -1.0496969505 -1.2092599579
H   2.4710822376 -0.6535972630 -0.0818670635
