7
Image 0  Energy = -29.6075593150
C   0.8613385983  0.7718101966 -0.1718765723
H   0.6612420581  1.5335521738 -0.9375784433
O   0.5522144760  0.9888425120  1.1202821002
C   1.3421672047 -0.5678817246 -0.1813062290
H   0.8249916849 -0.2459457147  1.0724829219
H   1.0212189895 -1.3464360026 -0.8849097417
H   2.3232944365 -0.7019884559  0.2958788688
7
Image 1  Energy = -29.6088789618
C   0.8603208332  0.7733997196 -0.1690091265
H   0.6608574394  1.5332932544 -0.9369718087
O   0.5521000961  0.9909960026  1.1186167477
C   1.3423363764 -0.5691089855 -0.1791798864
H   0.8360032491 -0.2857983873  1.0408756905
H   1.0187722838 -1.3455217082 -0.8824788090
H   2.3270409492 -0.7012877479  0.2913724276
7
Image 2  Energy = -29.6110135084
C   0.8591236947  0.7752604726 -0.1655143519
H   0.6604138869  1.5330015708 -0.9360720264
O   0.5521531802  0.9929872453  1.1163691395
C   1.3425645492 -0.5703809047 -0.1769592161
H   0.8458049652 -0.3261104309  1.0102320671
H   1.0161112326 -1.3445116892 -0.8798945107
H   2.3310471135 -0.7003151942  0.2861016164
7
Image 3  Energy = -29.6142613208
C   0.8579643179  0.7770141922 -0.1620674351
H   0.6600991582  1.5326179758 -0.9350516823
O   0.5522055525  0.9951009291  1.1140878287
C   1.3426999251 -0.5715223537 -0.1747799692
H   0.8553260096 -0.3685456539  0.9823946414
H   1.0141262693 -1.3435277160 -0.8782341169
H   2.3351961904 -0.6993243192  0.2804281282
7
Image 4  Energy = -29.6188156223
C   0.8568786436  0.7787083982 -0.1589200347
H   0.6599029892  1.5323062392 -0.9341832082
O   0.5522255179  0.9973011301  1.1119483291
C   1.3426934517 -0.5726022251 -0.1725259401
H   0.8651031450 -0.4127108317  0.9563368985
H   1.0129768189 -1.3423255097 -0.8773742348
H   2.3394614438 -0.6982914697  0.2743542233
7
Image 5  Energy = -29.6244124836
C   0.8557940585  0.7804120255 -0.1557597923
H   0.6598242228  1.5320384016 -0.9335541550
O   0.5522523706  0.9995150400  1.1097973355
C   1.3426023415 -0.5737432070 -0.1701675375
H   0.8744157421 -0.4569568598  0.9307228719
H   1.0125051213 -1.3407857832 -0.8770295589
H   2.3442822894 -0.6971608518  0.2673767325
7
Image 6  Energy = -29.6310993797
C   0.8547343584  0.7820350297 -0.1525877204
H   0.6598987695  1.5317174035 -0.9331075694
O   0.5522457925  1.0018807635  1.1076869254
C   1.3424881760 -0.5749200187 -0.1679290185
H   0.8832228051 -0.5024145561  0.9073869688
H   1.0127703973 -1.3391353200 -0.8775527060
H   2.3492272112 -0.6958981315  0.2598148701
7
Image 7  Energy = -29.6385668284
C   0.8536861081  0.7835670153 -0.1493610073
H   0.6601600537  1.5312343914 -0.9326896965
O   0.5521851451  1.0044887133  1.1056236496
C   1.3424547204 -0.5761960858 -0.1659949664
H   0.8908826449 -0.5496557303  0.8879207864
H   1.0137589128 -1.3373502318 -0.8790583843
H   2.3541694026 -0.6944019224  0.2516231614
7
Image 8  Energy = -29.6458882159
C   0.8525435462  0.7851302738 -0.1457451452
H   0.6606604919  1.5306076684 -0.9323039212
O   0.5521361523  1.0072858792  1.1033497332
C   1.3425542747 -0.5776788593 -0.1642919349
H   0.8963954093 -0.5985339748  0.8724733094
H   1.0154877289 -1.3351348076 -0.8816369713
H   2.3596331021 -0.6924680852  0.2419767700
7
Image 9  Energy = -29.6528012520
C   0.8512900035  0.7867344396 -0.1417065948
H   0.6614634067  1.5298085749 -0.9320096427
O   0.5521244440  1.0101689947  1.1008366384
C   1.3427621368 -0.5793988595 -0.1627139365
H   0.8996126620 -0.6473481874  0.8602351236
H   1.0179847525 -1.3323610173 -0.8853940185
H   2.3657617287 -0.6900092122  0.2306405742
7
Image 10  Energy = -29.6593120909
C   0.8499480734  0.7882598364 -0.1372737426
H   0.6626015271  1.5287661004 -0.9317305197
O   0.5521215111  1.0132073404  1.0981607179
C   1.3430274589 -0.5813522125 -0.1611862486
H   0.9013756864 -0.6958392464  0.8493501387
H   1.0213187813 -1.3289673768 -0.8904749729
H   2.3724016172 -0.6869946478  0.2177756792
7
Image 11  Energy = -29.6653798586
C   0.8485206849  0.7895992680 -0.1324166802
H   0.6641057612  1.5274078074 -0.9313242216
O   0.5521107909  1.0164598849  1.0953451859
C   1.3433428718 -0.5835733328 -0.1596795716
H   0.9020219512 -0.7434434927  0.8389102039
H   1.0256239536 -1.3247056198 -0.8971109491
H   2.3793660474 -0.6834124461  0.2033051310
7
Image 12  Energy = -29.6710956609
C   0.8470440696  0.7907048535 -0.1273073906
H   0.6659389946  1.5257147999 -0.9306858525
O   0.5520528250  1.0199773799  1.0925214492
C   1.3437027757 -0.5860588968 -0.1582274135
H   0.9022832835 -0.7903483644  0.8286480199
H   1.0308651003 -1.3194674866 -0.9052520540
H   2.3862567547 -0.6794391539  0.1877043498
7
Image 13  Energy = -29.6764521217
C   0.8455084822  0.7915570938 -0.1219445242
H   0.6681180886  1.5236425470 -0.9298249395
O   0.5519202176  1.0238454566  1.0897208710
C   1.3441273174 -0.5888686532 -0.1568580742
H   0.9025101150 -0.8370571134  0.8184672698
H   1.0370661997 -1.3130153185 -0.9150389547
H   2.3929933391 -0.6751794729  0.1710429910
7
Image 14  Energy = -29.6811198658
C   0.8438994493  0.7920812220 -0.1162662308
H   0.6707507759  1.5210291024 -0.9288501933
O   0.5517104352  1.0280269573  1.0869517471
C   1.3446228200 -0.5920927076 -0.1555638408
H   0.9026957035 -0.8811619376  0.8078867196
H   1.0442931795 -1.3050268567 -0.9267597534
H   2.3995462300 -0.6706472294  0.1532384723
7
Image 15  Energy = -29.6852392322
C   0.8421675342  0.7921694382 -0.1100958150
H   0.6740451491  1.5176506511 -0.9278199841
O   0.5513759371  1.0327390051  1.0842183870
C   1.3452352416 -0.5959280506 -0.1543594594
H   0.9029986968 -0.9230089337  0.7961560410
H   1.0528408630 -1.2948474878 -0.9410425091
H   2.4060498598 -0.6657415312  0.1337296848
7
Image 16  Energy = -29.6888248390
C   0.8404244666  0.7917479816 -0.1038347004
H   0.6779439053  1.5134680123 -0.9268801725
O   0.5508646145  1.0379426089  1.0817966674
C   1.3459573911 -0.6002431520 -0.1534030219
H   0.9037844285 -0.9622401713  0.7840674316
H   1.0623229522 -1.2825887923 -0.9573124108
H   2.4121639214 -0.6607390589  0.1135837375
7
Image 17  Energy = -29.6919716662
C   0.8387306011  0.7907311173 -0.0976281444
H   0.6824376265  1.5083740594 -0.9260319269
O   0.5501273097  1.0437255891  1.0798211518
C   1.3467888944 -0.6050104666 -0.1527924548
H   0.9052997036 -0.9994758677  0.7717736214
H   1.0725566316 -1.2681685441 -0.9753611658
H   2.4178993656 -0.6556951983  0.0932026344
7
Image 18  Energy = -29.6947518206
C   0.8371596921  0.7889927537 -0.0915870278
H   0.6874767187  1.5023248546 -0.9253969852
O   0.5491219121  1.0501520043  1.0784137289
C   1.3477274222 -0.6101291243 -0.1526429271
H   0.9077458385 -1.0350797040  0.7591614069
H   1.0832085597 -1.2517919953 -0.9947557685
H   2.4232551110 -0.6507132765  0.0731471781
7
Image 19  Energy = -29.6972195274
C   0.8357592767  0.7864674811 -0.0857552619
H   0.6929337316  1.4953162394 -0.9251419395
O   0.5478378340  1.0572128484  1.0776294889
C   1.3487943908 -0.6154590837 -0.1530760790
H   0.9111510452 -1.0690340871  0.7460470612
H   1.0937939534 -1.2340320395 -1.0147889155
H   2.4281616257 -0.6459801283  0.0541584652
7
Image 20  Energy = -29.6994529581
C   0.8344640187  0.7830289455 -0.0797909335
H   0.6989371948  1.4869061261 -0.9252950880
O   0.5462363327  1.0651293519  1.0773969258
C   1.3501008211 -0.6211163084 -0.1542717234
H   0.9152853739 -1.1014284934  0.7319159118
H   1.1043484453 -1.2148484220 -1.0355600532
H   2.4327552111 -0.6416285321  0.0360818084
7
Image 21  Energy = -29.7014605618
C   0.8332351116  0.7785341889 -0.0734156647
H   0.7055197333  1.4766964696 -0.9256655320
O   0.5442801760  1.0740350083  1.0776604652
C   1.3517887987 -0.6271080647 -0.1564880817
H   0.9196562296 -1.1314415888  0.7167207105
H   1.1146779664 -1.1945514705 -1.0567228452
H   2.4370501526 -0.6381002270  0.0190691036
7
Image 22  Energy = -29.7033023900
C   0.8320776661  0.7728595088 -0.0664226516
H   0.7125832689  1.4643993234 -0.9260488929
O   0.5418996469  1.0841309408  1.0784172796
C   1.3539985173 -0.6333908109 -0.1599694001
H   0.9240327854 -1.1599384058  0.7002601261
H   1.1243620069 -1.1737032139 -1.0780185135
H   2.4411710739 -0.6359168341  0.0033509278
7
Image 23  Energy = -29.7049985594
C   0.8310471392  0.7662358379 -0.0588974384
H   0.7196828585  1.4503462761 -0.9263961924
O   0.5391240771  1.0952579017  1.0795989679
C   1.3566893091 -0.6398053310 -0.1646033296
H   0.9286773095 -1.1880550508  0.6823128639
H   1.1328722955 -1.1533389721 -1.0988816834
H   2.4451873206 -0.6353596655 -0.0106987000
7
Image 24  Energy = -29.7065184331
C   0.8301172718  0.7590017783 -0.0508606803
H   0.7263619660  1.4353862752 -0.9263553151
O   0.5360346846  1.1071742390  1.0810119886
C   1.3597969382 -0.6463638022 -0.1701359078
H   0.9336515651 -1.2160404625  0.6628775552
H   1.1403196524 -1.1340457972 -1.1190800233
H   2.4491721319 -0.6364961377 -0.0233720416
7
Image 25  Energy = -29.7078096634
C   0.8292239924  0.7514043591 -0.0422443332
H   0.7322549406  1.4206247082 -0.9253350798
O   0.5327051107  1.1197161181  1.0824514252
C   1.3633033149 -0.6531655398 -0.1763843881
H   0.9386801805 -1.2440170778  0.6421321242
H   1.1470950552 -1.1160867410 -1.1385672639
H   2.4531858145 -0.6392060293 -0.0352207257
7
Image 26  Energy = -29.7088217503
C   0.8283670403  0.7437956502 -0.0333027925
H   0.7369265102  1.4068254972 -0.9227173823
O   0.5293127927  1.1324808070  1.0837136771
C   1.3669689280 -0.6601285235 -0.1828765419
H   0.9442090902 -1.2723342569  0.6201375431
H   1.1533690757 -1.0993130427 -1.1573424474
H   2.4570884420 -0.6428333679 -0.0462873329
7
Image 27  Energy = -29.7095225221
C   0.8275131438  0.7362077726 -0.0241381121
H   0.7402231878  1.3935038854 -0.9191001254
O   0.5259756537  1.1453403028  1.0847187180
C   1.3705823123 -0.6673469961 -0.1892299808
H   0.9509120058 -1.2993866619  0.5973019183
H   1.1596345423 -1.0821655845 -1.1772528324
H   2.4609129368 -0.6472903627 -0.0566112573
7
Image 28  Energy = -29.7098371154
C   0.8265921163  0.7289690382 -0.0147462294
H   0.7417916378  1.3801015217 -0.9149649415
O   0.5225521888  1.1577598177  1.0856578251
C   1.3746344576 -0.6745345283 -0.1956111189
H   0.9578278554 -1.3229726055  0.5747951391
H   1.1655003206 -1.0636685210 -1.2010306267
H   2.4635842743 -0.6540182318 -0.0652863417
7
Image 29  Energy = -29.7099306053
C   0.8261952948  0.7268037091 -0.0114726530
H   0.7425376513  1.3760866737 -0.9129996162
O   0.5212033855  1.1617256485  1.0861158230
C   1.3770737955 -0.6760427864 -0.1994622194
H   0.9526291409 -1.3383318755  0.5673273787
H   1.1631489056 -1.0646943606 -1.1890316354
H   2.4674607769 -0.6527847035 -0.0722126867
7
Image 30  Energy = -29.7099802560
C   0.8253511024  0.7238849719 -0.0082163900
H   0.7411315795  1.3700957206 -0.9120683110
O   0.5199853736  1.1668324949  1.0863462989
C   1.3786836649 -0.6795804950 -0.2007694607
H   0.9606023222 -1.3421645445  0.5603461638
H   1.1642770807 -1.0560672261 -1.2036836591
H   2.4699142186 -0.6557093904 -0.0783667238
7
Image 31  Energy = -29.7099751002
C   0.8219744229  0.7232966706 -0.0052464042
H   0.7303283647  1.3668341545 -0.9091796270
O   0.5198809435  1.1664188709  1.0883940568
C   1.3822584456 -0.6781413813 -0.2057326364
H   0.9645986632 -1.3512941741  0.5553759430
H   1.1696495809 -1.0496969505 -1.2092599579
H   2.4710822376 -0.6535972630 -0.0818670635
7
Image 32  Energy = -29.6076040483
C   0.8620696081  0.7706078918 -0.1737602593
H   0.6614565647  1.5337669004 -0.9376422275
O   0.5525680580  0.9863925198  1.1211604702
C   1.3421049405 -0.5668731456 -0.1831632992
H   0.8123621469 -0.2041501779  1.1016245727
H   1.0232843517 -1.3468988018 -0.8864847003
H   2.3200635331 -0.7023507393  0.2990653512
7
Image 33  Energy = -29.6097121900
C   0.8626564917  0.7694786121 -0.1750988872
H   0.6617681551  1.5336746615 -0.9374393926
O   0.5529552463  0.9841610065  1.1217342827
C   1.3422386567 -0.5660576273 -0.1852787295
H   0.7980701321 -0.1642966048  1.1322050593
H   1.0251495617 -1.3472304328 -0.8876762572
H   2.3174465921 -0.7026227854  0.3015217691
7
Image 34  Energy = -29.6135279304
C   0.8631998489  0.7681770769 -0.1761257419
H   0.6622371228  1.5333128599 -0.9371519461
O   0.5532780421  0.9823094412  1.1222367491
C   1.3425757663 -0.5653213695 -0.1878281193
H   0.7825510854 -0.1270685812  1.1655409187
H   1.0269824273 -1.3474608767 -0.8886827902
H   2.3150489320 -0.7031346180  0.3035424939
7
Image 35  Energy = -29.6179887122
C   0.8637931704  0.7663902718 -0.1769696668
H   0.6629266561  1.5326727284 -0.9366686291
O   0.5534897040  0.9809126974  1.1227950954
C   1.3430460136 -0.5644693016 -0.1908945721
H   0.7666502044 -0.0923576969  1.2016879148
H   1.0290444882 -1.3474031121 -0.8896793717
H   2.3121656038 -0.7039558621  0.3056409748
7
Image 36  Energy = -29.6224768227
C   0.8644979664  0.7639142067 -0.1777095885
H   0.6638602440  1.5316755146 -0.9359268958
O   0.5535555499  0.9800165346  1.1235166894
C   1.3435847232 -0.5633992055 -0.1944996227
H   0.7513938623 -0.0597746659  1.2397956059
H   1.0315020200 -1.3470079284 -0.8910264033
H   2.3081685490 -0.7049598225  0.3084584711
7
Image 37  Energy = -29.6269865251
C   0.8653086097  0.7608775381 -0.1784810214
H   0.6649696335  1.5304323824 -0.9350685956
O   0.5534568165  0.9796273181  1.1244590498
C   1.3441918464 -0.5621988301 -0.1985750021
H   0.7371187368 -0.0298283114  1.2800707139
H   1.0343501496 -1.3464574992 -0.8930445570
H   2.3031596803 -0.7061550802  0.3121388770
7
Image 38  Energy = -29.6315422124
C   0.8661544224  0.7574195957 -0.1791788227
H   0.6661647117  1.5290670929 -0.9342649224
O   0.5532040744  0.9798311533  1.1255247157
C   1.3448667190 -0.5609944828 -0.2031486519
H   0.7244007087 -0.0041054123  1.3229970854
H   1.0377519035 -1.3458748336 -0.8960087608
H   2.2971724935 -0.7074773725  0.3172712547
7
Image 39  Energy = -29.6360259122
C   0.8670145677  0.7534966951 -0.1797398879
H   0.6674334013  1.5274042010 -0.9334450865
O   0.5528162680  0.9806429459  1.1266744413
C   1.3455963041 -0.5597409601 -0.2082295045
H   0.7130546820  0.0173908361  1.3685166018
H   1.0418305554 -1.3451106750 -0.8999960330
H   2.2903837807 -0.7091521418  0.3238976603
7
Image 40  Energy = -29.6402296937
C   0.8678771338  0.7490062751 -0.1801326724
H   0.6687674406  1.5251104995 -0.9322311608
O   0.5522970146  0.9819901822  1.1279852276
C   1.3464065336 -0.5583934783 -0.2137272662
H   0.7028098383  0.0370280477  1.4140542719
H   1.0465701252 -1.3439051363 -0.9050182393
H   2.2828641243 -0.7116343385  0.3315530876
7
Image 41  Energy = -29.6441517091
C   0.8687280802  0.7437999248 -0.1802543433
H   0.6701011596  1.5219338129 -0.9302806288
O   0.5516214629  0.9839293459  1.1295335985
C   1.3474203278 -0.5570046421 -0.2197757328
H   0.6929527827  0.0568125564  1.4590884126
H   1.0520398793 -1.3421080586 -0.9113462179
H   2.2744204312 -0.7153294984  0.3398417467
7
Image 42  Energy = -29.6478086776
C   0.8694981785  0.7379753776 -0.1799560603
H   0.6713030888  1.5176779550 -0.9274366264
O   0.5507982994  0.9864958218  1.1312728541
C   1.3487227780 -0.5557039640 -0.2263186542
H   0.6832535517  0.0769837246  1.5025500809
H   1.0581630260 -1.3397182418 -0.9192970895
H   2.2651640179 -0.7204648868  0.3482904028
7
Image 43  Energy = -29.6512338585
C   0.8701126122  0.7317869328 -0.1791510665
H   0.6721839264  1.5124735620 -0.9240924355
O   0.5498927483  0.9895393317  1.1331163413
C   1.3503418214 -0.5546246599 -0.2332279355
H   0.6731476832  0.0983778969  1.5442941721
H   1.0648887596 -1.3367100209 -0.9291271820
H   2.2554229038 -0.7270908516  0.3565088238
7
Image 44  Energy = -29.6543543404
C   0.8705184988  0.7248872437 -0.1775111318
H   0.6726416036  1.5059621999 -0.9205587985
O   0.5488501422  0.9933355744  1.1351463427
C   1.3523435157 -0.5537830611 -0.2407370367
H   0.6635455064  0.1213642901  1.5825246986
H   1.0729665995 -1.3325547633 -0.9418562004
H   2.2443501301 -0.7357892634  0.3651877896
7
Image 45  Energy = -29.6571533895
C   0.8706022914  0.7172605275 -0.1748991184
H   0.6722946474  1.4979180265 -0.9171692608
O   0.5476531576  0.9981241359  1.1373686533
C   1.3547630002 -0.5533350224 -0.2488201688
H   0.6560413474  0.1442118120  1.6158108486
H   1.0832758096 -1.3264562109 -0.9586560145
H   2.2310626946 -0.7471570201  0.3752303348
7
Image 46  Energy = -29.6596877044
C   0.8702684320  0.7093597573 -0.1715015571
H   0.6706325897  1.4884655158 -0.9140629662
O   0.5463712238  1.0037639912  1.1397093772
C   1.3575739765 -0.5535006480 -0.2571180342
H   0.6511351483  0.1658932596  1.6437553900
H   1.0961649996 -1.3177630337 -0.9797945202
H   2.2155723972 -0.7614793249  0.3865551487
7
Image 47  Energy = -29.6619724250
C   0.8695240458  0.7018215101 -0.1676285850
H   0.6675088920  1.4782117282 -0.9114351306
O   0.5451310787  1.0097936128  1.1419571228
C   1.3606183215 -0.5543230115 -0.2650711049
H   0.6485059761  0.1855004730  1.6664196731
H   1.1109762938 -1.3065973897 -1.0038102167
H   2.1987921957 -0.7780792111  0.3982178415
7
Image 48  Energy = -29.6640378302
C   0.8684515083  0.6948651686 -0.1634715749
H   0.6631575034  1.4675505144 -0.9093465329
O   0.5439946225  1.0158766928  1.1439928896
C   1.3637858874 -0.5556208952 -0.2724575359
H   0.6474436707  0.2031503140  1.6846699081
H   1.1268138635 -1.2934869265 -1.0292196820
H   2.1814425433 -0.7963752528  0.4094556532
7
Image 49  Energy = -29.6659455663
C   0.8671579360  0.6882919880 -0.1591403363
H   0.6578037179  1.4566080567 -0.9076658662
O   0.5429218113  1.0220081414  1.1458522596
C   1.3670789688 -0.5572212436 -0.2793694136
H   0.6474201226  0.2191717732  1.6999909403
H   1.1431510361 -1.2786035638 -1.0553911903
H   2.1636848056 -0.8162636789  0.4198617778
7
Image 50  Energy = -29.6677194154
C   0.8657608923  0.6819830810 -0.1547948997
H   0.6517248090  1.4455920511 -0.9062779653
O   0.5419154628  1.0280710025  1.1475690963
C   1.3704102585 -0.5589360597 -0.2858574352
H   0.6478140567  0.2342661995  1.7137540120
H   1.1597437870 -1.2623212920 -1.0816029011
H   2.1457018233 -0.8372467036  0.4292017548
7
Image 51  Energy = -29.6693698084
C   0.8643181093  0.6758568979 -0.1505050914
H   0.6451773010  1.4345139610 -0.9050618369
O   0.5409870870  1.0339920145  1.1491554093
C   1.3737100267 -0.5606372051 -0.2919725747
H   0.6483057877  0.2489660230  1.7267453440
H   1.1766083308 -1.2449519434 -1.1074469724
H   2.1275008398 -0.8589488354  0.4374091907
7
Image 52  Energy = -29.6708923644
C   0.8628298648  0.6699091711 -0.1463011967
H   0.6383984546  1.4234509711 -0.9039330459
O   0.5401482287  1.0397296299  1.1505926620
C   1.3769345336 -0.5622788027 -0.2976984050
H   0.6489430087  0.2632450889  1.7390809125
H   1.1937426383 -1.2266773826 -1.1326185438
H   2.1091336330 -0.8810757121  0.4444377253
7
Image 53  Energy = -29.6722914195
C   0.8612814860  0.6641113718 -0.1421761278
H   0.6314847521  1.4123843496 -0.9029216039
O   0.5394017714  1.0452869561  1.1518899565
C   1.3800662077 -0.5638426390 -0.3030478610
H   0.6499379259  0.2770880811  1.7505156116
H   1.2112866568 -1.2074375076 -1.1570527036
H   2.0904900160 -0.9035798283  0.4504225434
7
Image 54  Energy = -29.6735747075
C   0.8596325807  0.6584041245 -0.1380731764
H   0.6244629935  1.4011597501 -0.9020369921
O   0.5387498612  1.0507138913  1.1530337679
C   1.3831157096 -0.5653095996 -0.3080407293
H   0.6515882776  0.2903565393  1.7608305406
H   1.2294863994 -1.1870147010 -1.1808181943
H   2.0713196290 -0.9266982290  0.4554352325
7
Image 55  Energy = -29.6747272825
C   0.8578746776  0.6528547615 -0.1340281714
H   0.6174709738  1.3899236026 -0.9013048155
O   0.5382089881  1.0559446824  1.1540005192
C   1.3860450176 -0.5666472032 -0.3126239408
H   0.6540051160  0.3028349539  1.7698611857
H   1.2482697507 -1.1657069744 -1.2035122814
H   2.0517379923 -0.9502094820  0.4594321951
7
Image 56  Energy = -29.6757522142
C   0.8559951531  0.6474757445 -0.1300595426
H   0.6105480191  1.3788267266 -0.9006928519
O   0.5377857685  1.0609618585  1.1547970822
C   1.3888486529 -0.5678566766 -0.3168251852
H   0.6571905982  0.3146569027  1.7778387435
H   1.2677820497 -1.1437569002 -1.2250396919
H   2.0316690000 -0.9740119931  0.4624956591
7
Image 57  Energy = -29.6766673094
C   0.8539684603  0.6421829137 -0.1261597181
H   0.6035995365  1.3678970993 -0.9000336776
O   0.5374749273  1.0658234932  1.1554552158
C   1.3915542821 -0.5689435013 -0.3207372955
H   0.6612151669  0.3261798118  1.7851728990
H   1.2884866069 -1.1211766671 -1.2455749860
H   2.0107319272 -0.9983324990  0.4647349245
7
Image 58  Energy = -29.6774559534
C   0.8518376687  0.6370979406 -0.1224577943
H   0.5967601151  1.3575896374 -0.8992008038
O   0.5372781390  1.0704162611  1.1559863386
C   1.3941029642 -0.5699010600 -0.3243163262
H   0.6660426402  0.3373044121  1.7919741822
H   1.3100854751 -1.0988002699 -1.2645043467
H   1.9892888852 -1.0224228939  0.4661326947
7
Image 59  Energy = -29.6781305140
C   0.8495657218  0.6322334526 -0.1189860245
H   0.5899391982  1.3480388832 -0.8981484771
O   0.5371905545  1.0747676407  1.1564316718
C   1.3965318673 -0.5708031030 -0.3276112095
H   0.6717835154  0.3482003879  1.7985326741
H   1.3328643652 -1.0767310581 -1.2819241120
H   1.9671099062 -1.0461918660  0.4667624858
7
Image 60  Energy = -29.6787010795
C   0.8471281533  0.6275665476 -0.1157570043
H   0.5830720095  1.3391305983 -0.8969628586
O   0.5372105806  1.0789052699  1.1568043512
C   1.3988464641 -0.5716877577 -0.3306057795
H   0.6786657431  0.3589044221  1.8052136706
H   1.3571402729 -1.0549333278 -1.2980582781
H   1.9439663211 -1.0693090454  0.4663169913
7
Image 61  Energy = -29.6791609591
C   0.8445944769  0.6231993942 -0.1128548427
H   0.5762792714  1.3309043893 -0.8958326787
O   0.5373429566  1.0827180146  1.1570914064
C   1.4009709245 -0.5725157110 -0.3331286657
H   0.6867043332  0.3688944353  1.8119879483
H   1.3827422873 -1.0336923371 -1.3133523072
H   1.9198942054 -1.0909284168  0.4646274206
7
Image 62  Energy = -29.6795473611
C   0.8420830539  0.6194010686 -0.1104240074
H   0.5696027523  1.3233821088 -0.8947907381
O   0.5376407671  1.0859064707  1.1574799783
C   1.4029291522 -0.5729651278 -0.3354865819
H   0.6952115695  0.3785032819  1.8164540068
H   1.4085828277 -1.0132616055 -1.3271297615
H   1.8940888663 -1.1134420898  0.4658632447
7
Image 63  Energy = -29.6798641449
C   0.8395170825  0.6159533991 -0.1083055521
H   0.5627903423  1.3160590334 -0.8938013003
O   0.5380966608  1.0886107983  1.1580350749
C   1.4047009333 -0.5732087607 -0.3378282270
H   0.7044541205  0.3895072964  1.8185362199
H   1.4349417352 -0.9932375803 -1.3388396911
H   1.8675287458 -1.1360954424  0.4683502142
7
Image 64  Energy = -29.6801043963
C   0.8366020140  0.6122494339 -0.1061925590
H   0.5550220131  1.3081962867 -0.8930889496
O   0.5385880934  1.0915799966  1.1582537691
C   1.4065141782 -0.5737166659 -0.3398043784
H   0.7173282443  0.4026287227  1.8219738118
H   1.4616664491 -0.9740512774 -1.3477958145
H   1.8410252143 -1.1574862288  0.4680279193
7
Image 65  Energy = -29.6803085572
C   0.8333214735  0.6085243259 -0.1043182999
H   0.5455747734  1.2999987460 -0.8927835888
O   0.5391446567  1.0946360552  1.1581903573
C   1.4082935555 -0.5743785668 -0.3416357020
H   0.7351502129  0.4156531153  1.8280248268
H   1.4884492291 -0.9559181135 -1.3511738119
H   1.8149228328 -1.1766937747  0.4655130637
7
Image 66  Energy = -29.6804436362
C   0.8302707266  0.6054893324 -0.1031395854
H   0.5368022691  1.2930854014 -0.8928529084
O   0.5396208183  1.0969391126  1.1577168051
C   1.4095915563 -0.5748856968 -0.3424454908
H   0.7552412350  0.4279362692  1.8336296769
H   1.5164344656 -0.9382849172 -1.3523800415
H   1.7889678102 -1.1940529304  0.4642994150
7
Image 67  Energy = -29.6805458432
C   0.8273664124  0.6034221554 -0.1028149781
H   0.5281375121  1.2877648541 -0.8928783896
O   0.5402095603  1.0981313752  1.1571879592
C   1.4102437341 -0.5748576030 -0.3422612311
H   0.7767421635  0.4378293497  1.8371679963
H   1.5465589028 -0.9214535156 -1.3554919051
H   1.7635242048 -1.2100919792  0.4662665799
7
Image 68  Energy = -29.6805684185
C   0.8264484596  0.6030143983 -0.1029463415
H   0.5252435232  1.2863926847 -0.8929150715
O   0.5405139759  1.0981183671  1.1571610568
C   1.4101041683 -0.5747067114 -0.3416831779
H   0.7835052979  0.4405703361  1.8364638082
H   1.5594544856 -0.9156647453 -1.3605896074
H   1.7545369116 -1.2139871788  0.4672200896
7
Image 69  Energy = -29.6805819935
C   0.8252650569  0.6023254864 -0.1028693080
H   0.5215518798  1.2842931626 -0.8929091009
O   0.5406482428  1.0984656920  1.1570205969
C   1.4107996267 -0.5745128925 -0.3423093527
H   0.7939437532  0.4452221331  1.8385137707
H   1.5668471962 -0.9106031015 -1.3552610932
H   1.7440915101 -1.2212227290  0.4686022505
7
Image 70  Energy = -29.6806026018
C   0.8241335546  0.6018008118 -0.1030217052
H   0.5176015559  1.2826255906 -0.8932594470
O   0.5409116308  1.0985471181  1.1571533896
C   1.4106769856 -0.5746815887 -0.3417231539
H   0.8023799223  0.4488446189  1.8380681928
H   1.5800528863 -0.9045595709 -1.3590149130
H   1.7371742578 -1.2222628215  0.4658803791
