7
Image 0  Energy = -29.6075440413
C   0.8613530829  0.7717863693 -0.1719139126
H   0.6612463194  1.5335564177 -0.9375796587
O   0.5522214844  0.9887939779  1.1202995082
C   1.3421659653 -0.5678617478 -0.1813430255
H   0.8247414480 -0.2451177237  1.0730602961
H   1.0212599365 -1.3464451774 -0.8849409337
H   2.3232304102 -0.7019956551  0.2959418783
7
Image 1  Energy = -29.6087577856
C   0.8603887614  0.7732883916 -0.1691877698
H   0.6608793659  1.5333140461 -0.9369935183
O   0.5521158407  0.9908328818  1.1187144281
C   1.3423243266 -0.5690124810 -0.1793437461
H   0.8351767953 -0.2829550804  1.0432099826
H   1.0189325332 -1.3455710895 -0.8826073651
H   2.3267698385 -0.7013374502  0.2917243747
7
Image 2  Energy = -29.6106790370
C   0.8592726554  0.7750095246 -0.1659257330
H   0.6604761181  1.5330307407 -0.9361735260
O   0.5521561763  0.9927127992  1.1166363049
C   1.3425338849 -0.5702092517 -0.1772518722
H   0.8444720204 -0.3206079226  1.0141155611
H   1.0164608509 -1.3446139379 -0.8801888264
H   2.3305115148 -0.7004447225  0.2867688691
7
Image 3  Energy = -29.6135290182
C   0.8581817480  0.7766722547 -0.1627000086
H   0.6601674817  1.5326759099 -0.9352297434
O   0.5522038058  0.9946860628  1.1145032895
C   1.3426675454 -0.5712963566 -0.1751974832
H   0.8534742417 -0.3602717001  0.9877255526
H   1.0145208327 -1.3437029566 -0.8785441072
H   2.3344082533 -0.6995157454  0.2815095438
7
Image 4  Energy = -29.6175415731
C   0.8571547751  0.7782707627 -0.1597167818
H   0.6599616337  1.5323713018 -0.9343799432
O   0.5522259437  0.9967346430  1.1124820021
C   1.3426899848 -0.5723170991 -0.1731011832
H   0.8625783663 -0.4013973160  0.9631193562
H   1.0132869820 -1.3426331678 -0.8776139884
H   2.3383622657 -0.6985546380  0.2758918391
7
Image 5  Energy = -29.6224944806
C   0.8561398739  0.7798628170 -0.1567670252
H   0.6598594771  1.5321097159 -0.9337276553
O   0.5522506722  0.9987965533  1.1104724852
C   1.3426237109 -0.5733699845 -0.1709114539
H   0.8713987448 -0.4426939894  0.9389750125
H   1.0126757222 -1.3412586976 -0.8771437551
H   2.3427457239 -0.6975220733  0.2695684818
7
Image 6  Energy = -29.6283800370
C   0.8551413567  0.7814035205 -0.1538017830
H   0.6598793909  1.5318408780 -0.9332759813
O   0.5522566850  1.0009560454  1.1084831597
C   1.3425175030 -0.5744578411 -0.1687698555
H   0.8798391838 -0.4847464105  0.9163318709
H   1.0126895908 -1.3397488507 -0.8773513666
H   2.3473396236 -0.6963821509  0.2626907350
7
Image 7  Energy = -29.6351695573
C   0.8541634071  0.7828611108 -0.1508269417
H   0.6600527615  1.5314465126 -0.9328772860
O   0.5522153186  1.0033109306  1.1065528413
C   1.3424484634 -0.5756100543 -0.1668457136
H   0.8875600933 -0.5282623175  0.8965847569
H   1.0133349055 -1.3381549579 -0.8783890504
H   2.3519321762 -0.6950813428  0.2553402010
7
Image 8  Energy = -29.6421228117
C   0.8531471431  0.7842966215 -0.1476540599
H   0.6604097313  1.5309234255 -0.9324972847
O   0.5521632235  1.0058259641  1.1045412000
C   1.3424788672 -0.5768947185 -0.1651590086
H   0.8936962149 -0.5729103791  0.8804108958
H   1.0145982735 -1.3362987230 -0.8802977639
H   2.3567497610 -0.6934825401  0.2470663269
7
Image 9  Energy = -29.6486813343
C   0.8520467383  0.7857665643 -0.1441509518
H   0.6609931518  1.5302772799 -0.9321870906
O   0.5521360641  1.0084303038  1.1023421760
C   1.3426172999 -0.5783606375 -0.1636378276
H   0.8977955925 -0.6179182697  0.8675729585
H   1.0164967631 -1.3340220186 -0.8831320552
H   2.3620620908 -0.6914892931  0.2374635302
7
Image 10  Energy = -29.6548999167
C   0.8508721830  0.7872137501 -0.1403373783
H   0.6618335638  1.5294710990 -0.9319280836
O   0.5521271175  1.0111189072  1.0999946196
C   1.3428265124 -0.5800069862 -0.1622114935
H   0.9002840898 -0.6625611614  0.8568257085
H   1.0190403895 -1.3312951715 -0.8869708729
H   2.3678342677 -0.6890674876  0.2266140229
7
Image 11  Energy = -29.6606888539
C   0.8496339673  0.7885487583 -0.1362074466
H   0.6629516893  1.5284568011 -0.9316521343
O   0.5521237831  1.0139235896  1.0975309066
C   1.3430807082 -0.5818409864 -0.1608321835
H   0.9015733196 -0.7062774035  0.8470475293
H   1.0222889076 -1.3280110911 -0.8919463911
H   2.3739565824 -0.6861911822  0.2145495592
7
Image 12  Energy = -29.6660708255
C   0.8483478597  0.7897139797 -0.1318172054
H   0.6643467550  1.5271877787 -0.9312568594
O   0.5521060894  1.0168809571  1.0950080454
C   1.3433691652 -0.5838707406 -0.1594877348
H   0.9021120831 -0.7488850628  0.8376753308
H   1.0262849930 -1.3240452276 -0.8981180010
H   2.3801951795 -0.6829182763  0.2014083073
7
Image 13  Energy = -29.6711311704
C   0.8470380992  0.7906805573 -0.1272857032
H   0.6659789682  1.5256781104 -0.9306791131
O   0.5520475315  1.0200245169  1.0925140240
C   1.3436942166 -0.5860862777 -0.1582124393
H   0.9023792476 -0.7906024519  0.8286090288
H   1.0309588060 -1.3193506009 -0.9053943515
H   2.3862848912 -0.6793983023  0.1875664623
7
Image 14  Energy = -29.6758213407
C   0.8457027509  0.7914385180 -0.1226246827
H   0.6678607908  1.5238844902 -0.9299495015
O   0.5519361444  1.0233722676  1.0900724075
C   1.3440640930 -0.5885166417 -0.1570191673
H   0.9025530463 -0.8312719308  0.8197700871
H   1.0362989036 -1.3137902771 -0.9138268218
H   2.3921613707 -0.6757032950  0.1731038246
7
Image 15  Energy = -29.6800002819
C   0.8443135017  0.7919502972 -0.1177302816
H   0.6700761499  1.5216982940 -0.9291131168
O   0.5517673321  1.0269535693  1.0876556355
C   1.3444896261 -0.5912506021 -0.1558866911
H   0.9026526251 -0.8700442114  0.8106706335
H   1.0424062021 -1.3070974704 -0.9236967767
H   2.3979018651 -0.6718013409  0.1577816216
7
Image 16  Energy = -29.6836519605
C   0.8428690677  0.7921546822 -0.1125978172
H   0.6726912982  1.5190434151 -0.9282435990
O   0.5515207268  1.0308119164  1.0853066313
C   1.3449805901 -0.5943413156 -0.1548298479
H   0.9028291975 -0.9063468709  0.8009683649
H   1.0493020857 -1.2990713761 -0.9351525481
H   2.4034896132 -0.6677171267  0.1416038272
7
Image 17  Energy = -29.6868705517
C   0.8414057880  0.7920141123 -0.1073616487
H   0.6757167949  1.5158665529 -0.9274209260
O   0.5511665985  1.0349765181  1.0831355243
C   1.3455423022 -0.5977663228 -0.1539172215
H   0.9032797006 -0.9403845112  0.7909128866
H   1.0568839816 -1.2896411031 -0.9480308272
H   2.4087952273 -0.6635473106  0.1249077352
7
Image 18  Energy = -29.6897184020
C   0.8399647497  0.7915026392 -0.1021564117
H   0.6791300780  1.5121267756 -0.9266613082
O   0.5506793062  1.0394664552  1.0812395153
C   1.3461762710 -0.6014884409 -0.1532152237
H   0.9041279879 -0.9724761980  0.7807995888
H   1.0650024370 -1.2788089256 -0.9621097143
H   2.4137662867 -0.6593663310  0.1080451354
7
Image 19  Energy = -29.6922425544
C   0.8385882898  0.7905698944 -0.0970736333
H   0.6828991543  1.5078035995 -0.9259876535
O   0.5500373886  1.0443017680  1.0796920944
C   1.3468741355 -0.6054554810 -0.1527747929
H   0.9054997252 -1.0028000398  0.7706466705
H   1.0734815021 -1.2666634646 -0.9771705134
H   2.4184208620 -0.6552267415  0.0913331524
7
Image 20  Energy = -29.6944930470
C   0.8373167991  0.7891648529 -0.0921768932
H   0.6869667347  1.5029118831 -0.9254655826
O   0.5492258977  1.0494962635  1.0785478506
C   1.3476328754 -0.6095888948 -0.1526527744
H   0.9074720402 -1.0316411703  0.7604032897
H   1.0820972684 -1.2534141584 -0.9928805412
H   2.4227549721 -0.6511959526  0.0751240616
7
Image 21  Energy = -29.6965181744
C   0.8361664663  0.7872699195 -0.0874684845
H   0.6912709483  1.4974559157 -0.9251822316
O   0.5482419677  1.0550491313  1.0778202934
C   1.3484673942 -0.6138255679 -0.1529047909
H   0.9100200811 -1.0591603635  0.7499717209
H   1.0906263667 -1.2393511403 -1.0088889281
H   2.4267537499 -0.6473568148  0.0597275455
7
Image 22  Energy = -29.6983389175
C   0.8351224867  0.7848833011 -0.0828614033
H   0.6957856809  1.4913611641 -0.9251613779
O   0.5470931882  1.0609508836  1.0774691699
C   1.3494082423 -0.6181385060 -0.1535869955
H   0.9129917929 -1.0850621457  0.7392396968
H   1.0989306787 -1.2247403823 -1.0249500339
H   2.4304253757 -0.6438140007  0.0453053101
7
Image 23  Energy = -29.6999642170
C   0.8341615136  0.7820016353 -0.0782444149
H   0.7004900400  1.4845456531 -0.9253380793
O   0.5457883738  1.0671888047  1.0774349020
C   1.3504954131 -0.6225061752 -0.1547608428
H   0.9161265381 -1.1088894348  0.7282331311
H   1.1069206463 -1.2098180838 -1.0408632138
H   2.4338026473 -0.6407211709  0.0319183015
7
Image 24  Energy = -29.7014093316
C   0.8332724522  0.7786404783 -0.0735537320
H   0.7053236517  1.4769862839 -0.9255966534
O   0.5443339700  1.0737426922  1.0776708136
C   1.3517634539 -0.6268801606 -0.1564754896
H   0.9192244567 -1.1305383536  0.7170448433
H   1.1144509433 -1.1949130490 -1.0563714314
H   2.4369093261 -0.6382719646  0.0196674906
7
Image 25  Energy = -29.7027033633
C   0.8324605988  0.7748626419 -0.0687870789
H   0.7101702353  1.4687577696 -0.9258459088
O   0.5427400233  1.0805724676  1.0781402223
C   1.3532232590 -0.6311938593 -0.1587275162
H   0.9222263332 -1.1504472819  0.7057397156
H   1.1213315609 -1.1804302812 -1.0712333910
H   2.4397585493 -0.6366036233  0.0086698720
7
Image 26  Energy = -29.7038769192
C   0.8317360543  0.7707685475 -0.0639692477
H   0.7149075848  1.4599975163 -0.9260922412
O   0.5410253701  1.0876164798  1.0788021677
C   1.3548518266 -0.6353978615 -0.1614457232
H   0.9251731670 -1.1692783872  0.6942817868
H   1.1274522005 -1.1666533891 -1.0852879807
H   2.4423966753 -0.6357144856 -0.0010961660
7
Image 27  Energy = -29.7049485511
C   0.8310907579  0.7664676871 -0.0591058617
H   0.7194390213  1.4508837148 -0.9263106057
O   0.5392142657  1.0948137610  1.0796007323
C   1.3566202119 -0.6394972702 -0.1645286446
H   0.9281197358 -1.1874405421  0.6825762322
H   1.1328476699 -1.1536862147 -1.0985393510
H   2.4448867664 -0.6355462122 -0.0098111552
7
Image 28  Energy = -29.7059224910
C   0.8305027817  0.7620389170 -0.0541732874
H   0.7236759115  1.4416647171 -0.9263692353
O   0.5373282214  1.1021232134  1.0804726215
C   1.3585122259 -0.6435358910 -0.1678932829
H   0.9310454260 -1.2049948633  0.6706043074
H   1.1376607295 -1.1415261875 -1.1111035695
H   2.4473079847 -0.6360539848 -0.0177380333
7
Image 29  Energy = -29.7067946857
C   0.8299497399  0.7575411315 -0.0491456847
H   0.7275600203  1.4325830467 -0.9261020329
O   0.5353850638  1.1095165363  1.0813625494
C   1.3605194374 -0.6475575139 -0.1714831929
H   0.9339101125 -1.2220095495  0.6584285226
H   1.1420532500 -1.1301426912 -1.1230723659
H   2.4496799152 -0.6371744634 -0.0251167138
7
Image 30  Energy = -29.7075638539
C   0.8294146246  0.7530323333 -0.0440169367
H   0.7310556248  1.4238469261 -0.9254666522
O   0.5334040881  1.1169716400  1.0822279213
C   1.3626209539 -0.6515981745 -0.1752325956
H   0.9367438999 -1.2387381554  0.6460652597
H   1.1461398103 -1.1195178078 -1.1345166156
H   2.4520409790 -0.6387900325 -0.0321159750
7
Image 31  Energy = -29.7082306212
C   0.8288934922  0.7485464790 -0.0388091563
H   0.7341250912  1.4155341277 -0.9244120069
O   0.5314086367  1.1244611493  1.0830378453
C   1.3647787916 -0.6556597064 -0.1790611387
H   0.9396710187 -1.2555350803  0.6333847809
H   1.1499843412 -1.1094969538 -1.1454844699
H   2.4543703650 -0.6407263930 -0.0388128050
7
Image 32  Energy = -29.7087957627
C   0.8283940829  0.7440790083 -0.0335409996
H   0.7367162201  1.4075159048 -0.9227629793
O   0.5294197212  1.1319485411  1.0837705999
C   1.3669533184 -0.6597093479 -0.1829110365
H   0.9427680453 -1.2724816961  0.6202743044
H   1.1536407001 -1.0997336945 -1.1562469453
H   2.4566333457 -0.6428786051 -0.0451178477
7
Image 33  Energy = -29.7092560595
C   0.8278826211  0.7396594587 -0.0281644947
H   0.7388659124  1.3997113738 -0.9205643942
O   0.5274589976  1.1394126764  1.0843829456
C   1.3691535952 -0.6637940696 -0.1867822348
H   0.9458226640 -1.2893494617  0.6068101502
H   1.1572677869 -1.0898500728 -1.1666871186
H   2.4587970706 -0.6452293241 -0.0510672873
7
Image 34  Energy = -29.7096050447
C   0.8273519227  0.7352482423 -0.0227232846
H   0.7404889967  1.3919956969 -0.9182775179
O   0.5255063909  1.1468842441  1.0849606014
C   1.3714315188 -0.6679463187 -0.1906929606
H   0.9483917703 -1.3056074896  0.5931618709
H   1.1608397992 -1.0798867502 -1.1769326766
H   2.4612054156 -0.6477689077 -0.0568656090
7
Image 35  Energy = -29.7098394102
C   0.8267693736  0.7309298276 -0.0171847860
H   0.7415818260  1.3839163585 -0.9158471168
O   0.5235451289  1.1543479622  1.0855133902
C   1.3738932510 -0.6722042999 -0.1946936546
H   0.9506789320 -1.3208576292  0.5796865854
H   1.1639487610 -1.0697855091 -1.1870531712
H   2.4634596801 -0.6507980308 -0.0628036511
7
Image 36  Energy = -29.7099637157
C   0.8261434858  0.7268644213 -0.0116797144
H   0.7416860129  1.3758478950 -0.9134080459
O   0.5216124078  1.1617814368  1.0860501589
C   1.3764615551 -0.6766435731 -0.1987235186
H   0.9519666827 -1.3358058012  0.5656694877
H   1.1675576965 -1.0592570744 -1.1971771706
H   2.4659949605 -0.6549549966 -0.0672071914
7
Image 37  Energy = -29.7099866933
C   0.8258362395  0.7248654982 -0.0089278066
H   0.7414012555  1.3717346159 -0.9121882518
O   0.5206463650  1.1655071811  1.0863488584
C   1.3779209710 -0.6788488549 -0.2006876357
H   0.9521906243 -1.3432847049  0.5583848093
H   1.1691493986 -1.0547980726 -1.2025494377
H   2.4660682584 -0.6568611309 -0.0698978910
