7
Image 0  Energy = -29.6075440413
C   0.8613530829  0.7717863693 -0.1719139126
H   0.6612463194  1.5335564177 -0.9375796587
O   0.5522214844  0.9887939779  1.1202995082
C   1.3421659653 -0.5678617478 -0.1813430255
H   0.8247414480 -0.2451177237  1.0730602961
H   1.0212599365 -1.3464451774 -0.8849409337
H   2.3232304102 -0.7019956551  0.2959418783
7
Image 1  Energy = -29.6087577856
C   0.8603887614  0.7732883916 -0.1691877698
H   0.6608793659  1.5333140461 -0.9369935183
O   0.5521158407  0.9908328818  1.1187144281
C   1.3423243266 -0.5690124810 -0.1793437461
H   0.8351767953 -0.2829550804  1.0432099826
H   1.0189325332 -1.3455710895 -0.8826073651
H   2.3267698385 -0.7013374502  0.2917243747
7
Image 2  Energy = -29.6106790370
C   0.8592726554  0.7750095246 -0.1659257330
H   0.6604761181  1.5330307407 -0.9361735260
O   0.5521561763  0.9927127992  1.1166363049
C   1.3425338849 -0.5702092517 -0.1772518722
H   0.8444720204 -0.3206079226  1.0141155611
H   1.0164608509 -1.3446139379 -0.8801888264
H   2.3305115148 -0.7004447225  0.2867688691
7
Image 3  Energy = -29.6135290182
C   0.8581817480  0.7766722547 -0.1627000086
H   0.6601674817  1.5326759099 -0.9352297434
O   0.5522038058  0.9946860628  1.1145032895
C   1.3426675454 -0.5712963566 -0.1751974832
H   0.8534742417 -0.3602717001  0.9877255526
H   1.0145208327 -1.3437029566 -0.8785441072
H   2.3344082533 -0.6995157454  0.2815095438
7
Image 4  Energy = -29.6175415731
C   0.8571547751  0.7782707627 -0.1597167818
H   0.6599616337  1.5323713018 -0.9343799432
O   0.5522259437  0.9967346430  1.1124820021
C   1.3426899848 -0.5723170991 -0.1731011832
H   0.8625783663 -0.4013973160  0.9631193562
H   1.0132869820 -1.3426331678 -0.8776139884
H   2.3383622657 -0.6985546380  0.2758918391
7
Image 5  Energy = -29.6224944806
C   0.8561398739  0.7798628170 -0.1567670252
H   0.6598594771  1.5321097159 -0.9337276553
O   0.5522506722  0.9987965533  1.1104724852
C   1.3426237109 -0.5733699845 -0.1709114539
H   0.8713987448 -0.4426939894  0.9389750125
H   1.0126757222 -1.3412586976 -0.8771437551
H   2.3427457239 -0.6975220733  0.2695684818
7
Image 6  Energy = -29.6283800370
C   0.8551413567  0.7814035205 -0.1538017830
H   0.6598793909  1.5318408780 -0.9332759813
O   0.5522566850  1.0009560454  1.1084831597
C   1.3425175030 -0.5744578411 -0.1687698555
H   0.8798391838 -0.4847464105  0.9163318709
H   1.0126895908 -1.3397488507 -0.8773513666
H   2.3473396236 -0.6963821509  0.2626907350
7
Image 7  Energy = -29.6351695573
C   0.8541634071  0.7828611108 -0.1508269417
H   0.6600527615  1.5314465126 -0.9328772860
O   0.5522153186  1.0033109306  1.1065528413
C   1.3424484634 -0.5756100543 -0.1668457136
H   0.8875600933 -0.5282623175  0.8965847569
H   1.0133349055 -1.3381549579 -0.8783890504
H   2.3519321762 -0.6950813428  0.2553402010
7
Image 8  Energy = -29.6421228117
C   0.8531471431  0.7842966215 -0.1476540599
H   0.6604097313  1.5309234255 -0.9324972847
O   0.5521632235  1.0058259641  1.1045412000
C   1.3424788672 -0.5768947185 -0.1651590086
H   0.8936962149 -0.5729103791  0.8804108958
H   1.0145982735 -1.3362987230 -0.8802977639
H   2.3567497610 -0.6934825401  0.2470663269
7
Image 9  Energy = -29.6486813343
C   0.8520467383  0.7857665643 -0.1441509518
H   0.6609931518  1.5302772799 -0.9321870906
O   0.5521360641  1.0084303038  1.1023421760
C   1.3426172999 -0.5783606375 -0.1636378276
H   0.8977955925 -0.6179182697  0.8675729585
H   1.0164967631 -1.3340220186 -0.8831320552
H   2.3620620908 -0.6914892931  0.2374635302
7
Image 10  Energy = -29.6548999167
C   0.8508721830  0.7872137501 -0.1403373783
H   0.6618335638  1.5294710990 -0.9319280836
O   0.5521271175  1.0111189072  1.0999946196
C   1.3428265124 -0.5800069862 -0.1622114935
H   0.9002840898 -0.6625611614  0.8568257085
H   1.0190403895 -1.3312951715 -0.8869708729
H   2.3678342677 -0.6890674876  0.2266140229
7
Image 11  Energy = -29.6606888539
C   0.8496339673  0.7885487583 -0.1362074466
H   0.6629516893  1.5284568011 -0.9316521343
O   0.5521237831  1.0139235896  1.0975309066
C   1.3430807082 -0.5818409864 -0.1608321835
H   0.9015733196 -0.7062774035  0.8470475293
H   1.0222889076 -1.3280110911 -0.8919463911
H   2.3739565824 -0.6861911822  0.2145495592
7
Image 12  Energy = -29.6660708255
C   0.8483478597  0.7897139797 -0.1318172054
H   0.6643467550  1.5271877787 -0.9312568594
O   0.5521060894  1.0168809571  1.0950080454
C   1.3433691652 -0.5838707406 -0.1594877348
H   0.9021120831 -0.7488850628  0.8376753308
H   1.0262849930 -1.3240452276 -0.8981180010
H   2.3801951795 -0.6829182763  0.2014083073
7
Image 13  Energy = -29.6711311704
C   0.8470380992  0.7906805573 -0.1272857032
H   0.6659789682  1.5256781104 -0.9306791131
O   0.5520475315  1.0200245169  1.0925140240
C   1.3436942166 -0.5860862777 -0.1582124393
H   0.9023792476 -0.7906024519  0.8286090288
H   1.0309588060 -1.3193506009 -0.9053943515
H   2.3862848912 -0.6793983023  0.1875664623
7
Image 14  Energy = -29.6758213407
C   0.8457027509  0.7914385180 -0.1226246827
H   0.6678607908  1.5238844902 -0.9299495015
O   0.5519361444  1.0233722676  1.0900724075
C   1.3440640930 -0.5885166417 -0.1570191673
H   0.9025530463 -0.8312719308  0.8197700871
H   1.0362989036 -1.3137902771 -0.9138268218
H   2.3921613707 -0.6757032950  0.1731038246
7
Image 15  Energy = -29.6800002819
C   0.8443135017  0.7919502972 -0.1177302816
H   0.6700761499  1.5216982940 -0.9291131168
O   0.5517673321  1.0269535693  1.0876556355
C   1.3444896261 -0.5912506021 -0.1558866911
H   0.9026526251 -0.8700442114  0.8106706335
H   1.0424062021 -1.3070974704 -0.9236967767
H   2.3979018651 -0.6718013409  0.1577816216
7
Image 16  Energy = -29.6836519605
C   0.8428690677  0.7921546822 -0.1125978172
H   0.6726912982  1.5190434151 -0.9282435990
O   0.5515207268  1.0308119164  1.0853066313
C   1.3449805901 -0.5943413156 -0.1548298479
H   0.9028291975 -0.9063468709  0.8009683649
H   1.0493020857 -1.2990713761 -0.9351525481
H   2.4034896132 -0.6677171267  0.1416038272
7
Image 17  Energy = -29.6868705517
C   0.8414057880  0.7920141123 -0.1073616487
H   0.6757167949  1.5158665529 -0.9274209260
O   0.5511665985  1.0349765181  1.0831355243
C   1.3455423022 -0.5977663228 -0.1539172215
H   0.9032797006 -0.9403845112  0.7909128866
H   1.0568839816 -1.2896411031 -0.9480308272
H   2.4087952273 -0.6635473106  0.1249077352
7
Image 18  Energy = -29.6897184020
C   0.8399647497  0.7915026392 -0.1021564117
H   0.6791300780  1.5121267756 -0.9266613082
O   0.5506793062  1.0394664552  1.0812395153
C   1.3461762710 -0.6014884409 -0.1532152237
H   0.9041279879 -0.9724761980  0.7807995888
H   1.0650024370 -1.2788089256 -0.9621097143
H   2.4137662867 -0.6593663310  0.1080451354
7
Image 19  Energy = -29.6922425544
C   0.8385882898  0.7905698944 -0.0970736333
H   0.6828991543  1.5078035995 -0.9259876535
O   0.5500373886  1.0443017680  1.0796920944
C   1.3468741355 -0.6054554810 -0.1527747929
H   0.9054997252 -1.0028000398  0.7706466705
H   1.0734815021 -1.2666634646 -0.9771705134
H   2.4184208620 -0.6552267415  0.0913331524
7
Image 20  Energy = -29.6944930470
C   0.8373167991  0.7891648529 -0.0921768932
H   0.6869667347  1.5029118831 -0.9254655826
O   0.5492258977  1.0494962635  1.0785478506
C   1.3476328754 -0.6095888948 -0.1526527744
H   0.9074720402 -1.0316411703  0.7604032897
H   1.0820972684 -1.2534141584 -0.9928805412
H   2.4227549721 -0.6511959526  0.0751240616
7
Image 21  Energy = -29.6965181744
C   0.8361664663  0.7872699195 -0.0874684845
H   0.6912709483  1.4974559157 -0.9251822316
O   0.5482419677  1.0550491313  1.0778202934
C   1.3484673942 -0.6138255679 -0.1529047909
H   0.9100200811 -1.0591603635  0.7499717209
H   1.0906263667 -1.2393511403 -1.0088889281
H   2.4267537499 -0.6473568148  0.0597275455
7
Image 22  Energy = -29.6983389175
C   0.8351224867  0.7848833011 -0.0828614033
H   0.6957856809  1.4913611641 -0.9251613779
O   0.5470931882  1.0609508836  1.0774691699
C   1.3494082423 -0.6181385060 -0.1535869955
H   0.9129917929 -1.0850621457  0.7392396968
H   1.0989306787 -1.2247403823 -1.0249500339
H   2.4304253757 -0.6438140007  0.0453053101
7
Image 23  Energy = -29.6999642170
C   0.8341615136  0.7820016353 -0.0782444149
H   0.7004900400  1.4845456531 -0.9253380793
O   0.5457883738  1.0671888047  1.0774349020
C   1.3504954131 -0.6225061752 -0.1547608428
H   0.9161265381 -1.1088894348  0.7282331311
H   1.1069206463 -1.2098180838 -1.0408632138
H   2.4338026473 -0.6407211709  0.0319183015
7
Image 24  Energy = -29.7014093316
C   0.8332724522  0.7786404783 -0.0735537320
H   0.7053236517  1.4769862839 -0.9255966534
O   0.5443339700  1.0737426922  1.0776708136
C   1.3517634539 -0.6268801606 -0.1564754896
H   0.9192244567 -1.1305383536  0.7170448433
H   1.1144509433 -1.1949130490 -1.0563714314
H   2.4369093261 -0.6382719646  0.0196674906
7
Image 25  Energy = -29.7027033633
C   0.8324605988  0.7748626419 -0.0687870789
H   0.7101702353  1.4687577696 -0.9258459088
O   0.5427400233  1.0805724676  1.0781402223
C   1.3532232590 -0.6311938593 -0.1587275162
H   0.9222263332 -1.1504472819  0.7057397156
H   1.1213315609 -1.1804302812 -1.0712333910
H   2.4397585493 -0.6366036233  0.0086698720
7
Image 26  Energy = -29.7038769192
C   0.8317360543  0.7707685475 -0.0639692477
H   0.7149075848  1.4599975163 -0.9260922412
O   0.5410253701  1.0876164798  1.0788021677
C   1.3548518266 -0.6353978615 -0.1614457232
H   0.9251731670 -1.1692783872  0.6942817868
H   1.1274522005 -1.1666533891 -1.0852879807
H   2.4423966753 -0.6357144856 -0.0010961660
7
Image 27  Energy = -29.7049485511
C   0.8310907579  0.7664676871 -0.0591058617
H   0.7194390213  1.4508837148 -0.9263106057
O   0.5392142657  1.0948137610  1.0796007323
C   1.3566202119 -0.6394972702 -0.1645286446
H   0.9281197358 -1.1874405421  0.6825762322
H   1.1328476699 -1.1536862147 -1.0985393510
H   2.4448867664 -0.6355462122 -0.0098111552
7
Image 28  Energy = -29.7059224910
C   0.8305027817  0.7620389170 -0.0541732874
H   0.7236759115  1.4416647171 -0.9263692353
O   0.5373282214  1.1021232134  1.0804726215
C   1.3585122259 -0.6435358910 -0.1678932829
H   0.9310454260 -1.2049948633  0.6706043074
H   1.1376607295 -1.1415261875 -1.1111035695
H   2.4473079847 -0.6360539848 -0.0177380333
7
Image 29  Energy = -29.7067946857
C   0.8299497399  0.7575411315 -0.0491456847
H   0.7275600203  1.4325830467 -0.9261020329
O   0.5353850638  1.1095165363  1.0813625494
C   1.3605194374 -0.6475575139 -0.1714831929
H   0.9339101125 -1.2220095495  0.6584285226
H   1.1420532500 -1.1301426912 -1.1230723659
H   2.4496799152 -0.6371744634 -0.0251167138
7
Image 30  Energy = -29.7075638539
C   0.8294146246  0.7530323333 -0.0440169367
H   0.7310556248  1.4238469261 -0.9254666522
O   0.5334040881  1.1169716400  1.0822279213
C   1.3626209539 -0.6515981745 -0.1752325956
H   0.9367438999 -1.2387381554  0.6460652597
H   1.1461398103 -1.1195178078 -1.1345166156
H   2.4520409790 -0.6387900325 -0.0321159750
7
Image 31  Energy = -29.7082306212
C   0.8288934922  0.7485464790 -0.0388091563
H   0.7341250912  1.4155341277 -0.9244120069
O   0.5314086367  1.1244611493  1.0830378453
C   1.3647787916 -0.6556597064 -0.1790611387
H   0.9396710187 -1.2555350803  0.6333847809
H   1.1499843412 -1.1094969538 -1.1454844699
H   2.4543703650 -0.6407263930 -0.0388128050
7
Image 32  Energy = -29.7087957627
C   0.8283940829  0.7440790083 -0.0335409996
H   0.7367162201  1.4075159048 -0.9227629793
O   0.5294197212  1.1319485411  1.0837705999
C   1.3669533184 -0.6597093479 -0.1829110365
H   0.9427680453 -1.2724816961  0.6202743044
H   1.1536407001 -1.0997336945 -1.1562469453
H   2.4566333457 -0.6428786051 -0.0451178477
7
Image 33  Energy = -29.7092560595
C   0.8278826211  0.7396594587 -0.0281644947
H   0.7388659124  1.3997113738 -0.9205643942
O   0.5274589976  1.1394126764  1.0843829456
C   1.3691535952 -0.6637940696 -0.1867822348
H   0.9458226640 -1.2893494617  0.6068101502
H   1.1572677869 -1.0898500728 -1.1666871186
H   2.4587970706 -0.6452293241 -0.0510672873
7
Image 34  Energy = -29.7096050447
C   0.8273519227  0.7352482423 -0.0227232846
H   0.7404889967  1.3919956969 -0.9182775179
O   0.5255063909  1.1468842441  1.0849606014
C   1.3714315188 -0.6679463187 -0.1906929606
H   0.9483917703 -1.3056074896  0.5931618709
H   1.1608397992 -1.0798867502 -1.1769326766
H   2.4612054156 -0.6477689077 -0.0568656090
7
Image 35  Energy = -29.7098394102
C   0.8267693736  0.7309298276 -0.0171847860
H   0.7415818260  1.3839163585 -0.9158471168
O   0.5235451289  1.1543479622  1.0855133902
C   1.3738932510 -0.6722042999 -0.1946936546
H   0.9506789320 -1.3208576292  0.5796865854
H   1.1639487610 -1.0697855091 -1.1870531712
H   2.4634596801 -0.6507980308 -0.0628036511
7
Image 36  Energy = -29.7099637157
C   0.8261434858  0.7268644213 -0.0116797144
H   0.7416860129  1.3758478950 -0.9134080459
O   0.5216124078  1.1617814368  1.0860501589
C   1.3764615551 -0.6766435731 -0.1987235186
H   0.9519666827 -1.3358058012  0.5656694877
H   1.1675576965 -1.0592570744 -1.1971771706
H   2.4659949605 -0.6549549966 -0.0672071914
7
Image 37  Energy = -29.7099866933
C   0.8258362395  0.7248654982 -0.0089278066
H   0.7414012555  1.3717346159 -0.9121882518
O   0.5206463650  1.1655071811  1.0863488584
C   1.3779209710 -0.6788488549 -0.2006876357
H   0.9521906243 -1.3432847049  0.5583848093
H   1.1691493986 -1.0547980726 -1.2025494377
H   2.4660682584 -0.6568611309 -0.0698978910
7
Image 38  Energy = -29.6075837976
C   0.8620551235  0.7706317191 -0.1737229190
H   0.6614523034  1.5337626565 -0.9376410121
O   0.5525610496  0.9864410539  1.1211430622
C   1.3421061799 -0.5668931224 -0.1831265027
H   0.8126123838 -0.2049781689  1.1010471985
H   1.0232434047 -1.3468896270 -0.8864535083
H   2.3201275594 -0.7023435401  0.2990023417
7
Image 39  Energy = -29.6095638490
C   0.8626183581  0.7695394954 -0.1749992419
H   0.6617604405  1.5336418326 -0.9374188149
O   0.5529363320  0.9842790182  1.1216942421
C   1.3422498808 -0.5661141490 -0.1851961250
H   0.7986301539 -0.1662215608  1.1307431814
H   1.0250374980 -1.3472027182 -0.8875928762
H   2.3176274540 -0.7026177678  0.3013445159
7
Image 40  Energy = -29.6132089114
C   0.8631499352  0.7682665032 -0.1760011771
H   0.6622137851  1.5333056079 -0.9371501108
O   0.5532466685  0.9824784175  1.1221911924
C   1.3425811102 -0.5653924120 -0.1876732770
H   0.7835524807 -0.1299956909  1.1630875318
H   1.0267995806 -1.3474353330 -0.8885820658
H   2.3152831166 -0.7031270371  0.3032886204
7
Image 41  Energy = -29.6174890465
C   0.8637214227  0.7665608846 -0.1768248239
H   0.6628644538  1.5326988589 -0.9366876580
O   0.5534552014  0.9811059232  1.1227329206
C   1.3430235098 -0.5645728997 -0.1906020219
H   0.7683337267 -0.0963274379  1.1976526726
H   1.0287797199 -1.3473941462 -0.8895738840
H   2.3124800750 -0.7038869173  0.3053668015
7
Image 42  Energy = -29.6217688090
C   0.8643827756  0.7642911982 -0.1775579439
H   0.6637189402  1.5317943081 -0.9360182578
O   0.5535357723  0.9801814465  1.1234077898
C   1.3435254856 -0.5635783969 -0.1939635357
H   0.7536925095 -0.0649576712  1.2337319820
H   1.0310667507 -1.3470518410 -0.8908221990
H   2.3088391069 -0.7048264437  0.3079451756
7
Image 43  Energy = -29.6260165638
C   0.8651275536  0.7615422615 -0.1782873392
H   0.6647231399  1.5306790784 -0.9352357989
O   0.5534737487  0.9797097550  1.1242604290
C   1.3440845216 -0.5624752913 -0.1977119980
H   0.7400611497 -0.0361521465  1.2712478064
H   1.0336768343 -1.3465540810 -0.8926059172
H   2.3043047988 -0.7059166062  0.3112541709
7
Image 44  Energy = -29.6302582389
C   0.8659060244  0.7584376206 -0.1789604350
H   0.6658024197  1.5294676808 -0.9344976308
O   0.5532779748  0.9797459349  1.1252234983
C   1.3446982020 -0.5613611372 -0.2018546370
H   0.7278317234 -0.0111533404  1.3107042327
H   1.0367173782 -1.3460222399 -0.8951559651
H   2.2989333079 -0.7070921174  0.3157064785
7
Image 45  Energy = -29.6344118780
C   0.8666895862  0.7549975491 -0.1795206109
H   0.6669354934  1.5280544546 -0.9337734219
O   0.5529659928  0.9803022964  1.1262455768
C   1.3453481948 -0.5602268352 -0.2063554394
H   0.7170212140  0.0096716904  1.3517807013
H   1.0402465576 -1.3453853226 -0.8985072125
H   2.2929515919 -0.7084966060  0.3213394961
7
Image 46  Energy = -29.6383164591
C   0.8674690267  0.7511625049 -0.1799448039
H   0.6681144339  1.5262345012 -0.9328315521
O   0.5525481318  0.9813146662  1.1273616884
C   1.3460436525 -0.5590370837 -0.2111557700
H   0.7073585934  0.0279756803  1.3929841712
H   1.0442698559 -1.3444754306 -0.9026404478
H   2.2864698734 -0.7104384379  0.3278661253
7
Image 47  Energy = -29.6419293946
C   0.8682313762  0.7468845310 -0.1801852191
H   0.6692976004  1.5238614767 -0.9314631380
O   0.5520226353  0.9827549673  1.1286190725
C   1.3468386662 -0.5578189608 -0.2162473734
H   0.6984680269  0.0453444855  1.4331070656
H   1.0487701032 -1.3431662086 -0.9076077375
H   2.2794606881 -0.7131437497  0.3349194839
7
Image 48  Energy = -29.6452126271
C   0.8689465832  0.7421981406 -0.1801750365
H   0.6704184663  1.5207983088 -0.9294877365
O   0.5513917271  0.9846235683  1.1300146689
C   1.3477980246 -0.5566429290 -0.2216196960
H   0.6900273714  0.0624639748  1.4715743987
H   1.0536869277 -1.3414406038 -0.9135316638
H   2.2719238730 -0.7167558512  0.3421432212
7
Image 49  Energy = -29.6482769018
C   0.8695730475  0.7372387933 -0.1798586602
H   0.6713765984  1.5170652232 -0.9269818996
O   0.5506860320  0.9868638298  1.1314874358
C   1.3489525196 -0.5555873895 -0.2272021758
H   0.6816521803  0.0796212719  1.5083860612
H   1.0589342109 -1.3393339074 -0.9205308495
H   2.2640731222 -0.7213277474  0.3491983550
7
Image 50  Energy = -29.6511175251
C   0.8700788816  0.7320392481 -0.1791399702
H   0.6721081976  1.5126678333 -0.9241854074
O   0.5499242626  0.9894412044  1.1330201867
C   1.3503112272 -0.5546918095 -0.2329741316
H   0.6732804256  0.0974503263  1.5429316392
H   1.0645985995 -1.3367841390 -0.9288176583
H   2.2559224369 -0.7269327063  0.3560284162
7
Image 51  Energy = -29.6536732531
C   0.8704327100  0.7265296137 -0.1779009871
H   0.6725425041  1.5075433264 -0.9213477209
O   0.5490958704  0.9924296808  1.1346329792
C   1.3518799237 -0.5539806111 -0.2389686296
H   0.6655274751  0.1158784203  1.5741276816
H   1.0709921462 -1.3335582949 -0.9387651573
H   2.2470876061 -0.7337187139  0.3630091309
7
Image 52  Energy = -29.6559367245
C   0.8705957547  0.7207484010 -0.1761243719
H   0.6725277841  1.5016746594 -0.9186506975
O   0.5482024742  0.9958935769  1.1363116046
C   1.3536471810 -0.5535029041 -0.2451320064
H   0.6590975129  0.1338943420  1.6015039363
H   1.0784212741 -1.3293683302 -0.9507301804
H   2.2372823152 -0.7418401325  0.3705288671
7
Image 53  Energy = -29.6579571879
C   0.8705350326  0.7148500948 -0.1738914828
H   0.6718769830  1.4951295004 -0.9161652784
O   0.5472629647  0.9998027417  1.1380364321
C   1.3555980709 -0.5533379300 -0.2513318947
H   0.6543124813  0.1508807533  1.6249170006
H   1.0870456194 -1.3239754042 -0.9648660951
H   2.2264830934 -0.7514041526  0.3786592790
7
Image 54  Energy = -29.6597946501
C   0.8702406221  0.7090267314 -0.1713179779
H   0.6704642348  1.4880292935 -0.9139204757
O   0.5463131638  1.0040417492  1.1397645090
C   1.3577084486 -0.5535400354 -0.2574336572
H   0.6510422316  0.1666847240  1.6448165224
H   1.0968505260 -1.3172282681 -0.9809438613
H   2.2147979661 -0.7623391347  0.3872060149
7
Image 55  Energy = -29.6614989406
C   0.8697206060  0.7034144727 -0.1684812402
H   0.6682653744  1.4804828442 -0.9119480145
O   0.5453913826  1.0084825825  1.1414283404
C   1.3599460569 -0.5540964488 -0.2633428381
H   0.6489612898  0.1813200675  1.6619632399
H   1.1077006755 -1.3091321455 -0.9985458577
H   2.2023918740 -0.7745052935  0.3958908368
7
Image 56  Energy = -29.6630990422
C   0.8689960288  0.6980537545 -0.1654251252
H   0.6653219068  1.4725645480 -0.9102517510
O   0.5445118552  1.0130375388  1.1430048192
C   1.3622924869 -0.5549558891 -0.2690226550
H   0.6478236166  0.1950386661  1.6766304350
H   1.1193687227 -1.2997770678 -1.0172998971
H   2.1894393733 -0.7878396695  0.4045227071
7
Image 57  Energy = -29.6646106905
C   0.8681092171  0.6929168532 -0.1622112049
H   0.6617153848  1.4643710220 -0.9088142409
O   0.5436689132  1.0176653323  1.1444905705
C   1.3647366659 -0.5560443899 -0.2744605935
H   0.6474182029  0.2078604374  1.6893121359
H   1.1315600724 -1.2892606557 -1.0368472472
H   2.1760820651 -0.8022569150  0.4128695381
7
Image 58  Energy = -29.6660460895
C   0.8671113689  0.6879483254 -0.1589113740
H   0.6575492156  1.4560191370 -0.9075876798
O   0.5428578508  1.0223280549  1.1458931302
C   1.3672543175 -0.5572823312 -0.2796681186
H   0.6474721532  0.2199411048  1.7006776425
H   1.1440738141 -1.2776969796 -1.0568435560
H   2.1624442615 -0.8176019501  0.4207436918
7
Image 59  Energy = -29.6674155211
C   0.8660476113  0.6830915576 -0.1555774917
H   0.6529249095  1.4475589463 -0.9065167453
O   0.5420797979  1.0269886776  1.1472226688
C   1.3698110506 -0.5585963496 -0.2846723885
H   0.6477396047  0.2315842936  1.7113109384
H   1.1568487182 -1.2652452990 -1.0770099685
H   2.1485857338 -0.8336809536  0.4280063525
7
Image 60  Energy = -29.6687228745
C   0.8649418283  0.6783058292 -0.1522393009
H   0.6479530030  1.4389954449 -0.9055521772
O   0.5413404385  1.0316146358  1.1484824712
C   1.3723765968 -0.5599259595 -0.2894912412
H   0.6480938172  0.2430286006  1.7215262882
H   1.1699020658 -1.2519969216 -1.0971667544
H   2.1344912196 -0.8503649469  0.4346300083
7
Image 61  Energy = -29.6699681497
C   0.8637945901  0.6735736340 -0.1489062615
H   0.6427334023  1.4303184164 -0.9046407556
O   0.5406447858  1.0361923548  1.1496668552
C   1.3749349213 -0.5612436465 -0.2941294233
H   0.6485271122  0.2543529208  1.7314468690
H   1.1832740996 -1.2380012197 -1.1172185543
H   2.1201329214 -0.8675771200  0.4406023159
7
Image 62  Energy = -29.6711507505
C   0.8626022413  0.6688856814 -0.1455873784
H   0.6373324985  1.4215357527 -0.9037783904
O   0.5399972156  1.0407125586  1.1507763071
C   1.3774718900 -0.5625358470 -0.2985855224
H   0.6490975598  0.2655661266  1.7410616939
H   1.1970289745 -1.2232442690 -1.1370966991
H   2.1054647683 -0.8852517738  0.4459438867
7
Image 63  Energy = -29.6722682780
C   0.8613557100  0.6642368706 -0.1422786742
H   0.6317918911  1.4126436193 -0.9029850132
O   0.5394031484  1.0451673085  1.1518052894
C   1.3799749964 -0.5637865918 -0.3028462109
H   0.6499428990  0.2766050228  1.7501467344
H   1.2112289717 -1.2076612516 -1.1567344939
H   2.0904162772 -0.9033901528  0.4507128353
7
Image 64  Energy = -29.6733160383
C   0.8600399718  0.6596270986 -0.1389697681
H   0.6261596699  1.4036090136 -0.9022697880
O   0.5388680010  1.0495548493  1.1527394715
C   1.3824358228 -0.5649766675 -0.3068939172
H   0.6512126903  0.2873195097  1.7585221752
H   1.2259319236 -1.1912252893 -1.1760405191
H   2.0749252657 -0.9220359243  0.4549015587
7
Image 65  Energy = -29.6742904848
C   0.8586416728  0.6550630569 -0.1356633774
H   0.6204707717  1.3944513369 -0.9016323594
O   0.5383983007  1.0538664005  1.1535714154
C   1.3848478348 -0.5660931395 -0.3107205146
H   0.6529784425  0.2976518733  1.7661515059
H   1.2412021594 -1.1739729910 -1.1949095031
H   2.0589543609 -0.9412086684  0.4584948199
7
Image 66  Energy = -29.6751892483
C   0.8571455953  0.6505598779 -0.1323583902
H   0.6147615217  1.3852334999 -0.9010834765
O   0.5380010045  1.0580892365  1.1542984535
C   1.3872090037 -0.5671404056 -0.3143363434
H   0.6552635761  0.3076376524  1.7730966071
H   1.2571232178 -1.1559980297 -1.2132239159
H   2.0424553823 -0.9608391319  0.4614764822
7
Image 67  Energy = -29.6760112858
C   0.8555484395  0.6461233071 -0.1290774663
H   0.6090439858  1.3760619638 -0.9005708368
O   0.5376809630  1.0622080727  1.1549212886
C   1.3895075753 -0.5681098457 -0.3177434092
H   0.6580972743  0.3173523185  1.7794879331
H   1.2738025085 -1.1374569944 -1.2309224096
H   2.0253819488 -0.9808812113  0.4638852323
7
Image 68  Energy = -29.6767575806
C   0.8538527776  0.6417455144 -0.1258533470
H   0.6033137482  1.3670516134 -0.8999906421
O   0.5374376983  1.0662147713  1.1554537714
C   1.3917342533 -0.5689897547 -0.3209587993
H   0.6615145313  0.3268913746  1.7854692693
H   1.2913565737 -1.1185438451 -1.2478870514
H   2.0076746927 -1.0012683000  0.4657296232
7
Image 69  Energy = -29.6774274027
C   0.8520406856  0.6374759141 -0.1227406584
H   0.5975644574  1.3584315521 -0.8992438001
O   0.5372840139  1.0700642786  1.1558867335
C   1.3938710602 -0.5697735175 -0.3239665155
H   0.6656760930  0.3362951387  1.7911276447
H   1.3100493777 -1.0994281829 -1.2639590716
H   1.9891396295 -1.0220529016  0.4672707758
7
Image 70  Energy = -29.6780219442
C   0.8501344268  0.6333232428 -0.1197546275
H   0.5918203758  1.3502455987 -0.8983578838
O   0.5371969495  1.0737741702  1.1562671014
C   1.3959574484 -0.5705282908 -0.3268090044
H   0.6704839642  0.3457004551  1.7966918670
H   1.3297894004 -1.0802774475 -1.2791410219
H   1.9695716259 -1.0428311442  0.4682559118
7
Image 71  Energy = -29.6785429186
C   0.8481121451  0.6293069150 -0.1169264004
H   0.5860296197  1.3424934504 -0.8973235086
O   0.5371811010  1.0773346857  1.1566144316
C   1.3979524582 -0.5712637881 -0.3295188671
H   0.6761230778  0.3551901649  1.8020510985
H   1.3507426614 -1.0610670587 -1.2932198140
H   1.9493465935 -1.0636701076  0.4690168346
7
Image 72  Energy = -29.6789936787
C   0.8459822444  0.6254742807 -0.1143299131
H   0.5802167288  1.3351860965 -0.8962430495
O   0.5372531945  1.0806858419  1.1569349419
C   1.3998616352 -0.5719246885 -0.3319912519
H   0.6827684091  0.3645105408  1.8070905683
H   1.3729202555 -1.0420269267 -1.3063793092
H   1.9278220713 -1.0843695949  0.4694868877
7
Image 73  Energy = -29.6793787545
C   0.8437844624  0.6218247745 -0.1119220234
H   0.5744099851  1.3281705382 -0.8952512218
O   0.5373920959  1.0838158983  1.1572058161
C   1.4016352804 -0.5725450796 -0.3342945831
H   0.6904065233  0.3738364808  1.8120683567
H   1.3963004355 -1.0227276074 -1.3181284427
H   1.9054600124 -1.1047806303  0.4697223137
7
Image 74  Energy = -29.6797029740
C   0.8414991634  0.6183846898 -0.1097404942
H   0.5685075086  1.3213992800 -0.8943638075
O   0.5376158911  1.0866719405  1.1574185959
C   1.4032903387 -0.5730338823 -0.3363344464
H   0.6994818990  0.3833079469  1.8167467483
H   1.4207173628 -1.0039153973 -1.3287688745
H   1.8818283784 -1.1248077312  0.4697270705
7
Image 75  Energy = -29.6799710459
C   0.8391948652  0.6152108064 -0.1078266859
H   0.5625552883  1.3150254299 -0.8935711290
O   0.5378864324  1.0892180386  1.1575666885
C   1.4047428604 -0.5734629714 -0.3381279261
H   0.7100403255  0.3927959831  1.8213287860
H   1.4463718972 -0.9849743381 -1.3379032768
H   1.8573793989 -1.1442989739  0.4695618970
7
Image 76  Energy = -29.6801871127
C   0.8368561167  0.6123454921 -0.1061970195
H   0.5564603505  1.3091272582 -0.8929176933
O   0.5382123677  1.0914130550  1.1576655956
C   1.4060598845 -0.5737689844 -0.3396161418
H   0.7224272306  0.4023403408  1.8254610984
H   1.4729033946 -0.9667587766 -1.3455324748
H   1.8315792362 -1.1632310574  0.4692178224
