10
ts1x[0] rxn8549 reactant (UMA batched-opt demo)
N     -1.80833679     0.18397903     0.16153792
C     -0.48853630    -0.20599256     0.12993990
N     -0.04280633    -1.35707923     0.50830724
O      1.36345535    -1.25104737     0.40944073
C      1.72090974    -0.02596725    -0.05222589
O      2.84240754     0.36317899    -0.22710618
N      0.51797773     0.63645214    -0.26343941
H     -2.14354288     0.60074093    -0.69816309
H     -2.41205777    -0.57204572     0.45978598
H      0.45163407     1.62794081    -0.42723939
