10
ts1x[1] rxn7730 reactant (UMA batched-opt demo)
N      2.05384981    -0.23769136     0.57155567
C      0.98467922    -0.67112614     0.19916730
N      0.57263015     2.21162526    -0.80567725
N     -0.42483475     2.67835952    -0.82287619
O     -1.44155161     0.44618264     1.07470243
C     -1.41234897    -0.57688808     0.42036006
C     -0.19434968    -1.19806847    -0.10932062
H      2.46480125     0.53208625     0.04664961
H     -2.34674899    -1.11747635     0.17136958
H     -0.24660079    -2.06617241    -0.75858467
