10
ts1x[3] rxn2309 reactant (UMA batched-opt demo)
N     -1.10768849     0.90480406    -0.23069355
C     -0.77531777    -0.19168188     0.48998409
O     -1.52396783    -0.76409208     1.25554162
C      0.66004863    -0.71542604     0.31380397
C      1.46375972    -0.00635024    -0.67930557
N      2.05198708     0.59290062    -1.47519519
H     -2.04482235     1.26650577    -0.13927727
H     -0.46970151     1.34846765    -0.87276530
H      1.15148356    -0.66198923     1.28970956
H      0.59289327    -1.77401211     0.04879379
