5
Frame 1  Energy = -40.4839461971 Hartree
C       0.00042497     -0.00037274     -0.00017866
H       0.62813255      0.62923479      0.62790136
H      -0.63157748     -0.62848696      0.63028728
H      -0.63208187      0.63212509     -0.62830981
H       0.63046298     -0.62843148     -0.62774993
5
Frame 2  Energy = -40.4839461492 Hartree
C       0.00084881     -0.00074511     -0.00035742
H       0.62714569      0.62934991      0.62668404
H      -0.63402906     -0.62785000      0.63144968
H      -0.63503531      0.63512180     -0.62749390
H       0.63180459     -0.62774324     -0.62638087
5
Frame 3  Energy = -40.4839460878 Hartree
C       0.00127037     -0.00111675     -0.00053637
H       0.62615950      0.62946520      0.62546885
H      -0.63646833     -0.62720470      0.63260188
H      -0.63797151      0.63810135     -0.62666623
H       0.63314298     -0.62705505     -0.62501329
5
Frame 4  Energy = -40.4839460091 Hartree
C       0.00168856     -0.00148730     -0.00071557
H       0.62517607      0.62958252      0.62425860
H      -0.63889095     -0.62654875      0.63374056
H      -0.64088377      0.64105709     -0.62582291
H       0.63447831     -0.62636871     -0.62364970
5
Frame 5  Energy = -40.4839459148 Hartree
C       0.00210227     -0.00185640     -0.00089510
H       0.62419745      0.62970371      0.62305609
H      -0.64129265     -0.62587992      0.63486250
H      -0.64376556      0.64398253     -0.62496025
H       0.63581077     -0.62568600     -0.62229257
5
Frame 6  Energy = -40.4839458083 Hartree
C       0.00251043     -0.00222373     -0.00107501
H       0.62322571      0.62983064      0.62186411
H      -0.64366919     -0.62519605      0.63596455
H      -0.64661052      0.64687134     -0.62407479
H       0.63714056     -0.62500873     -0.62094437
5
Frame 7  Energy = -40.4839456889 Hartree
C       0.00291198     -0.00258892     -0.00125534
H       0.62226288      0.62996515      0.62068540
H      -0.64601646     -0.62449510      0.63704364
H      -0.64941247      0.64971740     -0.62316325
H       0.63846790     -0.62433869     -0.61960758
5
Frame 8  Energy = -40.4839455630 Hartree
C       0.00330589     -0.00295166     -0.00143612
H       0.62131097      0.63010906      0.61952269
H      -0.64833041     -0.62377511      0.63809679
H      -0.65216542      0.65251475     -0.62222259
H       0.63979301     -0.62367763     -0.61828460
5
Frame 9  Energy = -40.4839454335 Hartree
C       0.00369116     -0.00331162     -0.00161736
H       0.62037192      0.63026416      0.61837867
H      -0.65060710     -0.62303426      0.63912112
H      -0.65486360      0.65525767     -0.62124998
H       0.64111611     -0.62302733     -0.61697784
5
Frame 10  Energy = -40.4839452960 Hartree
C       0.00406683     -0.00366849     -0.00179909
H       0.61944768      0.63043220      0.61725594
H      -0.65284269     -0.62227083      0.64011386
H      -0.65750145      0.65794062     -0.62024283
H       0.64243743     -0.62238949     -0.61568964
