7
Image 0  Energy = -29.6076040483
C   0.8620696001  0.7706078689 -0.1737602511
H   0.6614565558  1.5337668536 -0.9376422258
O   0.5525680559  0.9863925269  1.1211604710
C   1.3421049550 -0.5668731272 -0.1831633065
H   0.8123621841 -0.2041501820  1.1016246113
H   1.0232843062 -1.3468988184 -0.8864846821
H   2.3200636502 -0.7023505422  0.2990653744
7
Image 1  Energy = -29.6096223211
C   0.8626501287  0.7695315106 -0.1750907299
H   0.6617154586  1.5337754545 -0.9374485125
O   0.5529699432  0.9841091432  1.1217137840
C   1.3421833136 -0.5660462003 -0.1850828848
H   0.7986566213 -0.1644513607  1.1302229515
H   1.0250657046 -1.3472558061 -0.8876572296
H   2.3175293151 -0.7025018580  0.3014161986
7
Image 2  Energy = -29.6132689482
C   0.8631694365  0.7683920980 -0.1761495783
H   0.6621100906  1.5334881173 -0.9372249262
O   0.5533177160  0.9821528391  1.1221947524
C   1.3424569331 -0.5653503242 -0.1874023823
H   0.7838569133 -0.1271563282  1.1616196878
H   1.0267965766 -1.3475760317 -0.8886927063
H   2.3152384887 -0.7028587614  0.3034994802
7
Image 3  Energy = -29.6175345248
C   0.8637088167  0.7668781352 -0.1770240257
H   0.6627131437  1.5329719852 -0.9368564024
O   0.5535511603  0.9807207452  1.1226895891
C   1.3429051139 -0.5646054193 -0.1902375941
H   0.7682627703 -0.0938838625  1.1967249015
H   1.0286895229 -1.3476359155 -0.8895562540
H   2.3128663687 -0.7036660723  0.3052819018
7
Image 4  Energy = -29.6217961377
C   0.8643487501  0.7645998058 -0.1776713285
H   0.6635926144  1.5320384087 -0.9361465092
O   0.5536413976  0.9798249977  1.1233082997
C   1.3434153376 -0.5636217219 -0.1936493038
H   0.7535767265 -0.0627898477  1.2330711423
H   1.0310373785 -1.3472340480 -0.8906467897
H   2.3091907225 -0.7045911687  0.3079168369
7
Image 5  Energy = -29.6260270542
C   0.8651162576  0.7617604952 -0.1783946379
H   0.6646518183  1.5308385290 -0.9353058791
O   0.5535719755  0.9793930283  1.1241607366
C   1.3439705001 -0.5624525458 -0.1974064044
H   0.7397158388 -0.0342796328  1.2707189942
H   1.0336214953 -1.3466327033 -0.8922444192
H   2.3047522160 -0.7057533805  0.3109420240
7
Image 6  Energy = -29.6302398211
C   0.8659163874  0.7585819086 -0.1791038032
H   0.6657877024  1.5295493436 -0.9344527184
O   0.5533572656  0.9794292601  1.1251835826
C   1.3445951672 -0.5613152865 -0.2015517517
H   0.7275182052 -0.0085955109  1.3096830248
H   1.0366352154 -1.3460814707 -0.8947226546
H   2.2992330918 -0.7069586740  0.3152746476
7
Image 7  Energy = -29.6343811518
C   0.8667011709  0.7551298581 -0.1796466438
H   0.6669337122  1.5282602029 -0.9338525148
O   0.5530262577  0.9800826321  1.1261882197
C   1.3452472031 -0.5602191822 -0.2060857308
H   0.7169512225  0.0111650878  1.3513408423
H   1.0402117590 -1.3455644919 -0.8981121102
H   2.2932126395 -0.7082524340  0.3210125900
7
Image 8  Energy = -29.6382227457
C   0.8674675154  0.7513714489 -0.1800636371
H   0.6681249860  1.5264919277 -0.9330161768
O   0.5526064626  0.9811436193  1.1272580814
C   1.3459164606 -0.5590601252 -0.2108229164
H   0.7077459186  0.0280079901  1.3924651657
H   1.0441819162 -1.3447366392 -0.9021728475
H   2.2868156808 -0.7100316711  0.3276166803
7
Image 9  Energy = -29.6417240268
C   0.8682047629  0.7472715595 -0.1803258106
H   0.6692794490  1.5242741171 -0.9318106831
O   0.5521057161  0.9825238799  1.1284542956
C   1.3466570196 -0.5578683149 -0.2157248456
H   0.6993254412  0.0442613318  1.4316579666
H   1.0485201275 -1.3435009753 -0.9069147582
H   2.2800851505 -0.7125699667  0.3345846378
7
Image 10  Energy = -29.6448880351
C   0.8689060244  0.7427614182 -0.1803544043
H   0.6703823460  1.5214004898 -0.9300201806
O   0.5515025636  0.9842819294  1.1298210705
C   1.3475510867 -0.5567092687 -0.2208794670
H   0.6913453233  0.0608112424  1.4685019700
H   1.0532248557 -1.3418030906 -0.9124652101
H   2.2728250407 -0.7159296634  0.3416500031
7
Image 11  Energy = -29.6478479421
C   0.8695277540  0.7379419529 -0.1800802142
H   0.6713504479  1.5177981872 -0.9275413573
O   0.5508062873  0.9864619195  1.1312709933
C   1.3486471090 -0.5556593287 -0.2262699576
H   0.6835986601  0.0770559259  1.5037293298
H   1.0582654808 -1.3398054073 -0.9190704297
H   2.2651501704 -0.7202668648  0.3485824037
7
Image 12  Energy = -29.6506380802
C   0.8700380577  0.7330008703 -0.1795041113
H   0.6720738603  1.5136726065 -0.9247960346
O   0.5500835023  0.9888842327  1.1327375048
C   1.3499355150 -0.5547786986 -0.2318130586
H   0.6753680089  0.0939452845  1.5381175445
H   1.0635743801 -1.3374366787 -0.9267857117
H   2.2573922801 -0.7254770545  0.3551593741
7
Image 13  Energy = -29.6531469590
C   0.8704116824  0.7278338370 -0.1784498459
H   0.6725585333  1.5088515929 -0.9219202814
O   0.5493131834  0.9916008350  1.1342819174
C   1.3514171101 -0.5540581079 -0.2375298633
H   0.6673143273  0.1120249929  1.5690597429
H   1.0693590686 -1.3345976985 -0.9358706162
H   2.2493029935 -0.7317249648  0.3615611224
7
Image 14  Energy = -29.6553563094
C   0.8706138226  0.7223747216 -0.1768370833
H   0.6726864776  1.5034407280 -0.9193192761
O   0.5484769081  0.9947761633  1.1358800350
C   1.3530685480 -0.5535370152 -0.2434034674
H   0.6606135567  0.1295848158  1.5958920579
H   1.0760431085 -1.3309542069 -0.9467051955
H   2.2403858933 -0.7390905263  0.3684534431
7
Image 15  Energy = -29.6573319203
C   0.8706151491  0.7167401109 -0.1747681419
H   0.6722879543  1.4973161924 -0.9169003191
O   0.5475898259  0.9984151952  1.1375089000
C   1.3548761088 -0.5532648635 -0.2493341216
H   0.6555920830  0.1458223645  1.6190420626
H   1.0838669184 -1.3262587051 -0.9595906507
H   2.2305162314 -0.7477743264  0.3760126817
7
Image 16  Energy = -29.6591336644
C   0.8703932144  0.7111154486 -0.1723614615
H   0.6711582892  1.4906968628 -0.9147303401
O   0.5466775547  1.0023939563  1.1391995324
C   1.3568555200 -0.5533449065 -0.2552308381
H   0.6520863583  0.1613466350  1.6385326912
H   1.0928827343 -1.3203099808 -0.9745282535
H   2.2196836933 -0.7578173599  0.3841217477
7
Image 17  Energy = -29.6608178532
C   0.8699657627  0.7056087080 -0.1697110206
H   0.6692699723  1.4835833008 -0.9126869679
O   0.5457683801  1.0066539192  1.1408442547
C   1.3589738135 -0.5537816752 -0.2609921112
H   0.6498117160  0.1756014560  1.6558151889
H   1.1030098134 -1.3130022227 -0.9911075938
H   2.2080130147 -0.7690718945  0.3924095239
7
Image 18  Energy = -29.6624059892
C   0.8693304399  0.7003340406 -0.1668347575
H   0.6666549164  1.4760634634 -0.9109592650
O   0.5449072055  1.0110221996  1.1424212813
C   1.3612070185 -0.5545235294 -0.2665885731
H   0.6483291740  0.1892640763  1.6709880701
H   1.1140535722 -1.3044107584 -1.0089315371
H   2.1957074211 -0.7814604354  0.4007860937
7
Image 19  Energy = -29.6639134353
C   0.8685160376  0.6952702674 -0.1637482833
H   0.6633455272  1.4681846730 -0.9094474727
O   0.5440880728  1.0154838625  1.1439061477
C   1.3635343817 -0.5555147036 -0.2719897892
H   0.6476475442  0.2022214832  1.6840561952
H   1.1258607033 -1.2946765318 -1.0277267281
H   2.1828776599 -0.7949502457  0.4090801972
7
Image 20  Energy = -29.6653451091
C   0.8675687462  0.6903723798 -0.1605355130
H   0.6594817137  1.4600828665 -0.9081652729
O   0.5432862493  1.0200314373  1.1452993823
C   1.3659691266 -0.5566829571 -0.2771616704
H   0.6475861807  0.2142045879  1.6955907267
H   1.1378785379 -1.2839058414 -1.0471058698
H   2.1698012942 -0.8095075829  0.4169310156
7
Image 21  Energy = -29.6667119479
C   0.8665328850  0.6856024754 -0.1572689292
H   0.6551372970  1.4518668672 -0.9070473153
O   0.5425124454  1.0245917636  1.1466363017
C   1.3684717477 -0.5579667241 -0.2821390485
H   0.6478366561  0.2257754113  1.7060279279
H   1.1501516270 -1.2721394515 -1.0667423522
H   2.1564410091 -0.8248840449  0.4242349295
7
Image 22  Energy = -29.6680211341
C   0.8654747990  0.6808683034 -0.1539955137
H   0.6504045339  1.4435442721 -0.9060458461
O   0.5417649215  1.0291583986  1.1478895145
C   1.3709807346 -0.5592584600 -0.2869403353
H   0.6482268885  0.2368840938  1.7163169301
H   1.1626652424 -1.2596070321 -1.0864319128
H   2.1428610793 -0.8408873588  0.4310035562
7
Image 23  Energy = -29.6692709243
C   0.8643758789  0.6762162872 -0.1507336305
H   0.6453702045  1.4351239360 -0.9051490274
O   0.5410620822  1.0336451036  1.1491164089
C   1.3735013083 -0.5605569740 -0.2915918976
H   0.6485707130  0.2482381053  1.7260237340
H   1.1754374523 -1.2463425335 -1.1060563946
H   2.1290108520 -0.8573999917  0.4371703498
7
Image 24  Energy = -29.6704600221
C   0.8632392206  0.6715908200 -0.1474733006
H   0.6401714904  1.4266084806 -0.9042642705
O   0.5403982551  1.0381199072  1.1502140715
C   1.3759945019 -0.5618250136 -0.2960418211
H   0.6491000392  0.2590711086  1.7359137523
H   1.1885258360 -1.2324628313 -1.1255325447
H   2.1149804686 -0.8744002597  0.4426805763
7
Image 25  Energy = -29.6715866691
C   0.8620554314  0.6670455639 -0.1442492230
H   0.6348078469  1.4179727843 -0.9034115972
O   0.5397904651  1.0424750193  1.1513154040
C   1.3784758547 -0.5630723899 -0.3003590923
H   0.6496086446  0.2703412950  1.7449453841
H   1.2019462007 -1.2178610819 -1.1447894164
H   2.1006185219 -0.8917425262  0.4476637808
7
Image 26  Energy = -29.6726471251
C   0.8608197279  0.6625020209 -0.1410163822
H   0.6293561753  1.4093051273 -0.9026662219
O   0.5392257240  1.0468366173  1.1522334276
C   1.3808989861 -0.5642751469 -0.3044186577
H   0.6506477788  0.2806870409  1.7542257503
H   1.2157898739 -1.2025737723 -1.1637698994
H   2.0860201653 -0.9094655109  0.4519538673
7
Image 27  Energy = -29.6736356086
C   0.8595077023  0.6580818151 -0.1378191253
H   0.6237817400  1.4004345220 -0.9019751696
O   0.5387390992  1.0510084060  1.1532145691
C   1.3833021118 -0.5654159290 -0.3083590463
H   0.6517978916  0.2916388576  1.7614216531
H   1.2299850862 -1.1864497964 -1.1823154963
H   2.0709927084 -0.9276256701  0.4559627648
7
Image 28  Energy = -29.6745506740
C   0.8581247886  0.6535949334 -0.1345858809
H   0.6182569827  1.3915821100 -0.9013708958
O   0.5382868341  1.0552802576  1.1538391110
C   1.3855991999 -0.5664799059 -0.3118957423
H   0.6540509165  0.3006536203  1.7698249260
H   1.2447717155 -1.1697770454 -1.2003600002
H   2.0557833359 -0.9461169610  0.4587465159
7
Image 29  Energy = -29.6753891772
C   0.8566335988  0.6494023732 -0.1314494433
H   0.6125991457  1.3825240405 -0.9008638682
O   0.5379621938  1.0591484925  1.1547758601
C   1.3879205893 -0.5674582957 -0.3155194455
H   0.6558224406  0.3115405136  1.7742417752
H   1.2598269736 -1.1523124414 -1.2177145507
H   2.0399000935 -0.9651949410  0.4621941869
7
Image 30  Energy = -29.6761490023
C   0.8550725046  0.6449227988 -0.1282056005
H   0.6072100964  1.3738553874 -0.9004386157
O   0.5376181186  1.0633952674  1.1549063893
C   1.3900294971 -0.5684188326 -0.3183921976
H   0.6597879740  0.3186648293  1.7838027182
H   1.2759322257 -1.1348331480 -1.2344957404
H   2.0241729547 -0.9836967580  0.4625176586
7
Image 31  Energy = -29.6768200910
C   0.8534317285  0.6412071415 -0.1253444404
H   0.6014739616  1.3650897338 -0.8998552077
O   0.5375123103  1.0666564165  1.1561026755
C   1.3922701276 -0.5691314790 -0.3219698164
H   0.6613521270  0.3307530627  1.7833585997
H   1.2915723738 -1.1168035590 -1.2499515328
H   2.0072686096 -1.0040527477  0.4674923082
7
Image 32  Energy = -29.6773929811
C   0.8518169525  0.6368325676 -0.1223241196
H   0.5965142658  1.3575537628 -0.8993233709
O   0.5372434148  1.0707697532  1.1556126041
C   1.3939994612 -0.5699950185 -0.3238832564
H   0.6673526084  0.3347518333  1.7966422758
H   1.3087080330 -1.1003754821 -1.2648983406
H   1.9920131266 -1.0197889271  0.4632198546
7
Image 33  Energy = -29.6778893238
C   0.8502267682  0.6338139886 -0.1200786579
H   0.5916033768  1.3504237852 -0.8984325708
O   0.5373009749  1.0732944637  1.1566770321
C   1.3958656626 -0.5704181158 -0.3269238477
H   0.6690778046  0.3466776656  1.7933417613
H   1.3230575339 -1.0847025201 -1.2758677619
H   1.9766751133 -1.0393212977  0.4692479058
7
Image 34  Energy = -29.6783461189
C   0.8484992449  0.6301668509 -0.1175124136
H   0.5865392479  1.3439187819 -0.8977705079
O   0.5372152181  1.0766466275  1.1565926194
C   1.3974744463 -0.5712573759 -0.3287379248
H   0.6747976671  0.3521230532  1.8024688234
H   1.3407483207 -1.0690612442 -1.2894677775
H   1.9611285624 -1.0536327998  0.4655005710
7
Image 35  Energy = -29.6787715620
C   0.8465572975  0.6266484174 -0.1151342970
H   0.5810918178  1.3370298290 -0.8965651694
O   0.5373021249  1.0797320453  1.1569543837
C   1.3994167231 -0.5716288752 -0.3315247643
H   0.6800008581  0.3614279605  1.8055727233
H   1.3581869996 -1.0525338157 -1.2989511033
H   1.9425868392 -1.0751753158  0.4698583582
7
Image 36  Energy = -29.6791223949
C   0.8443751363  0.6231684017 -0.1127588726
H   0.5751086001  1.3301827412 -0.8958694246
O   0.5374916389  1.0826710606  1.1576667566
C   1.4009218692 -0.5727118759 -0.3332017978
H   0.6854118162  0.3705353890  1.8089278659
H   1.3810014263 -1.0347055230 -1.3159165185
H   1.9254512415 -1.0875278724  0.4632842177
7
Image 37  Energy = -29.6793751037
C   0.8425586722  0.6201809828 -0.1109220309
H   0.5704144898  1.3246681141 -0.8947141939
O   0.5375752620  1.0853602304  1.1571593247
C   1.4027339092 -0.5724033565 -0.3359411277
H   0.6936930757  0.3760784046  1.8170517699
H   1.3940156817 -1.0215672582 -1.3155210077
H   1.9076005305 -1.1114197780  0.4724517277
7
Image 38  Energy = -29.6795966095
C   0.8411894878  0.6182284048 -0.1097111167
H   0.5666428218  1.3205138644 -0.8944840366
O   0.5378133303  1.0868636794  1.1577471015
C   1.4035018482 -0.5732466628 -0.3361959422
H   0.6970435228  0.3837148060  1.8156321731
H   1.4096772126 -1.0108349882 -1.3283485271
H   1.8957699974 -1.1161684968  0.4657964855
7
Image 39  Energy = -29.6798254019
C   0.8391585084  0.6154717461 -0.1080435514
H   0.5612992748  1.3148319266 -0.8939446732
O   0.5380551061  1.0891694645  1.1576843373
C   1.4049531085 -0.5734142412 -0.3380172135
H   0.7060332157  0.3905390981  1.8213668821
H   1.4272605006 -0.9970275803 -1.3332666675
H   1.8776541685 -1.1328356519  0.4673755817
7
Image 40  Energy = -29.6800355083
C   0.8369664091  0.6126928818 -0.1065419352
H   0.5552830894  1.3089700182 -0.8932871535
O   0.5384917004  1.0912980577  1.1578314853
C   1.4061205337 -0.5736796605 -0.3392380539
H   0.7152682809  0.3987556120  1.8240727379
H   1.4499704558 -0.9807697626 -1.3426415148
H   1.8570740004 -1.1488976341  0.4678178683
