7
Image 0  Energy = -29.6075593448
C   0.8613386063  0.7718102195 -0.1718765805
H   0.6612420670  1.5335522206 -0.9375784450
O   0.5522144781  0.9888425049  1.1202820994
C   1.3421671902 -0.5678817430 -0.1813062217
H   0.8249916477 -0.2459457106  1.0724828833
H   1.0212190350 -1.3464359860 -0.8849097599
H   2.3232943194 -0.7019886530  0.2958788456
7
Image 1  Energy = -29.6087880200
C   0.8604567768  0.7731813218 -0.1693901266
H   0.6608880058  1.5333571516 -0.9370801135
O   0.5520408182  0.9909777642  1.1189016896
C   1.3423034624 -0.5689561913 -0.1793480183
H   0.8357430845 -0.2843820670  1.0428759290
H   1.0189252266 -1.3457636617 -0.8827855945
H   2.3268113418 -0.7015225520  0.2917964723
7
Image 2  Energy = -29.6107201642
C   0.8593138839  0.7749898725 -0.1661247617
H   0.6604281871  1.5331575949 -0.9363310200
O   0.5520982693  0.9927576875  1.1168183474
C   1.3425341874 -0.5702255798 -0.1771957133
H   0.8452993842 -0.3209050372  1.0124958585
H   1.0162416192 -1.3446536353 -0.8799308543
H   2.3303667404 -0.7005631856  0.2870414540
7
Image 3  Energy = -29.6135819918
C   0.8581485724  0.7767277152 -0.1626085920
H   0.6600912458  1.5326998437 -0.9352629592
O   0.5521900410  0.9946733153  1.1145085762
C   1.3427382324 -0.5713848232 -0.1751562805
H   0.8536509846 -0.3596540477  0.9853099023
H   1.0140268906 -1.3436845442 -0.8778890455
H   2.3345731515 -0.6996078263  0.2815451008
7
Image 4  Energy = -29.6176093584
C   0.8571357595  0.7782956982 -0.1596560683
H   0.6598628494  1.5323941748 -0.9343515684
O   0.5522065218  0.9967491368  1.1124996141
C   1.3427812930 -0.5723358745 -0.1731344496
H   0.8628748107 -0.4014230497  0.9615471974
H   1.0126843542 -1.3428487086 -0.8771420671
H   2.3382203251 -0.6986559750  0.2762415219
7
Image 5  Energy = -29.6225727117
C   0.8561283777  0.7799056313 -0.1567804356
H   0.6597447069  1.5321042465 -0.9336016554
O   0.5522249518  0.9988099883  1.1105221223
C   1.3427271013 -0.5733791889 -0.1709582757
H   0.8716980406 -0.4429599506  0.9376097186
H   1.0120066035 -1.3414672852 -0.8765447551
H   2.3425548655 -0.6976620541  0.2700077446
7
Image 6  Energy = -29.6284584618
C   0.8551126443  0.7814831755 -0.1537734301
H   0.6597349845  1.5319049384 -0.9331913440
O   0.5522602060  1.0008880578  1.1084752609
C   1.3425867338 -0.5744548180 -0.1687092539
H   0.8801994606 -0.4844043598  0.9140661604
H   1.0119586100 -1.3398986280 -0.8766074258
H   2.3473315537 -0.6965423578  0.2630491224
7
Image 7  Energy = -29.6352319187
C   0.8541384316  0.7829477757 -0.1508106758
H   0.6598834727  1.5315578178 -0.9328544838
O   0.5522247721  1.0032086792  1.1065492543
C   1.3424923295 -0.5755792171 -0.1667361110
H   0.8880765957 -0.5277286521  0.8937734563
H   1.0125907809 -1.3383384867 -0.8775827302
H   2.3519732133 -0.6953107174  0.2557242426
7
Image 8  Energy = -29.6421493506
C   0.8531629533  0.7843271918 -0.1477627186
H   0.6602117675  1.5310090062 -0.9324145143
O   0.5521420744  1.0057613779  1.1046478296
C   1.3425101948 -0.5768126998 -0.1650916487
H   0.8946258162 -0.5726389453  0.8774100143
H   1.0138440239 -1.3366179883 -0.8794769878
H   2.3565690809 -0.6938209712  0.2477989864
7
Image 9  Energy = -29.6485988265
C   0.8520697219  0.7857743197 -0.1442523619
H   0.6607646008  1.5304114138 -0.9320928855
O   0.5521155846  1.0083485765  1.1024539916
C   1.3426923462 -0.5782558289 -0.1636915391
H   0.8981096322 -0.6173290524  0.8657989440
H   1.0157670428 -1.3343749722 -0.8823140395
H   2.3618894462 -0.6918811897  0.2382262279
7
Image 10  Energy = -29.6546798116
C   0.8509149736  0.7872378088 -0.1405259755
H   0.6615867940  1.5296304484 -0.9318583433
O   0.5521131036  1.0109570325  1.1001418137
C   1.3429183828 -0.5798660472 -0.1623383333
H   0.9001753313 -0.6612025390  0.8562203521
H   1.0182937683 -1.3317141767 -0.8860939831
H   2.3675835777 -0.6895335712  0.2275154042
7
Image 11  Energy = -29.6603230900
C   0.8497133580  0.7885673965 -0.1365302463
H   0.6626608948  1.5286905823 -0.9316346463
O   0.5521146910  1.0136638434  1.0977430135
C   1.3431669968 -0.5816295933 -0.1610230448
H   0.9013098815 -0.7039157121  0.8472299246
H   1.0214222013 -1.3286242233 -0.8908920690
H   2.3735798889 -0.6867548001  0.2158631856
7
Image 12  Energy = -29.6655403143
C   0.8484651944  0.7897138067 -0.1322559866
H   0.6640164543  1.5274831255 -0.9313148531
O   0.5521111225  1.0164910172  1.0952698204
C   1.3434356660 -0.5835821964 -0.1597089311
H   0.9016206907 -0.7449400299  0.8383886718
H   1.0253051461 -1.3248533280 -0.8969061908
H   2.3797613127 -0.6835529175  0.2030576777
7
Image 13  Energy = -29.6704676515
C   0.8471907897  0.7906699853 -0.1278341444
H   0.6656081673  1.5260250106 -0.9307746856
O   0.5520701724  1.0195037806  1.0928158701
C   1.3437308400 -0.5857213537 -0.1584348869
H   0.9018104139 -0.7851419464  0.8295130775
H   1.0298733262 -1.3203709831 -0.9039871172
H   2.3857325261 -0.6800898495  0.1895462662
7
Image 14  Energy = -29.6750841504
C   0.8459124845  0.7914311803 -0.1233828345
H   0.6673723133  1.5243930660 -0.9300441454
O   0.5519667408  1.0227283674  1.0904646979
C   1.3440718947 -0.5880254226 -0.1572668859
H   0.9020757488 -0.8250433993  0.8209813500
H   1.0349839751 -1.3151694375 -0.9119788988
H   2.3914047385 -0.6765457426  0.1756924245
7
Image 15  Energy = -29.6791795260
C   0.8446109237  0.7919780948 -0.1188032822
H   0.6693990620  1.5224098680 -0.9292606172
O   0.5518156579  1.0261057729  1.0881673289
C   1.3444520278 -0.5905415388 -0.1561870714
H   0.9022688739 -0.8629531510  0.8126889331
H   1.0407007731 -1.3090647498 -0.9211036998
H   2.3968480516 -0.6728901861  0.1613481846
7
Image 16  Energy = -29.6827151841
C   0.8432586424  0.7922494770 -0.1140101589
H   0.6717603266  1.5200335514 -0.9284057773
O   0.5516111476  1.0296642895  1.0859085586
C   1.3448769588 -0.5933820651 -0.1551454583
H   0.9024388015 -0.8974935870  0.8038218476
H   1.0471169577 -1.3018276431 -0.9316817877
H   2.4021989085 -0.6690682107  0.1462581590
7
Image 17  Energy = -29.6858420885
C   0.8418741770  0.7922004645 -0.1090630896
H   0.6745084201  1.5172008218 -0.9276230542
O   0.5513187051  1.0334897640  1.0837767500
C   1.3453655878 -0.5965414072 -0.1542039766
H   0.9028583340 -0.9295451307  0.7942933122
H   1.0541739595 -1.2933369532 -0.9436121032
H   2.4072924015 -0.6651517586  0.1305966657
7
Image 18  Energy = -29.6886424041
C   0.8404969021  0.7918411359 -0.1041222837
H   0.6776157587  1.5138816322 -0.9269222828
O   0.5509090306  1.0376128751  1.0818825968
C   1.3459396111 -0.5999667116 -0.1534621422
H   0.9035082277 -0.9602354968  0.7848083492
H   1.0617511262 -1.2835752274 -0.9565688571
H   2.4120335361 -0.6612370656  0.1146804826
7
Image 19  Energy = -29.6911420441
C   0.8391631516  0.7911356627 -0.0992811764
H   0.6810484789  1.5100275817 -0.9262416902
O   0.5503678524  1.0420397358  1.0802807382
C   1.3465725776 -0.6036406082 -0.1529266294
H   0.9046107254 -0.9893458548  0.7752945754
H   1.0696986560 -1.2725925577 -0.9704871146
H   2.4164924058 -0.6573211484  0.0987815465
7
Image 20  Energy = -29.6933804220
C   0.8379081401  0.7900335487 -0.0945850706
H   0.6847793087  1.5056495993 -0.9256661430
O   0.5496798200  1.0467829725  1.0790181652
C   1.3472573230 -0.6074988776 -0.1526486023
H   0.9062175220 -1.0170518525  0.7657664255
H   1.0778637003 -1.2605272019 -0.9851408212
H   2.4207068865 -0.6534648152  0.0831475941
7
Image 21  Energy = -29.6954048938
C   0.8367590633  0.7884869085 -0.0900663168
H   0.6887620806  1.5007471436 -0.9252346471
O   0.5488334431  1.0518670339  1.0781310949
C   1.3480040966 -0.6114801915 -0.1526830833
H   0.9083745523 -1.0436834259  0.7560958651
H   1.0860439048 -1.2475473274 -1.0001874764
H   2.4246158595 -0.6497174261  0.0680693409
7
Image 22  Energy = -29.6972479737
C   0.8357262528  0.7864907360 -0.0857066257
H   0.6929384771  1.4953452235 -0.9250989394
O   0.5478284428  1.0572924315  1.0776197251
C   1.3488224944 -0.6155316596 -0.1530645199
H   0.9110681163 -1.0694973497  0.7461535060
H   1.0940430163 -1.2339444260 -1.0153819047
H   2.4282546825 -0.6461343652  0.0537717557
7
Image 23  Energy = -29.6989088422
C   0.8347753752  0.7840640542 -0.0813868935
H   0.6972826400  1.4893415917 -0.9252383261
O   0.5466834953  1.0630268702  1.0774122900
C   1.3497446303 -0.6196527972 -0.1538444440
H   0.9141645586 -1.0937032683  0.7358756218
H   1.1017721937 -1.2199843909 -1.0305350472
H   2.4316013549 -0.6428582081  0.0404429984
7
Image 24  Energy = -29.7003915674
C   0.8338886519  0.7812019936 -0.0770229449
H   0.7017805824  1.4826411189 -0.9255196370
O   0.5454070826  1.0690397007  1.0774592986
C   1.3508095223 -0.6238100068 -0.1550802174
H   0.9172783332 -1.1157275240  0.7254517774
H   1.1091792562 -1.2058652337 -1.0454892844
H   2.4347195652 -0.6400255233  0.0280685648
7
Image 25  Energy = -29.7017159230
C   0.8330595804  0.7779021848 -0.0725692423
H   0.7063734900  1.4752964945 -0.9258377015
O   0.5440003289  1.0753245509  1.0777292315
C   1.3520534147 -0.6279648055 -0.1568185713
H   0.9202622135 -1.1355058314  0.7148923484
H   1.1161383737 -1.1918361791 -1.0599169634
H   2.4375685793 -0.6378333837  0.0167195182
7
Image 26  Energy = -29.7029150194
C   0.8322931929  0.7742335826 -0.0680213011
H   0.7109710181  1.4673144774 -0.9260656580
O   0.5424671958  1.0818572543  1.0781977785
C   1.3534934283 -0.6320518061 -0.1590638562
H   0.9230442321 -1.1538426224  0.7042593623
H   1.1224655126 -1.1782093382 -1.0737077202
H   2.4401680343 -0.6363892025  0.0064799990
7
Image 27  Energy = -29.7040163344
C   0.8316124698  0.7702688225 -0.0634241871
H   0.7154606930  1.4588627629 -0.9262754540
O   0.5408170724  1.0886083453  1.0788464199
C   1.3550815720 -0.6360489461 -0.1617203513
H   0.9258195979 -1.1714231042  0.6933946887
H   1.1280899144 -1.1651943443 -1.0868718983
H   2.4426552608 -0.6356264198 -0.0027196800
7
Image 28  Energy = -29.7050308055
C   0.8310074006  0.7661190141 -0.0587689878
H   0.7197869492  1.4500210176 -0.9265110272
O   0.5390773896  1.0955097492  1.0796138675
C   1.3567894043 -0.6399412576 -0.1647040545
H   0.9286568882 -1.1887236801  0.6822429480
H   1.1330480077 -1.1528640626 -1.0993351060
H   2.4450038655 -0.6354974281 -0.0109892286
7
Image 29  Energy = -29.7059547967
C   0.8304560315  0.7618787466 -0.0540773977
H   0.7238361206  1.4411060116 -0.9266234121
O   0.5372734273  1.1024991562  1.0804485220
C   1.3585871204 -0.6437891563 -0.1679039932
H   0.9315839497 -1.2054640734  0.6708382737
H   1.1374910946 -1.1412769912 -1.1112926166
H   2.4473637269 -0.6359588451 -0.0185611896
7
Image 30  Energy = -29.7067811853
C   0.8299330514  0.7575961236 -0.0493029298
H   0.7275453602  1.4323932315 -0.9264224484
O   0.5354286708  1.1095214472  1.0812803604
C   1.3604919661 -0.6475886822 -0.1713083401
H   0.9343800026 -1.2216013159  0.6593440486
H   1.1415418564 -1.1304868449 -1.1225487000
H   2.4496187901 -0.6370210052 -0.0255687057
7
Image 31  Energy = -29.7075088686
C   0.8294358733  0.7533327333 -0.0444942665
H   0.7308584878  1.4240967531 -0.9258032923
O   0.5335587498  1.1165409847  1.0820985382
C   1.3624616049 -0.6513861547 -0.1748211546
H   0.9370960542 -1.2371597383  0.6478142642
H   1.1453482727 -1.1204490999 -1.1334430528
H   2.4519133683 -0.6385329659 -0.0322228574
7
Image 32  Energy = -29.7081409460
C   0.8289455399  0.7491367166 -0.0396172838
H   0.7338201479  1.4162787689 -0.9249053952
O   0.5316887270  1.1235286514  1.0828541038
C   1.3644950180 -0.6551602667 -0.1784267930
H   0.9397574730 -1.2527510176  0.6361159413
H   1.1488696025 -1.1111264880 -1.1435408168
H   2.4540584481 -0.6403469996 -0.0385037622
7
Image 33  Energy = -29.7086797422
C   0.8284886449  0.7450118956 -0.0347822748
H   0.7363410736  1.4089177132 -0.9236561998
O   0.5298425123  1.1304586911  1.0835547911
C   1.3664748781 -0.6589400813 -0.1819357217
H   0.9427641750 -1.2682314097  0.6241585645
H   1.1522861531 -1.1021095085 -1.1537653318
H   2.4562649459 -0.6422825899 -0.0445388797
7
Image 34  Energy = -29.7091248995
C   0.8280236046  0.7409679657 -0.0298908360
H   0.7383491434  1.4019023181 -0.9214291468
O   0.5280461693  1.1372830744  1.0841011577
C   1.3685244085 -0.6625833965 -0.1855257643
H   0.9454768170 -1.2843799648  0.6119335819
H   1.1553050076 -1.0936871785 -1.1623725936
H   2.4581506957 -0.6442052124 -0.0501669360
7
Image 35  Energy = -29.7094696230
C   0.8275965486  0.7370264029 -0.0251740226
H   0.7399635025  1.3949848174 -0.9196390824
O   0.5263343804  1.1439419205  1.0846043221
C   1.3702998369 -0.6663629020 -0.1886661857
H   0.9491609967 -1.2981385687  0.6001099497
H   1.1588462069 -1.0844122626 -1.1737433661
H   2.4604050602 -0.6464311699 -0.0555982806
7
Image 36  Energy = -29.7097012764
C   0.8269858711  0.7333415743 -0.0203242092
H   0.7414284110  1.3884241480 -0.9173735110
O   0.5246104201  1.1502887730  1.0850230033
C   1.3728468986 -0.6695232027 -0.1926782849
H   0.9491779174 -1.3149080872  0.5880587029
H   1.1599330064 -1.0786765698 -1.1755396909
H   2.4621216063 -0.6479204574 -0.0607325730
7
Image 37  Energy = -29.7097992367
C   0.8268144015  0.7302608901 -0.0168862875
H   0.7414162552  1.3827688760 -0.9160863442
O   0.5233767468  1.1554570187  1.0853697993
C   1.3735034916 -0.6732467662 -0.1939621116
H   0.9558869578 -1.3179832124  0.5802451180
H   1.1651898528 -1.0666949984 -1.1968983869
H   2.4639475321 -0.6520890897 -0.0640721041
7
Image 38  Energy = -29.7099034256
C   0.8265297260  0.7288505547 -0.0147767146
H   0.7417945703  1.3797915438 -0.9151153612
O   0.5227051491  1.1579927771  1.0855322928
C   1.3749181634 -0.6741170522 -0.1964371795
H   0.9523426529 -1.3286102508  0.5756240352
H   1.1649210142 -1.0660361449 -1.1888935754
H   2.4645697245 -0.6521818521 -0.0666827782
7
Image 39  Energy = -29.7099581128
C   0.8262233967  0.7268901808 -0.0121426712
H   0.7418806921  1.3757664990 -0.9140553838
O   0.5217683771  1.1617768465  1.0856171697
C   1.3761352430 -0.6766795419 -0.1979937188
H   0.9542143992 -1.3339351501  0.5687872204
H   1.1656574646 -1.0608763271 -1.1952133850
H   2.4658812313 -0.6540967405 -0.0688439600
7
Image 40  Energy = -29.7099814183
C   0.8260193505  0.7250295779 -0.0087357358
H   0.7415278636  1.3714998681 -0.9121443347
O   0.5203749042  1.1651210454  1.0863534327
C   1.3781099557 -0.6784402733 -0.2009170520
H   0.9514439140 -1.3448101572  0.5596515396
H   1.1691675706 -1.0530710583 -1.2041739768
H   2.4665122849 -0.6563886659 -0.0704112831
7
Image 41  Energy = -29.7099786764
C   0.8256007634  0.7239076201 -0.0079829095
H   0.7415059760  1.3699957263 -0.9119064179
O   0.5199990543  1.1676260112  1.0864072235
C   1.3783165663 -0.6805037448 -0.2014442206
H   0.9576715631 -1.3437531675  0.5565088462
H   1.1678259618 -1.0544992455 -1.2006101493
H   2.4701147324 -0.6561955977 -0.0747342061
7
Image 42  Energy = -29.7099907166
C   0.8254034804  0.7237994769 -0.0074997353
H   0.7411884219  1.3693299730 -0.9118320108
O   0.5201088265  1.1677319331  1.0862331170
C   1.3787555965 -0.6801934511 -0.2016397487
H   0.9557258312 -1.3469728675  0.5567483622
H   1.1677758925 -1.0526711598 -1.2035234196
H   2.4678067813 -0.6582100986 -0.0728210832
