22
Image 0  Energy = -383.5281735435
C  -0.7781260000 -1.0675610000  0.3210590000
C   1.3025530000  0.0521200000 -0.0282990000
C  -0.9719930000  1.4562490000  0.8236570000
C   1.9812290000 -0.4184330000  1.2501750000
C   2.2640330000  0.4351680000 -1.1331070000
N   0.2911640000 -0.8768210000 -0.5003990000
N  -2.0191630000 -1.3720060000 -0.2331120000
O  -1.6647340000  1.6302230000 -0.4018370000
H  -2.2586320000  0.8701390000 -0.4758990000
H   0.0278490000 -0.6783120000 -1.4584950000
H  -0.6097590000 -1.3678560000  1.3411780000
H   0.6812640000  0.9183000000  0.2869410000
H  -2.5732630000 -2.0573610000  0.2574120000
H  -2.0524280000 -1.5045420000 -1.2338230000
H  -0.3689930000  2.3513920000  0.9917470000
H  -1.6396090000  1.2942150000  1.6746530000
H   2.7644490000  0.2914620000  1.5228460000
H   1.7251140000  0.7306950000 -2.0377940000
H   2.4355930000 -1.4060980000  1.1342150000
H   1.2730050000 -0.4472240000  2.0805790000
H   2.8503450000  1.2986970000 -0.8143220000
H   2.9600090000 -0.3688060000 -1.3889100000
22
Image 1  Energy = -383.5292433540
C  -0.7788470362 -1.0578435225  0.3220295927
C   1.3046338282  0.0514130730 -0.0285298758
C  -0.9795905331  1.4493897063  0.8249225432
C   1.9817324812 -0.4189914585  1.2489183057
C   2.2649762242  0.4341480453 -1.1335430251
N   0.2921717042 -0.8786231986 -0.5008733233
N  -2.0170230042 -1.3710667489 -0.2321390730
O  -1.6647874689  1.6299760167 -0.4014251045
H  -2.2583518669  0.8707545702 -0.4762128641
H   0.0275502070 -0.6779499030 -1.4580425110
H  -0.6096662232 -1.3683009861  1.3409795762
H   0.6825430411  0.9183669086  0.2859222316
H  -2.5728423663 -2.0566897020  0.2575499151
H  -2.0517562353 -1.5044585624 -1.2334716277
H  -0.3685339621  2.3499816220  0.9915746511
H  -1.6403187632  1.2955970062  1.6742955297
H   2.7643138000  0.2912053075  1.5227623624
H   1.7251996140  0.7305582979 -2.0375147939
H   2.4354758064 -1.4059710516  1.1342002218
H   1.2729090844 -0.4474107969  2.0803151797
H   2.8503562245  1.2983490070 -0.8143574701
H   2.9597624443 -0.3687936294 -1.3888954395
22
Image 2  Energy = -383.5301187376
C  -0.7795234663 -1.0483756255  0.3237964659
C   1.3060558725  0.0509723145 -0.0289069218
C  -0.9843202878  1.4441669653  0.8253227129
C   1.9821214595 -0.4194013432  1.2481690052
C   2.2657710936  0.4335052956 -1.1339216340
N   0.2933703889 -0.8800864420 -0.5011870002
N  -2.0154189707 -1.3702293779 -0.2315773292
O  -1.6652305762  1.6297572745 -0.4010577526
H  -2.2584275800  0.8711612111 -0.4768220353
H   0.0272826586 -0.6775534364 -1.4576793072
H  -0.6096085539 -1.3685212562  1.3404189709
H   0.6840838541  0.9181855562  0.2848008366
H  -2.5721645291 -2.0557904135  0.2577140859
H  -2.0509831289 -1.5042619215 -1.2328623638
H  -0.3689792791  2.3468133168  0.9912860352
H  -1.6422427698  1.2967037382  1.6749821591
H   2.7642104516  0.2909327508  1.5226653987
H   1.7253055720  0.7303859125 -2.0372330716
H   2.4354757195 -1.4060526653  1.1341491674
H   1.2729585425 -0.4475988224  2.0798282308
H   2.8504019705  1.2979601443 -0.8144249695
H   2.9597685567 -0.3690331736 -1.3889956834
22
Image 3  Energy = -383.5309524153
C  -0.7802511226 -1.0391379943  0.3257466835
C   1.3071615954  0.0506419669 -0.0293715727
C  -0.9878543117  1.4394916221  0.8253927340
C   1.9824678381 -0.4197337689  1.2476488386
C   2.2664857906  0.4330373154 -1.1342584946
N   0.2945669229 -0.8812927061 -0.5013263190
N  -2.0140495382 -1.3692949256 -0.2310762905
O  -1.6658672584  1.6296270078 -0.4007132903
H  -2.2587605846  0.8713961416 -0.4776188238
H   0.0270514832 -0.6771407967 -1.4573275051
H  -0.6095582825 -1.3685959174  1.3397845936
H   0.6857864533  0.9179140073  0.2836166088
H  -2.5713393677 -2.0547747072  0.2579293321
H  -2.0501180863 -1.5040054097 -1.2322086874
H  -0.3697281984  2.3428212683  0.9909648536
H  -1.6446662011  1.2976716586  1.6760227258
H   2.7641514408  0.2906668265  1.5225732669
H   1.7254194985  0.7301992271 -2.0369785556
H   2.4355370338 -1.4062410085  1.1340768190
H   1.2730582283 -0.4477923717  2.0792553808
H   2.8505035266  1.2975825458 -0.8145064375
H   2.9599101392 -0.3693999826 -1.3891608594
22
Image 4  Energy = -383.5317732265
C  -0.7810230880 -1.0301268207  0.3277447407
C   1.3081074514  0.0503634405 -0.0298730457
C  -0.9908747361  1.4349742629  0.8253488397
C   1.9828026060 -0.4200238010  1.2472345594
C   2.2671604724  0.4326511147 -1.1345728980
N   0.2956867529 -0.8822919737 -0.5013454146
N  -2.0128337288 -1.3682060148 -0.2305812505
O  -1.6666462021  1.6295491033 -0.4003761102
H  -2.2592714168  0.8715263565 -0.4785534843
H   0.0268625036 -0.6767223383 -1.4569478305
H  -0.6095151561 -1.3685428246  1.3391443327
H   0.6876065935  0.9176254502  0.2823888520
H  -2.5704108799 -2.0536863277  0.2582045975
H  -2.0491695358 -1.5037035556 -1.2315439342
H  -0.3705501695  2.3383615575  0.9906412962
H  -1.6472947112  1.2985483432  1.6771347614
H   2.7641382201  0.2904148950  1.5224924035
H   1.7255388004  0.7300067670 -2.0367588730
H   2.4356327653 -1.4064854282  1.1339906056
H   1.2731703916 -0.4479926604  2.0786535003
H   2.8506626147  1.2972311184 -0.8145950533
H   2.9601274505 -0.3698306637 -1.3893655953
22
Image 5  Energy = -383.5325887675
C  -0.7818245992 -1.0213374462  0.3297556298
C   1.3089659259  0.0501153809 -0.0303827019
C  -0.9936772548  1.4304810152  0.8252596341
C   1.9831395496 -0.4202890898  1.2468726517
C   2.2678170793  0.4323061265 -1.1348769024
N   0.2967096337 -0.8831216514 -0.5012776374
N  -2.0117503554 -1.3669495150 -0.2300810050
O  -1.6675403621  1.6294891531 -0.4000269483
H  -2.2599158603  0.8715926621 -0.4796009028
H   0.0267144683 -0.6763011445 -1.4565317600
H  -0.6094821915 -1.3683686469  1.3385180486
H   0.6895260753  0.9173568643  0.2811278746
H  -2.5693986980 -2.0525420755  0.2585371644
H  -2.0481441176 -1.5033635818 -1.2308723553
H  -0.3713501322  2.3335839695  0.9903274717
H  -1.6500094371  1.2993453188  1.6782121004
H   2.7641678271  0.2901777784  1.5224244098
H   1.7256641218  0.7298115801 -2.0365736413
H   2.4357492878 -1.4067598551  1.1338941652
H   1.2732815611 -0.4482000121  2.0780457633
H   2.8508748112  1.2969064621 -0.8146893673
H   2.9603896655 -0.3702932926 -1.3895966915
22
Image 6  Energy = -383.5334022013
C  -0.7826457635 -1.0127635406  0.3317683340
C   1.3097728633  0.0498906109 -0.0308858906
C  -0.9963971660  1.4259742442  0.8251418905
C   1.9834845690 -0.4205385239  1.2465400675
C   2.2684669933  0.4319846801 -1.1351768907
N   0.2976365875 -0.8838114177 -0.5011422014
N  -2.0107931707 -1.3655252132 -0.2295724959
O  -1.6685302020  1.6294241969 -0.3996515567
H  -2.2606700543  0.8716167847 -0.4807464147
H   0.0266031622 -0.6758774254 -1.4560819942
H  -0.6094620172 -1.3680780868  1.3379136744
H   0.6915374247  0.9171291892  0.2798401232
H  -2.5683146396 -2.0513503329  0.2589209195
H  -2.0470474966 -1.5029908639 -1.2301924167
H  -0.3720877246  2.3285576905  0.9900279769
H  -1.6527619326  1.3000609672  1.6792189661
H   2.7642361777  0.2899539596  1.5223691605
H   1.7257969387  0.7296145508 -2.0364199924
H   2.4358793892 -1.4070503167  1.1337892682
H   1.2733883259 -0.4484145019  2.0774412837
H   2.8511345723  1.2966047411 -0.8147899217
H   2.9606801609 -0.3707713924 -1.3898468880
22
Image 7  Energy = -383.5342155125
C  -0.7834806472 -1.0043970573  0.3337773112
C   1.3105476570  0.0496870154 -0.0313753732
C  -0.9990991542  1.4214493227  0.8249979726
C   1.9838401146 -0.4207763730  1.2462268417
C   2.2691157856  0.4316788116 -1.1354760317
N   0.2984752072 -0.8843849237 -0.5009510287
N  -2.0099585052 -1.3639369836 -0.2290535569
O  -1.6696012965  1.6293404406 -0.3992432417
H  -2.2615202747  0.8716101790 -0.4819798912
H   0.0265236679 -0.6754505630 -1.4556040124
H  -0.6094566885 -1.3676754009  1.3373355815
H   0.6936368272  0.9169555613  0.2785303459
H  -2.5671675752 -2.0501164152  0.2593492263
H  -2.0458846987 -1.5025899250 -1.2295020175
H  -0.3727459193  2.3233193559  0.9897441594
H  -1.6555319728  1.3006900050  1.6801466933
H   2.7643391653  0.2897411618  1.5223260152
H   1.7259387722  0.7294157722 -2.0362944769
H   2.4360191309 -1.4073490423  1.1336767775
H   1.2734911202 -0.4486360652  2.0768434606
H   2.8514367607  1.2963213358 -0.8148978204
H   2.9609895226 -0.3712562122 -1.3901119327
22
Image 8  Energy = -383.5350304621
C  -0.7843250775 -0.9962278459  0.3357784512
C   1.3113022593  0.0495038801 -0.0318479220
C  -1.0018137803  1.4169095410  0.8248278659
C   1.9842070681 -0.4210048304  1.2459284961
C   2.2697661327  0.4313843895 -1.1357756986
N   0.2992338144 -0.8848606281 -0.5007119603
N  -2.0092421342 -1.3621902117 -0.2285230017
O  -1.6707437938  1.6292301194 -0.3988019010
H  -2.2624575651  0.8715794200 -0.4832933596
H   0.0264712476 -0.6750198568 -1.4551031389
H  -0.6094678811 -1.3671644269  1.3367865753
H   0.6958208489  0.9168449027  0.2772026066
H  -2.5659651498 -2.0488443943  0.2598160644
H  -2.0446603225 -1.5021644135 -1.2287986259
H  -0.3733184918  2.3178915697  0.9894759860
H  -1.6583112121  1.3012272749  1.6809969522
H   2.7644732139  0.2895372003  1.5222943037
H   1.7260908009  0.7292151708 -2.0361939606
H   2.4361662281 -1.4076514231  1.1335571573
H   1.2735916169 -0.4488645418  2.0762534447
H   2.8517770064  1.2960520669 -0.8150141464
H   2.9613121690 -0.3717429625 -1.3903891853
22
Image 9  Energy = -383.5358488945
C  -0.7851760260 -0.9882437944  0.3377681597
C   1.3120450844  0.0493405319 -0.0323023752
C  -1.0045543455  1.4123564451  0.8246321007
C   1.9845854443 -0.4212249815  1.2456427191
C   2.2704192249  0.4310987082 -1.1360766628
N   0.2999196471 -0.8852524713 -0.5004305273
N  -2.0086386845 -1.3602911270 -0.2279794742
O  -1.6719509525  1.6290897660 -0.3983316927
H  -2.2634756444  0.8715283858 -0.4846800989
H   0.0264416503 -0.6745847852 -1.4545835688
H  -0.6094970538 -1.3665484122  1.3362683716
H   0.6980853474  0.9168034262  0.2758606440
H  -2.5647139911 -2.0475372715  0.2603161195
H  -2.0433785639 -1.5017171537 -1.2280800587
H  -0.3738044920  2.3122905618  0.9892229456
H  -1.6610963076  1.3016690733  1.6817749072
H   2.7646353099  0.2893401412  1.5222734864
H   1.7262539585  0.7290126147 -2.0361155743
H   2.4363193680 -1.4079546232  1.1334306825
H   1.2736917317 -0.4490996504  2.0756715790
H   2.8521517068  1.2957935080 -0.8151397815
H   2.9616445862 -0.3722288905 -1.3906768985
22
Image 10  Energy = -383.5366726671
C  -0.7860311194 -0.9804309414  0.3397439287
C   1.3127821872  0.0491961805 -0.0327387882
C  -1.0073245941  1.4077874552  0.8244117094
C   1.9849750383 -0.4214374903  1.2453683397
C   2.2710757415  0.4308197743 -1.1363793731
N   0.3005388973 -0.8855707054 -0.5001105494
N  -2.0081419497 -1.3582464270 -0.2274221181
O  -1.6732183961  1.6289183046 -0.3978389036
H  -2.2645695071  0.8714598623 -0.4861342422
H   0.0264310455 -0.6741449417 -1.4540487000
H  -0.6095455273 -1.3658299169  1.3357816880
H   0.7004253792  0.9168352435  0.2745079407
H  -2.5634199184 -2.0461972893  0.2608448718
H  -2.0420432961 -1.5012501753 -1.2273441310
H  -0.3742059500  2.3065288760  0.9889843849
H  -1.6638862103  1.3020133705  1.6824866132
H   2.7648228939  0.2891483493  1.5222631166
H   1.7264288807  0.7288080000 -2.0360568066
H   2.4364777590 -1.4082568040  1.1332975666
H   1.2737932779 -0.4493410156  2.0750978210
H   2.8525577755  1.2955427745 -0.8152754397
H   2.9619845911 -0.3727124790 -1.3909739258
22
Image 11  Energy = -383.5375037908
C  -0.7868885647 -0.9727737167  0.3417043352
C   1.3135180666  0.0490701243 -0.0331576870
C  -1.0101232489  1.4031959958  0.8241679490
C   1.9853755149 -0.4216428153  1.2451042785
C   2.2717360744  0.4305457948 -1.1366840073
N   0.3010968029 -0.8858227458 -0.4997552424
N  -2.0077454453 -1.3560631139 -0.2268502679
O  -1.6745430360  1.6287161703 -0.3973304186
H  -2.2657350694  0.8713759617 -0.4876506488
H   0.0264361385 -0.6737000875 -1.4535008328
H  -0.6096144772 -1.3650109420  1.3353265923
H   0.7028355682  0.9169427022  0.2731476747
H  -2.5620879102 -2.0448259731  0.2613984170
H  -2.0406580777 -1.5007648777 -1.2265888844
H  -0.3745266095  2.3006165716  0.9887596300
H  -1.6666807096  1.3022595596  1.6831377902
H   2.7650338926  0.2889605150  1.5222629097
H   1.7266158963  0.7286013090 -2.0360156353
H   2.4366409660 -1.4085567690  1.1331580347
H   1.2738977239 -0.4495881957  2.0745321891
H   2.8529926130  1.2952975324 -0.8154216408
H   2.9623308858 -0.3731929947 -1.3912795308
22
Image 12  Energy = -383.5383443071
C  -0.7877473257 -0.9652554517  0.3436491210
C   1.3142559767  0.0489616661 -0.0335600237
C  -1.0129462934  1.3985728961  0.8239016629
C   1.9857864499 -0.4218413995  1.2448498767
C   2.2724004424  0.4302752701 -1.1369908575
N   0.3015982458 -0.8860138915 -0.4993671716
N  -2.0074428356 -1.3537484171 -0.2262634204
O  -1.6759223188  1.6284845323 -0.3968125634
H  -2.2669689330  0.8712783799 -0.4892248261
H   0.0264540092 -0.6732500195 -1.4529417192
H  -0.6097049441 -1.3640929684  1.3349025962
H   0.7053103745  0.9171268144  0.2717827310
H  -2.5607220778 -2.0434241640  0.2619733498
H  -2.0392261421 -1.5002621341 -1.2258125569
H  -0.3747713842  2.2945614936  0.9885479987
H  -1.6694799190  1.3024080757  1.6837335356
H   2.7652665842  0.2887755784  1.5222726456
H   1.7268152246  0.7283925098 -2.0359901941
H   2.4368087392 -1.4088536780  1.1330122946
H   1.2740063754 -0.4498406993  2.0739745348
H   2.8534539864  1.2950558337 -0.8155787669
H   2.9626827598 -0.3736702182 -1.3915932426
22
Image 13  Energy = -383.5391963407
C  -0.7886068009 -0.9578585773  0.3455789878
C   1.3149981321  0.0488703990 -0.0339467037
C  -1.0157887421  1.3939073584  0.8236133916
C   1.9862075498 -0.4220335089  1.2446043974
C   2.2730692823  0.4300068533 -1.1373001248
N   0.3020475616 -0.8861481085 -0.4989485097
N  -2.0072278348 -1.3513091280 -0.2256616706
O  -1.6773539529  1.6282246925 -0.3962906740
H  -2.2682680960  0.8711687073 -0.4908528301
H   0.0264821105 -0.6727945347 -1.4523726465
H  -0.6098178191 -1.3630771455  1.3345089225
H   0.7078444899  0.9173874400  0.2704156349
H  -2.5593261445 -2.0419926808  0.2625669829
H  -2.0377504421 -1.4997424387 -1.2250135116
H  -0.3749458628  2.2883696606  0.9883487735
H  -1.6722837436  1.3024600267  1.6842779200
H   2.7655194676  0.2885926582  1.5222921501
H   1.7270268845  0.7281816118 -2.0359789861
H   2.4369809568 -1.4091470288  1.1328605699
H   1.2741202444 -0.4500980449  2.0734248332
H   2.8539399290  1.2948160083 -0.8157471138
H   2.9630398239 -0.3741442079 -1.3919147873
22
Image 14  Energy = -383.5400620294
C  -0.7894671171 -0.9505650800  0.3474953345
C   1.3157460507  0.0487960837 -0.0343188344
C  -1.0186453704  1.3891881052  0.8233030888
C   1.9866383732 -0.4222193882  1.2443672680
C   2.2737427421  0.4297393778 -1.1376120281
N   0.3024490002 -0.8862283398 -0.4985012670
N  -2.0070948176 -1.3487520168 -0.2250449080
O  -1.6788355150  1.6279378144 -0.3957688125
H  -2.2696299741  0.8710483965 -0.4925312451
H   0.0265182243 -0.6723334295 -1.4517944666
H  -0.6099538332 -1.3619643413  1.3341446621
H   0.7104330058  0.9177236263  0.2690485482
H  -2.5579030307 -2.0405318072  0.2631768587
H  -2.0362336374 -1.4992060357 -1.2241904800
H  -0.3750560361  2.2820453745  0.9881611876
H  -1.6750918952  1.3024168570  1.6847742490
H   2.7657913326  0.2884110553  1.5223213064
H   1.7272508499  0.7279686135 -2.0359806345
H   2.4371576269 -1.4094365305  1.1327030602
H   1.2742402241 -0.4503597377  2.0728829878
H   2.8544488027  1.2945767227 -0.8159268702
H   2.9634019888 -0.3746153074 -1.3922439992
22
Image 15  Energy = -383.5254066489
C  -0.7731318662 -1.0668052017  0.3136539647
C   1.3025746057  0.0480269783 -0.0293922182
C  -0.9634577312  1.4790182828  0.8317718002
C   1.9774552817 -0.4196672183  1.2474445757
C   2.2609491811  0.4339645640 -1.1316697841
N   0.3024122736 -0.8930932628 -0.5110663095
N  -1.9978217991 -1.4120166168 -0.2379952777
O  -1.6446720164  1.6365489541 -0.4074751353
H  -2.2359914054  0.8752228511 -0.4541129636
H   0.0238318682 -0.6813828058 -1.4641795248
H  -0.6051839699 -1.3941540852  1.3373627441
H   0.6544962329  0.9032732787  0.2953152587
H  -2.5888431475 -2.0712269565  0.2488146341
H  -2.0701239558 -1.5113569348 -1.2414509621
H  -0.3821349913  2.4167791290  0.9900213842
H  -1.6226578216  1.3141898159  1.6828634839
H   2.7579390212  0.2911997610  1.5205914836
H   1.7217923036  0.7321269529 -2.0337905018
H   2.4332776300 -1.4041981830  1.1363528232
H   1.2718025733 -0.4448605610  2.0819605677
H   2.8415857526  1.2981742807 -0.8114583986
H   2.9558090198 -0.3661230627 -1.3850966512
22
Image 16  Energy = -383.5259931147
C  -0.7728273079 -1.0620979184  0.3169738787
C   1.3030246134  0.0476537793 -0.0299716224
C  -0.9666152158  1.4776233974  0.8313797803
C   1.9778047260 -0.4199429459  1.2471110755
C   2.2614042116  0.4339761823 -1.1317687826
N   0.3016203731 -0.8931494267 -0.5099306123
N  -1.9984279144 -1.4108516713 -0.2384217388
O  -1.6451270624  1.6359137095 -0.4055779843
H  -2.2364961687  0.8754801501 -0.4553710384
H   0.0241495583 -0.6810642415 -1.4635168872
H  -0.6051905668 -1.3931346982  1.3348446735
H   0.6569032811  0.9031030973  0.2938307473
H  -2.5869940445 -2.0699113140  0.2493885885
H  -2.0687128952 -1.5108103701 -1.2405404348
H  -0.3834643806  2.4108991206  0.9896683734
H  -1.6244325356  1.3152663278  1.6828699686
H   2.7581135166  0.2911591434  1.5205011516
H   1.7217542204  0.7319332807 -2.0338235020
H   2.4334231704 -1.4047101014  1.1362675110
H   1.2717241750 -0.4451379608  2.0813434815
H   2.8420503523  1.2982156004 -0.8113918393
H   2.9562229307 -0.3667731814 -1.3853997921
22
Image 17  Energy = -383.5265149234
C  -0.7735030139 -1.0572276568  0.3188542961
C   1.3034537951  0.0472680610 -0.0304284943
C  -0.9697403400  1.4756356507  0.8311748306
C   1.9781636833 -0.4202099449  1.2467994911
C   2.2619167584  0.4338573032 -1.1319747656
N   0.3012778361 -0.8930605005 -0.5090088961
N  -1.9983147710 -1.4091676968 -0.2380848052
O  -1.6457133893  1.6355157855 -0.4041255631
H  -2.2371316496  0.8755487288 -0.4566271424
H   0.0243863089 -0.6807961910 -1.4627537660
H  -0.6050476035 -1.3924223352  1.3334102459
H   0.6593049711  0.9030192795  0.2923738667
H  -2.5853910611 -2.0688151141  0.2500379613
H  -2.0673062963 -1.5103569090 -1.2400328568
H  -0.3844180118  2.4054694844  0.9893773318
H  -1.6263645376  1.3162362469  1.6830273998
H   2.7582830465  0.2910932213  1.5204101124
H   1.7217528319  0.7317410045 -2.0338410597
H   2.4335643709 -1.4051868268  1.1361765189
H   1.2716632709 -0.4454173289  2.0807169771
H   2.8425031386  1.2982312453 -0.8113360264
H   2.9565676992 -0.3673155500 -1.3856806593
22
Image 18  Energy = -383.5270221482
C  -0.7743696455 -1.0522441651  0.3203157238
C   1.3039235568  0.0469180450 -0.0308016458
C  -0.9727030976  1.4731911033  0.8310829748
C   1.9785257443 -0.4204770981  1.2465108201
C   2.2624483622  0.4336768702 -1.1322233189
N   0.3011098282 -0.8929238311 -0.5082561299
N  -1.9981205462 -1.4073222557 -0.2376542620
O  -1.6465078297  1.6352370424 -0.4030411182
H  -2.2378363992  0.8755447647 -0.4579005855
H   0.0245872777 -0.6805428075 -1.4619810116
H  -0.6048727751 -1.3918083869  1.3324466515
H   0.6616849377  0.9030169897  0.2909515135
H  -2.5838730656 -2.0677746650  0.2507164151
H  -2.0658886502 -1.5099165105 -1.2395529498
H  -0.3851084794  2.4003123936  0.9891398341
H  -1.6284713329  1.3171223152  1.6833310557
H   2.7584525700  0.2910087651  1.5203198021
H   1.7217813136  0.7315492154 -2.0338536292
H   2.4337051868 -1.4056362724  1.1360814900
H   1.2716161816 -0.4456975334  2.0800882423
H   2.8429388406  1.2982073075 -0.8112977847
H   2.9568850605 -0.3678013290 -1.3859570923
22
Image 19  Energy = -383.5275290444
C  -0.7752512929 -1.0471803021  0.3216449185
C   1.3044456420  0.0466063214 -0.0311294820
C  -0.9754934955  1.4703816877  0.8310502241
C   1.9788904545 -0.4207448933  1.2462436854
C   2.2629872469  0.4334648141 -1.1324882356
N   0.3010302722 -0.8927619962 -0.5075980343
N  -1.9979514656 -1.4053931595 -0.2372134132
O  -1.6474832620  1.6350405017 -0.4022248365
H  -2.2386053770  0.8754926385 -0.4592034433
H   0.0247622752 -0.6802868748 -1.4612438380
H  -0.6047038721 -1.3912156275  1.3317294143
H   0.6640367428  0.9030878211  0.2895643226
H  -2.5823947412 -2.0667413732  0.2514052486
H  -2.0644634489 -1.5094746409 -1.2390613467
H  -0.3856067348  2.3953100068  0.9889458520
H  -1.6307321609  1.3179412268  1.6837469588
H   2.7586250565  0.2909089114  1.5202322197
H   1.7218348269  0.7313574468 -2.0338653833
H   2.4338479962 -1.4060643707  1.1359830190
H   1.2715794260 -0.4459780790  2.0794628640
H   2.8433597194  1.2981437193 -0.8112792890
H   2.9571932311 -0.3682538208 -1.3862364295
22
Image 20  Energy = -383.5129225455
C  -0.7493943014 -1.2384945341  0.2737585728
C   1.2829553208  0.0419566695 -0.0247657662
C  -0.9004380938  1.6254186997  0.8451011722
C   1.9653094216 -0.4183844923  1.2497667638
C   2.2432881263  0.4408151629 -1.1230978073
N   0.2919744228 -0.8997608964 -0.5200992599
N  -1.9867323842 -1.5036351723 -0.2598769958
O  -1.5912673900  1.6464873980 -0.4099982887
H  -2.1832165118  0.8832960387 -0.4009806842
H   0.0234219306 -0.6953124495 -1.4763282156
H  -0.5945580139 -1.4411323059  1.3247904568
H   0.5840554323  0.8786566322  0.3250451217
H  -2.6229751095 -2.1138786120  0.2322683402
H  -2.1124486751 -1.5271837921 -1.2661638688
H  -0.4039956343  2.5953100068  0.9907590588
H  -1.5491468096  1.3469555067  1.6784095191
H   2.7464390428  0.2960653801  1.5162424341
H   1.7116436598  0.7373545991 -2.0310250769
H   2.4280528711 -1.4010738242  1.1418631473
H   1.2659436810 -0.4386585550  2.0908236410
H   2.8246181626  1.3058953277 -0.8022320565
H   2.9463779658 -0.3570569337 -1.3757952316
22
Image 21  Energy = -383.5137968514
C  -0.7472704915 -1.2345019421  0.2783526180
C   1.2812131615  0.0420704671 -0.0244408775
C  -0.9072197659  1.6249213271  0.8427874533
C   1.9656707741 -0.4187981058  1.2494881980
C   2.2435429678  0.4409010533 -1.1230502435
N   0.2931641151 -0.9018308170 -0.5213574784
N  -1.9917554991 -1.5031086883 -0.2628816368
O  -1.5892498610  1.6461941886 -0.4062629419
H  -2.1825696862  0.8836732996 -0.4010932870
H   0.0235820606 -0.6951606386 -1.4756247731
H  -0.5943459936 -1.4414925635  1.3227417237
H   0.5878174426  0.8798266649  0.3239332767
H  -2.6207986731 -2.1134296859  0.2320769173
H  -2.1107844349 -1.5273977818 -1.2638244388
H  -0.4048634352  2.5924822802  0.9903198951
H  -1.5488161991  1.3484022504  1.6781536580
H   2.7462880357  0.2959704896  1.5159381010
H   1.7114793974  0.7371066997 -2.0308377361
H   2.4279977166 -1.4015403552  1.1418145460
H   1.2658930583 -0.4391205820  2.0901389229
H   2.8246651225  1.3057763968 -0.8020315673
H   2.9462673004 -0.3573041033 -1.3758753551
22
Image 22  Energy = -383.5144067022
C  -0.7480256292 -1.2309714225  0.2806022989
C   1.2797822303  0.0423360968 -0.0243266963
C  -0.9132392250  1.6256833345  0.8409760026
C   1.9658934926 -0.4191763290  1.2492437466
C   2.2436003307  0.4410103679 -1.1228581603
N   0.2951041142 -0.9038209981 -0.5223645611
N  -1.9938735359 -1.5011798017 -0.2632065881
O  -1.5877440825  1.6457464994 -0.4032230778
H  -2.1819526558  0.8839347189 -0.4012840465
H   0.0235845841 -0.6949709262 -1.4751732774
H  -0.5939171415 -1.4422212449  1.3221135255
H   0.5918540065  0.8807953185  0.3226485257
H  -2.6193790778 -2.1136427119  0.2320673009
H  -2.1094304462 -1.5279002093 -1.2633139830
H  -0.4056372173  2.5894074757  0.9897928555
H  -1.5489080782  1.3493254248  1.6783208910
H   2.7461797746  0.2958982324  1.5156411789
H   1.7113375397  0.7368615816 -2.0306641953
H   2.4279362347 -1.4019982101  1.1417107356
H   1.2658898865 -0.4396270645  2.0894931925
H   2.8247631205  1.3057005778 -0.8018350592
H   2.9460888880 -0.3575508565 -1.3758956360
22
Image 23  Energy = -383.5149423194
C  -0.7491348381 -1.2275355335  0.2822306289
C   1.2787073700  0.0426827914 -0.0242499834
C  -0.9187092569  1.6269586757  0.8397618351
C   1.9660524565 -0.4195133133  1.2489924919
C   2.2435798036  0.4411250042 -1.1226206151
N   0.2969317063 -0.9059347451 -0.5232136445
N  -1.9954800024 -1.4988523439 -0.2630370321
O  -1.5867052453  1.6452938094 -0.4009273679
H  -2.1814028820  0.8840674406 -0.4015162143
H   0.0235591379 -0.6947476262 -1.4748371719
H  -0.5934696172 -1.4431031738  1.3219352603
H   0.5960191372  0.8816685638  0.3212487026
H  -2.6181733060 -2.1140386624  0.2320753911
H  -2.1081394934 -1.5285158996 -1.2631681929
H  -0.4062369924  2.5864439742  0.9892320107
H  -1.5492941060  1.3499159999  1.6787468451
H   2.7460925859  0.2958290301  1.5153535605
H   1.7112131665  0.7366243445 -2.0304977751
H   2.4278652762 -1.4024368632  1.1415615785
H   1.2659024063 -0.4401618515  2.0888977368
H   2.8248888107  1.3056490591 -0.8016414579
H   2.9458409972 -0.3577788272 -1.3758616140
22
Image 24  Energy = -383.5154294930
C  -0.7502515154 -1.2241760574  0.2836411201
C   1.2779342504  0.0430125900 -0.0241961858
C  -0.9237755721  1.6284434373  0.8390236754
C   1.9661869545 -0.4198182518  1.2487394264
C   2.2435394468  0.4412391483 -1.1223805603
N   0.2985808249 -0.9080862425 -0.5239593969
N  -1.9969700097 -1.4963525689 -0.2627465705
O  -1.5860231343  1.6448961480 -0.3992363349
H  -2.1809412359  0.8840598075 -0.4017780318
H   0.0235299596 -0.6945080690 -1.4745531543
H  -0.5930443176 -1.4440691481  1.3219327081
H   0.6002231981  0.8824958704  0.3197669484
H  -2.6170472286 -2.1144918188  0.2320573965
H  -2.1068653217 -1.5292010100 -1.2630995625
H  -0.4066485696  2.5837138223  0.9886681839
H  -1.5499145092  1.3502696072  1.6793578020
H   2.7460194683  0.2957551819  1.5150776234
H   1.7111015291  0.7363974273 -2.0303352421
H   2.4277847797 -1.4028501836  1.1413734001
H   1.2659210663 -0.4407149677  2.0883471421
H   2.8250314109  1.3056119100 -0.8014528972
H   2.9455356413 -0.3579867789 -1.3757825164
22
Image 25  Energy = -383.5124126571
C  -0.7483843041 -1.2460177180  0.2718284080
C   1.2821691387  0.0417672971 -0.0245241306
C  -0.8973396545  1.6313603296  0.8456906980
C   1.9647799262 -0.4182807335  1.2499125516
C   2.2425280822  0.4410949172 -1.1227434727
N   0.2915538724 -0.8999422814 -0.5205397280
N  -1.9862211986 -1.5074821043 -0.2607303912
O  -1.5891492681  1.6469399780 -0.4103835019
H  -2.1811080383  0.8835908149 -0.3987360874
H   0.0233725803 -0.6958994342 -1.4769212830
H  -0.5941818353 -1.4430163759  1.3245421295
H   0.5808290229  0.8776857003  0.3264603503
H  -2.6245845084 -2.1156832542  0.2315374024
H  -2.1143423007 -1.5278426630 -1.2672304880
H  -0.4046782024  2.6031038529  0.9908498912
H  -1.5459931621  1.3480439750  1.6781848583
H   2.7459754007  0.2962677677  1.5160997914
H   1.7112561800  0.7375941234 -2.0309240396
H   2.4278329503 -1.4008666485  1.1420946252
H   1.2657258002 -0.4383578047  2.0912832139
H   2.8238950869  1.3061978977 -0.8018906588
H   2.9459715484 -0.3566177861 -1.3753951634
22
Image 26  Energy = -383.5133490398
C  -0.7459777994 -1.2420326171  0.2766244483
C   1.2803097231  0.0418592166 -0.0241866976
C  -0.9043352095  1.6307632679  0.8432297573
C   1.9651394770 -0.4186937232  1.2496348628
C   2.2427740035  0.4411985169 -1.1226836010
N   0.2927258360 -0.9020953918 -0.5218162688
N  -1.9915450417 -1.5069974161 -0.2639403656
O  -1.5870006885  1.6466659169 -0.4064728537
H  -2.1803907593  0.8840165004 -0.3988031950
H   0.0235367738 -0.6957460288 -1.4762156715
H  -0.5939926994 -1.4433676660  1.3223510830
H   0.5846312039  0.8789404787  0.3253783532
H  -2.6223444238 -2.1152259459  0.2313033729
H  -2.1126440569 -1.5280767232 -1.2647442844
H  -0.4055800899  2.6002961083  0.9903958982
H  -1.5455094057  1.3495646230  1.6778588592
H   2.7458109349  0.2961740411  1.5157869111
H   1.7110813210  0.7373426206 -2.0307272486
H   2.4277686702 -1.4013358121  1.1420479690
H   1.2656757724 -0.4388284562  2.0905941932
H   2.8239284844  1.3060773699 -0.8016833160
H   2.9458450879 -0.3568590296 -1.3754672292
22
Image 27  Energy = -383.5139868318
C  -0.7467001573 -1.2385725235  0.2789350149
C   1.2787700790  0.0421253282 -0.0240605049
C  -0.9105201609  1.6315313959  0.8412809897
C   1.9653544628 -0.4190739715  1.2493905384
C   2.2428094347  0.4413221372 -1.1224727590
N   0.2947340122 -0.9041329354 -0.5228741226
N  -1.9937429380 -1.5050319057 -0.2642902191
O  -1.5853803720  1.6462254891 -0.4032793444
H  -2.1797067807  0.8843168268 -0.3989543807
H   0.0235359746 -0.6955605777 -1.4757588711
H  -0.5935698142 -1.4440948645  1.3216782387
H   0.5887269641  0.8799672100  0.3241096999
H  -2.6209086769 -2.1154673852  0.2312652478
H  -2.1112815135 -1.5286082691 -1.2642065174
H  -0.4063947321  2.5972028976  0.9898464196
H  -1.5454725081  1.3505284385  1.6779845470
H   2.7456907883  0.2961052682  1.5154807585
H   1.7109292461  0.7370943015 -2.0305455831
H   2.4276971239 -1.4017951877  1.1419447081
H   1.2656743668 -0.4393457601  2.0899459140
H   2.8240150130  1.3060034503 -0.8014782832
H   2.9456473026 -0.3570995136 -1.3754765132
22
Image 28  Energy = -383.5145428418
C  -0.7478040610 -1.2352151477  0.2805764122
C   1.2776043837  0.0424907222 -0.0239675853
C  -0.9161247810  1.6328589361  0.8399623654
C   1.9655023207 -0.4194134305  1.2491376308
C   2.2427616048  0.4414505832 -1.1222133683
N   0.2966275635 -0.9063018597 -0.5237694913
N  -1.9954002451 -1.5026519404 -0.2641138170
O  -1.5842485224  1.6457738391 -0.4008672198
H  -2.1790929828  0.8844822797 -0.3991495889
H   0.0235048822 -0.6953409766 -1.4754233465
H  -0.5931239749 -1.4449790308  1.3214919385
H   0.5929626131  0.8808821283  0.3227165323
H  -2.6196964627 -2.1158987284  0.2312469199
H  -2.1099858380 -1.5292558229 -1.2640575914
H  -0.4070332601  2.5942156872  0.9892592340
H  -1.5457430288  1.3511407625  1.6783834842
H   2.7455917675  0.2960402844  1.5151833152
H   1.7107947391  0.7368543929 -2.0303718204
H   2.4276155050 -1.4022348856  1.1417947482
H   1.2656887472 -0.4398926791  2.0893501991
H   2.8241297418  1.3059553727 -0.8012752148
H   2.9453764011 -0.3573206362 -1.3754287601
22
Image 29  Energy = -383.5150460187
C  -0.7489183670 -1.2319369763  0.2819825150
C   1.2767573885  0.0428472561 -0.0238952071
C  -0.9213050482  1.6344170083  0.8391512736
C   1.9656242109 -0.4197203168  1.2488821687
C   2.2426921053  0.4415785978 -1.1219505110
N   0.2983343962 -0.9085143094 -0.5245578604
N  -1.9969362465 -1.5000934003 -0.2638112103
O  -1.5834904137  1.6453756258 -0.3990942090
H  -2.1785716671  0.8845003408 -0.3993759462
H   0.0234692025 -0.6951047110 -1.4751435488
H  -0.5926987620 -1.4459489272  1.3214963690
H   0.5972426359  0.8817404934  0.3212345428
H  -2.6185672947 -2.1163895697  0.2312032045
H  -2.1087076861 -1.5299744458 -1.2639915875
H  -0.4074781189  2.5914694444  0.9886674487
H  -1.5462574436  1.3515036218  1.6789770865
H   2.7455063893  0.2959706277  1.5148972223
H   1.7106728798  0.7366254361 -2.0302023213
H   2.4275238204 -1.4026487506  1.1416043685
H   1.2657091431 -0.4404586933  2.0888012692
H   2.8242612709  1.3059225123 -0.8010766650
H   2.9450447169 -0.3575210129 -1.3753334261
22
Image 30  Energy = -383.5145318371
C  -0.7552571873 -1.2097643145  0.2803468403
C   1.2871113442  0.0421197669 -0.0260949164
C  -0.9110075709  1.6113501825  0.8461624043
C   1.9672906634 -0.4192338687  1.2488945315
C   2.2462751976  0.4396147049 -1.1245254295
N   0.2939406285 -0.9004719161 -0.5187872697
N  -1.9863279339 -1.4935135771 -0.2570140671
O  -1.5983375400  1.6446904799 -0.4100344475
H  -2.1897086476  0.8815496309 -0.4081461631
H   0.0236567623 -0.6934364345 -1.4741649625
H  -0.5944262336 -1.4384397531  1.3252934478
H   0.5953887789  0.8797555026  0.3188234404
H  -2.6176001063 -2.1087180523  0.2351628940
H  -2.1062979576 -1.5252099950 -1.2640705610
H  -0.4026930679  2.5724183433  0.9905505012
H  -1.5627664160  1.3452271659  1.6814076276
H   2.7477812417  0.2952638616  1.5164449027
H   1.7127140935  0.7364938042 -2.0311936104
H   2.4289137656 -1.4023295450  1.1411517139
H   1.2663645180 -0.4397237358  2.0885880986
H   2.8269057266  1.3049187836 -0.8030393112
H   2.9479871350 -0.3589211791 -1.3772906752
22
Image 31  Energy = -383.5153832311
C  -0.7529307372 -1.2058642299  0.2848572137
C   1.2852508821  0.0422163133 -0.0257050533
C  -0.9180554043  1.6100107635  0.8438558323
C   1.9677129665 -0.4196415776  1.2486735501
C   2.2466131729  0.4396977543 -1.1245725489
N   0.2949690537 -0.9022390134 -0.5198751682
N  -1.9912154053 -1.4930604909 -0.2601133680
O  -1.5964508630  1.6445464971 -0.4063269748
H  -2.1892260051  0.8818196451 -0.4083230412
H   0.0238260440 -0.6932798224 -1.4734894831
H  -0.5943067803 -1.4386970008  1.3233401256
H   0.5991484790  0.8808091440  0.3176335606
H  -2.6155009271 -2.1081737009  0.2350661603
H  -2.1046464679 -1.5253112631 -1.2616466836
H  -0.4032226427  2.5700503858  0.9902467024
H  -1.5625592440  1.3466969814  1.6810045890
H   2.7477028350  0.2951506271  1.5161934720
H   1.7126101711  0.7362476292 -2.0310331185
H   2.4289008488 -1.4027836499  1.1410998925
H   1.2663241395 -0.4401620476  2.0878918539
H   2.8270150690  1.3047771958 -0.8028940898
H   2.9479480095 -0.3591702854 -1.3774184308
22
Image 32  Energy = -383.5159478014
C  -0.7535338991 -1.2023345876  0.2870247035
C   1.2838653859  0.0424276349 -0.0255848610
C  -0.9239990873  1.6102249623  0.8420726551
C   1.9679744595 -0.4200070748  1.2484692181
C   2.2467260920  0.4397774248 -1.1244385604
N   0.2966860241 -0.9039748599 -0.5207153464
N  -1.9931977762 -1.4912104688 -0.2604429138
O  -1.5951861522  1.6441403159 -0.4033569915
H  -2.1887311377  0.8820573801 -0.4086004500
H   0.0238436095 -0.6930855673 -1.4730413478
H  -0.5939542070 -1.4393627439  1.3227444600
H   0.6030956262  0.8817388768  0.3163182499
H  -2.6141183799 -2.1082661091  0.2351284318
H  -2.1032955832 -1.5257128552 -1.2610900163
H  -0.4038188608  2.5671334521  0.9898315529
H  -1.5628714521  1.3476410181  1.6810969173
H   2.7476645187  0.2950613468  1.5159467619
H   1.7125251501  0.7360076726 -2.0308961543
H   2.4288826834 -1.4032320756  1.1409950521
H   1.2663304536 -0.4406436101  2.0872442166
H   2.8271734019  1.3046808525 -0.8027503202
H   2.9478463229 -0.3594211303 -1.3774902650
22
Image 33  Energy = -383.5164375641
C  -0.7545337877 -1.1988685708  0.2886130967
C   1.2828993033  0.0426903216 -0.0255341834
C  -0.9292556800  1.6110603630  0.8408954877
C   1.9681662721 -0.4203297536  1.2482466745
C   2.2467575175  0.4398489722 -1.1242498643
N   0.2982964205 -0.9058341393 -0.5214145610
N  -1.9946640869 -1.4889807385 -0.2602680062
O  -1.5943997562  1.6437210441 -0.4011388100
H  -2.1883072329  0.8821769423 -0.4089268495
H   0.0238362363 -0.6928597143 -1.4726945750
H  -0.5935752724 -1.4401868811  1.3225524651
H   0.6071114514  0.8826241026  0.3149241227
H  -2.6129334360 -2.1085321348  0.2352041922
H  -2.1020055098 -1.5262261409 -1.2608986307
H  -0.4043202410  2.5641813991  0.9893699260
H  -1.5635044827  1.3482652631  1.6814658805
H   2.7476436092  0.2949747657  1.5157069373
H   1.7124558512  0.7357756275 -2.0307680445
H   2.4288547799 -1.4036616624  1.1408484623
H   1.2663503009 -0.4411517733  2.0866513550
H   2.8273552279  1.3046062392 -0.8026080820
H   2.9476797073 -0.3596536770 -1.3775119966
22
Image 34  Energy = -383.5168819147
C  -0.7555637273 -1.1954623817  0.2900106998
C   1.2822533681  0.0429247321 -0.0255220014
C  -0.9340562768  1.6121461658  0.8401900183
C   1.9683324864 -0.4206212752  1.2480148083
C   2.2467723030  0.4399135312 -1.1240580178
N   0.2997430219 -0.9077302813 -0.5220195754
N  -1.9960153199 -1.4865933850 -0.2599752770
O  -1.5939568763  1.6433637123 -0.3995143106
H  -2.1879769154  0.8821579094 -0.4092851636
H   0.0238262046 -0.6926179360 -1.4723940099
H  -0.5932130104 -1.4410936601  1.3225112078
H   0.6111281465  0.8834946831  0.3134751767
H  -2.6118199865 -2.1088518701  0.2352537911
H  -2.1007312335 -1.5268054710 -1.2607809817
H  -0.4046764984  2.5613804066  0.9888978572
H  -1.5643721384  1.3486672299  1.6820191191
H   2.7476332696  0.2948831223  1.5154763471
H   1.7123982561  0.7355524543 -2.0306429672
H   2.4288169215 -1.4040661332  1.1406668973
H   1.2663746782 -0.4416767411  2.0861044911
H   2.8275498972  1.3045422735 -0.8024698669
H   2.9474606235 -0.3598672327 -1.3774932476
22
Image 35  Energy = -383.5159103143
C  -0.7690407370 -1.1541999731  0.2916674098
C   1.2942536154  0.0386928696 -0.0294845697
C  -0.9348029914  1.6246535909  0.8594831724
C   1.9708418759 -0.4234896421  1.2462669282
C   2.2518938264  0.4365753335 -1.1274934943
N   0.3039413825 -0.9133612903 -0.5220582570
N  -1.9758256371 -1.5059338587 -0.2591517843
O  -1.6009386031  1.6443913933 -0.4118124707
H  -2.1885658390  0.8762218207 -0.4093812320
H   0.0232920863 -0.6921531702 -1.4722638415
H  -0.5869247256 -1.4644184137  1.3234267548
H   0.6126026972  0.8695463807  0.3034103062
H  -2.6141843038 -2.1106466989  0.2389723477
H  -2.1024252433 -1.5261265124 -1.2678135987
H  -0.4066548235  2.5829632869  0.9919815362
H  -1.5935799317  1.3609436468  1.6973400155
H   2.7478892850  0.2928773020  1.5151902049
H   1.7131096684  0.7350945484 -2.0297900882
H   2.4307785716 -1.4068593445  1.1409048914
H   1.2654129890 -0.4414181685  2.0814461652
H   2.8278174901  1.3027850616 -0.8024428560
H   2.9510170622 -0.3624983966 -1.3799324332
22
Image 36  Energy = -383.5172108867
C  -0.7649765929 -1.1531150424  0.2981928927
C   1.2914891531  0.0385880801 -0.0291942164
C  -0.9428559691  1.6235879459  0.8559194188
C   1.9712755302 -0.4237661349  1.2461679333
C   2.2520187007  0.4369678994 -1.1273287819
N   0.3039341779 -0.9144803021 -0.5223948163
N  -1.9819236029 -1.5054253160 -0.2631102419
O  -1.5990076032  1.6443419842 -0.4061070507
H  -2.1878141900  0.8769008388 -0.4096410347
H   0.0237061368 -0.6919571610 -1.4716226185
H  -0.5875318879 -1.4635796168  1.3196142983
H   0.6170174125  0.8712911384  0.3021446432
H  -2.6116064618 -2.1096215464  0.2387217589
H  -2.1005406186 -1.5261558099 -1.2644841857
H  -0.4076990078  2.5790704323  0.9916778468
H  -1.5924399397  1.3627910144  1.6955703890
H   2.7481163490  0.2928039907  1.5150905467
H   1.7131208103  0.7348156498 -2.0298328348
H   2.4308443390 -1.4073398989  1.1408027995
H   1.2654005380 -0.4419727332  2.0808570097
H   2.8282588009  1.3027177442 -0.8024210630
H   2.9511216407 -0.3628233905 -1.3801575888
22
Image 37  Energy = -383.5178896353
C  -0.7648518799 -1.1519920342  0.3006016280
C   1.2896801085  0.0385542698 -0.0291530785
C  -0.9493670180  1.6239299995  0.8532714126
C   1.9715143715 -0.4240135323  1.2460253584
C   2.2519598260  0.4371569068 -1.1270640995
N   0.3046678177 -0.9156100022 -0.5224684877
N  -1.9840958211 -1.5031505026 -0.2632749520
O  -1.5978461611  1.6441084845 -0.4017280521
H  -2.1871307898  0.8774263860 -0.4099734624
H   0.0238853902 -0.6917777439 -1.4710609104
H  -0.5876519955 -1.4636094534  1.3181243941
H   0.6213439176  0.8730254914  0.3008612332
H  -2.6100250041 -2.1094296384  0.2387096744
H  -2.0990362571 -1.5264977369 -1.2636026668
H  -0.4087310149  2.5748958743  0.9912733134
H  -1.5920157531  1.3640337897  1.6945205781
H   2.7483363691  0.2927368507  1.5149696852
H   1.7131558449  0.7345559672 -2.0298842947
H   2.4308863921 -1.4077792809  1.1406533670
H   1.2654356010 -0.4425623655  2.0803331364
H   2.8287099541  1.3026949403 -0.8023754351
H   2.9510838139 -0.3630569042 -1.3802932371
22
Image 38  Energy = -383.5184015082
C  -0.7653607797 -1.1506627204  0.3019683462
C   1.2885206097  0.0385814100 -0.0291387572
C  -0.9548344072  1.6247719919  0.8515284635
C   1.9716819596 -0.4242362534  1.2458420004
C   2.2518634726  0.4372408340 -1.1268059179
N   0.3054122054 -0.9168506331 -0.5225673167
N  -1.9856349745 -1.5004777551 -0.2628510399
O  -1.5973069702  1.6439050241 -0.3985888042
H  -2.1865694340  0.8777682783 -0.4103371179
H   0.0240096684 -0.6916045334 -1.4705211111
H  -0.5876405021 -1.4639706482  1.3174357435
H   0.6255476931  0.8747575845  0.2995773470
H  -2.6087263271 -2.1094828996  0.2387532987
H  -2.0975990956 -1.5269512622 -1.2631652566
H  -0.4095980910  2.5709023990  0.9908335563
H  -1.5920776964  1.3648964370  1.6939478476
H   2.7485321490  0.2926551636  1.5148344919
H   1.7132082185  0.7343090439 -2.0299274035
H   2.4309067974 -1.4081762279  1.1404696031
H   1.2654847700 -0.4431680199  2.0798665184
H   2.8291362973  1.3026654180 -0.8023198069
H   2.9509521448 -0.3632328649 -1.3803695775
22
Image 39  Energy = -383.5188243620
C  -0.7659695293 -1.1492144918  0.3030209209
C   1.2877981061  0.0386177715 -0.0291356367
C  -0.9595961212  1.6257614168  0.8504425517
C   1.9718288449 -0.4244455948  1.2456441226
C   2.2517876516  0.4372721899 -1.1265837010
N   0.3061101396 -0.9181238333 -0.5226875923
N  -1.9870794844 -1.4976730821 -0.2623426907
O  -1.5971978865  1.6437971137 -0.3963894545
H  -2.1861469059  0.8779189232 -0.4107218760
H   0.0241070306 -0.6914311686 -1.4700172739
H  -0.5875903706 -1.4644914041  1.3170834740
H   0.6296154418  0.8764764315  0.2982962960
H  -2.6075400178 -2.1096310585  0.2387948786
H  -2.0961828139 -1.5274724914 -1.2628262181
H  -0.4102539039  2.5672424293  0.9903962441
H  -1.5925030750  1.3654890971  1.6937268167
H   2.7487045911  0.2925547786  1.5146915487
H   1.7132712488  0.7340721365 -2.0299576646
H   2.4309103902 -1.4085346176  1.1402580809
H   1.2655400875 -0.4437802334  2.0794424914
H   2.8295312393  1.3026134423 -0.8022632620
H   2.9507630437 -0.3633779883 -1.3804069501
22
Image 40  Energy = -383.5160515971
C  -0.7687111115 -1.1527365402  0.2920918604
C   1.2941910343  0.0388045896 -0.0295663179
C  -0.9348040461  1.6219288079  0.8586408578
C   1.9707640133 -0.4233690394  1.2462316437
C   2.2518446996  0.4365894247 -1.1274276687
N   0.3041823456 -0.9133262188 -0.5220435575
N  -1.9758034623 -1.5047443456 -0.2587666364
O  -1.6011182334  1.6444705937 -0.4115354857
H  -2.1887882897  0.8765675614 -0.4096741778
H   0.0231891639 -0.6920121807 -1.4722237312
H  -0.5873249734 -1.4631244833  1.3232706518
H   0.6125901802  0.8699808936  0.3036917837
H  -2.6139884130 -2.1100892080  0.2387980165
H  -2.1022406322 -1.5260266649 -1.2673054723
H  -0.4069866382  2.5802095352  0.9916854785
H  -1.5930961439  1.3605084454  1.6970754419
H   2.7478643572  0.2928814010  1.5152157787
H   1.7131427307  0.7350765162 -2.0297481223
H   2.4307123166 -1.4067208392  1.1408656056
H   1.2655401035 -0.4414398239  2.0815705544
H   2.8278223545  1.3027212748 -0.8025191589
H   2.9509263338 -0.3625099287 -1.3798622449
22
Image 41  Energy = -383.5172989070
C  -0.7648270300 -1.1516515234  0.2984157843
C   1.2914932202  0.0387120954 -0.0292619016
C  -0.9427108006  1.6209424848  0.8552069150
C   1.9712040213 -0.4236489962  1.2461358996
C   2.2519875300  0.4369731928 -1.1272850348
N   0.3041452822 -0.9143893533 -0.5223549811
N  -1.9818289723 -1.5042201767 -0.2626714210
O  -1.5992773117  1.6443935962 -0.4059821429
H  -2.1880999341  0.8771964271 -0.4099814397
H   0.0236129471 -0.6918224519 -1.4715616932
H  -0.5878812104 -1.4623102812  1.3196014725
H   0.6169927180  0.8716699382  0.3024009335
H  -2.6114008757 -2.1090586760  0.2385903458
H  -2.1003380030 -1.5260294367 -1.2640246913
H  -0.4079538455  2.5763442469  0.9913962357
H  -1.5920600128  1.3622871298  1.6953647884
H   2.7480949838  0.2928149837  1.5151140387
H   1.7131494285  0.7348007642 -2.0297982966
H   2.4307800555 -1.4072064373  1.1407612939
H   1.2655180477 -0.4419890842  2.0809774389
H   2.8282718644  1.3026689530 -0.8024893259
H   2.9510355829 -0.3628376262 -1.3800891199
22
Image 42  Energy = -383.5179564478
C  -0.7647651511 -1.1505263584  0.3007558261
C   1.2897334084  0.0386846775 -0.0292088502
C  -0.9491238953  1.6213092027  0.8526643292
C   1.9714523649 -0.4238996491  1.2459985680
C   2.2519463785  0.4371597053 -1.1270378667
N   0.3048329677 -0.9154721377 -0.5224083722
N  -1.9840087379 -1.5019569539 -0.2628524768
O  -1.5981864197  1.6441416399 -0.4017230320
H  -2.1874757178  0.8776776393 -0.4103568168
H   0.0238053349 -0.6916455197 -1.4709885925
H  -0.5879722874 -1.4623409349  1.3181771856
H   0.6213064007  0.8733568343  0.3010961730
H  -2.6098002852 -2.1088535254  0.2386167416
H  -2.0988150201 -1.5263447879 -1.2631607211
H  -0.4089057290  2.5722153665  0.9910095122
H  -1.5917187454  1.3634804126  1.6943556023
H   2.7483183656  0.2927533458  1.5149921610
H   1.7131805637  0.7345437362 -2.0298562146
H   2.4308246576 -1.4076508511  1.1406104757
H   1.2655440812 -0.4425727509  2.0804485368
H   2.8287292382  1.3026566404 -0.8024384512
H   2.9510059154 -0.3630759625 -1.3802286198
22
Image 43  Energy = -383.5184562821
C  -0.7653107658 -1.1491986182  0.3020980862
C   1.2886098993  0.0387130699 -0.0291866278
C  -0.9545240626  1.6221521446  0.8509967082
C   1.9716302066 -0.4241256154  1.2458212930
C   2.2518663175  0.4372434817 -1.1267939016
N   0.3055350287 -0.9166679953 -0.5224867114
N  -1.9855597937 -1.4992978479 -0.2624489183
O  -1.5977004208  1.6439227845 -0.3986684693
H  -2.1869684060  0.8779813516 -0.4107605201
H   0.0239420225 -0.6914729191 -1.4704432280
H  -0.5879413195 -1.4626928589  1.3175211309
H   0.6254976926  0.8750475138  0.2997937194
H  -2.6084843637 -2.1088938208  0.2386963880
H  -2.0973627973 -1.5267729718 -1.2627403093
H  -0.4096967531  2.5682678697  0.9905889639
H  -1.5918508089  1.3643055774  1.6938125223
H   2.7485178845  0.2926764621  1.5148568900
H   1.7132297834  0.7342990826 -2.0299047908
H   2.4308481437 -1.4080528666  1.1404260652
H   1.2655850507 -0.4431722004  2.0799761665
H   2.8291610907  1.3026353039 -0.8023793973
H   2.9508840579 -0.3632571598 -1.3803099593
22
Image 44  Energy = -383.5188718900
C  -0.7659455335 -1.1477520438  0.3031423420
C   1.2879138584  0.0387479719 -0.0291782388
C  -0.9592388026  1.6231323289  0.8499620494
C   1.9717871963 -0.4243381235  1.2456293974
C   2.2518050187  0.4372752843 -1.1265833911
N   0.3061953034 -0.9178990800 -0.5225868036
N  -1.9870129657 -1.4965065785 -0.2619576878
O  -1.5976317808  1.6437997201 -0.3965249337
H  -2.1865943239  0.8781002491 -0.4111828983
H   0.0240506422 -0.6912992263 -1.4699365640
H  -0.5878768531 -1.4632001559  1.3171871015
H   0.6295540714  0.8767298102  0.2984963346
H  -2.6072833577 -2.1090296965  0.2387714416
H  -2.0959341796 -1.5272700335 -1.2624186561
H  -0.4102834778  2.5646470845  0.9901708355
H  -1.5923369189  1.3648693535  1.6936129767
H   2.7486944498  0.2925803854  1.5147145814
H   1.7132903824  0.7340641491 -2.0299397157
H   2.4308552338 -1.4084163127  1.1402145710
H   1.2656329356 -0.4437781763  2.0795460146
H   2.8295612389  1.3025901113 -0.8023206493
H   2.9507055488 -0.3634072555 -1.3803530082
22
Image 45  Energy = -383.5243545677
C  -0.8034262487 -0.9747610504  0.3458329789
C   1.3145924587  0.0371808644 -0.0377806788
C  -1.0367889745  1.5577898776  0.8622098007
C   1.9862907634 -0.4308417402  1.2407402620
C   2.2721641513  0.4282423452 -1.1366803525
N   0.3174644238 -0.9242662247 -0.5140562103
N  -1.9829937821 -1.4440953888 -0.2466378939
O  -1.6452030486  1.6347466343 -0.3942635281
H  -2.2252890102  0.8631767233 -0.4534370124
H   0.0260512435 -0.6800047031 -1.4571490291
H  -0.5863251270 -1.4648724510  1.3207588531
H   0.7090106391  0.8862165050  0.2535399246
H  -2.5767695246 -2.0811581150  0.2579199940
H  -2.0580372940 -1.5168292908 -1.2518623813
H  -0.3992889841  2.4470671576  0.9937298992
H  -1.6907021051  1.3614401195  1.7125885404
H   2.7601337598  0.2857483272  1.5172918425
H   1.7225941671  0.7281526987 -2.0323309147
H   2.4383978998 -1.4176470555  1.1354862877
H   1.2682369017 -0.4514851939  2.0638097265
H   2.8464665031  1.2948217106 -0.8089955757
H   2.9633297867 -0.3749819883 -1.3922491986
22
Image 46  Energy = -383.5256879220
C  -0.7977360731 -0.9820457210  0.3487280755
C   1.3154061778  0.0340619762 -0.0391270112
C  -1.0402185864  1.5542196315  0.8599061459
C   1.9865280555 -0.4306529884  1.2406280630
C   2.2727233291  0.4282158326 -1.1369054295
N   0.3137757047 -0.9213229168 -0.5101394871
N  -1.9844372168 -1.4391484622 -0.2461558620
O  -1.6465482363  1.6358209897 -0.3922271441
H  -2.2254403998  0.8634842925 -0.4541215000
H   0.0264713187 -0.6797371172 -1.4567045912
H  -0.5884348893 -1.4602249897  1.3160634795
H   0.7097582903  0.8906629417  0.2537201896
H  -2.5755748518 -2.0804353834  0.2580078040
H  -2.0564874723 -1.5169045288 -1.2502699386
H  -0.3999469656  2.4425132575  0.9938827331
H  -1.6913140425  1.3623347653  1.7114036112
H   2.7606215440  0.2855169583  1.5174096679
H   1.7229446270  0.7278786504 -2.0324793945
H   2.4385364376 -1.4178719453  1.1352315271
H   1.2684489537 -0.4520451672  2.0634850854
H   2.8472136251  1.2945943949 -0.8092600916
H   2.9636192681 -0.3752747092 -1.3926106003
22
Image 47  Energy = -383.5264913018
C  -0.7945139257 -0.9873834669  0.3492648856
C   1.3155295415  0.0328361155 -0.0395626556
C  -1.0423851133  1.5509882011  0.8584806940
C   1.9868483105 -0.4307270914  1.2404409746
C   2.2732358997  0.4277941387 -1.1372747996
N   0.3113429069 -0.9186768834 -0.5077922339
N  -1.9855289286 -1.4343427152 -0.2447352486
O  -1.6483842339  1.6366479226 -0.3910831583
H  -2.2256628028  0.8637478768 -0.4549096871
H   0.0267759091 -0.6796764621 -1.4556779213
H  -0.5898563024 -1.4569208530  1.3137089771
H   0.7111395189  0.8939294408  0.2536154754
H  -2.5742724797 -2.0795781599  0.2579199141
H  -2.0548685963 -1.5170225052 -1.2490050057
H  -0.4007384058  2.4378342706  0.9940074009
H  -1.6922991058  1.3630755406  1.7105050943
H   2.7610746992  0.2853017110  1.5174863054
H   1.7232955377  0.7276211744 -2.0326415990
H   2.4386904424 -1.4180571506  1.1350472498
H   1.2686204671 -0.4525686054  2.0631681381
H   2.8478908392  1.2943471130 -0.8094568280
H   2.9639744201 -0.3755298467 -1.3930406395
22
Image 48  Energy = -383.5270961321
C  -0.7924926849 -0.9913383682  0.3489060430
C   1.3155276960  0.0325033198 -0.0396220991
C  -1.0439135543  1.5477916655  0.8575479778
C   1.9871548393 -0.4308688040  1.2402519638
C   2.2736672241  0.4272734644 -1.1376224136
N   0.3097159469 -0.9163423474 -0.5062382957
N  -1.9866458970 -1.4297709854 -0.2433846250
O  -1.6503973891  1.6374219027 -0.3904460839
H  -2.2260307556  0.8638771326 -0.4557776620
H   0.0269582341 -0.6796575353 -1.4545929930
H  -0.5908760718 -1.4543789787  1.3126664945
H   0.7127423744  0.8966374603  0.2534130313
H  -2.5729399357 -2.0786812878  0.2578156024
H  -2.0532137936 -1.5171295948 -1.2476767088
H  -0.4014953379  2.4332426538  0.9941305746
H  -1.6935224247  1.3637154271  1.7098000441
H   2.7614924766  0.2850783708  1.5175348751
H   1.7236466880  0.7273702745 -2.0328222593
H   2.4388633885 -1.4182489612  1.1348789026
H   1.2687888458 -0.4530706051  2.0628554436
H   2.8484951651  1.2940298633 -0.8096447227
H   2.9643835625 -0.3758143015 -1.3935077586
22
Image 49  Energy = -383.5276056788
C  -0.7911102206 -0.9942818372  0.3483020576
C   1.3155698201  0.0326211070 -0.0395240150
C  -1.0451022590  1.5445214969  0.8568774127
C   1.9874385499 -0.4310186806  1.2400798269
C   2.2740458592  0.4267433247 -1.1379254477
N   0.3086075907 -0.9142827464 -0.5051215002
N  -1.9878370647 -1.4254231339 -0.2422072399
O  -1.6524722084  1.6381652096 -0.3900879108
H  -2.2265294521  0.8638957077 -0.4567123184
H   0.0270439487 -0.6796203946 -1.4536202086
H  -0.5916602379 -1.4522750433  1.3123447267
H   0.7144075320  0.8990379705  0.2531819584
H  -2.5716040596 -2.0777666257  0.2577282824
H  -2.0515579180 -1.5172233979 -1.2463333541
H  -0.4021635185  2.4287888801  0.9942646817
H  -1.6949133581  1.3642816865  1.7092362155
H   2.7618804553  0.2848413967  1.5175672637
H   1.7239976262  0.7271213228 -2.0330139381
H   2.4390470018 -1.4184480466  1.1347060735
H   1.2689591614 -0.4535560774  2.0625526193
H   2.8490427149  1.2936473716 -0.8098416146
H   2.9648186331 -0.3761297269 -1.3939882392
22
Image 50  Energy = -383.5250026196
C  -0.7751896870 -1.0916960608  0.3265240874
C   1.3022520265  0.0402563704 -0.0325030337
C  -1.0105600221  1.5700823206  0.8441828560
C   1.9814947107 -0.4255538283  1.2444852185
C   2.2637316192  0.4310919677 -1.1322155002
N   0.3044554842 -0.9083545639 -0.5114214867
N  -2.0037169500 -1.4267318922 -0.2431223406
O  -1.6394751609  1.6394830659 -0.3907688439
H  -2.2192779738  0.8686538859 -0.4433793472
H   0.0257856267 -0.6831516084 -1.4611650585
H  -0.5984993779 -1.4401448775  1.3230718120
H   0.6882450885  0.9117381951  0.2764008888
H  -2.5866941186 -2.0881581936  0.2479891135
H  -2.0654450547 -1.5227644977 -1.2484046396
H  -0.3946626019  2.4631415883  0.9946974259
H  -1.6480856442  1.3441618821  1.6902880050
H   2.7608763403  0.2873931034  1.5192621034
H   1.7236681563  0.7295446326 -2.0344657848
H   2.4363944130 -1.4115023242  1.1355534464
H   1.2702039277 -0.4508751202  2.0736143117
H   2.8453267027  1.2956842008 -0.8106080762
H   2.9590807183 -0.3686583101 -1.3895498613
22
Image 51  Energy = -383.5253018412
C  -0.7756440388 -1.0881678712  0.3250024812
C   1.3018544608  0.0416032173 -0.0320256297
C  -1.0128781716  1.5686668873  0.8452371953
C   1.9817988482 -0.4258400272  1.2441756112
C   2.2642741869  0.4308665362 -1.1326265729
N   0.3050048530 -0.9088740928 -0.5113187379
N  -2.0050989950 -1.4246090851 -0.2432228287
O  -1.6404889479  1.6399329317 -0.3914634291
H  -2.2195373453  0.8683303304 -0.4438477785
H   0.0256374378 -0.6830093818 -1.4603336826
H  -0.5980493614 -1.4410803738  1.3247941109
H   0.6910813296  0.9115915796  0.2751906599
H  -2.5854362251 -2.0875641790  0.2476835453
H  -2.0640455618 -1.5231612791 -1.2470329538
H  -0.3951585628  2.4607235699  0.9943568567
H  -1.6495562183  1.3444784900  1.6908785936
H   2.7608856057  0.2871917005  1.5191300344
H   1.7237127164  0.7293195747 -2.0344046043
H   2.4364194632 -1.4117352991  1.1353197636
H   1.2703358370 -0.4512913388  2.0732312774
H   2.8455977042  1.2954655540 -0.8105639655
H   2.9591992090 -0.3691975082 -1.3896946516
22
Image 52  Energy = -383.5255408346
C  -0.7761748305 -1.0851859207  0.3250826681
C   1.3020226584  0.0422928086 -0.0318811186
C  -1.0149866698  1.5673412195  0.8457581652
C   1.9820150574 -0.4260212980  1.2439255795
C   2.2646986272  0.4306718883 -1.1328792909
N   0.3055787250 -0.9092031726 -0.5113270689
N  -2.0060883482 -1.4222440494 -0.2430884478
O  -1.6415058951  1.6402622235 -0.3918439481
H  -2.2198182956  0.8680566938 -0.4443881039
H   0.0255310819 -0.6828281829 -1.4596756833
H  -0.5978174507 -1.4415939655  1.3254172201
H   0.6935485326  0.9118675497  0.2741252396
H  -2.5842940717 -2.0870911766  0.2475034087
H  -2.0627523579 -1.5236020145 -1.2461429582
H  -0.3956269539  2.4582700287  0.9940800088
H  -1.6512659892  1.3447335470  1.6916481805
H   2.7609292028  0.2869950751  1.5190198606
H   1.7237664430  0.7291072291 -2.0343828970
H   2.4364509883 -1.4119816409  1.1350394741
H   1.2704913250 -0.4517090125  2.0728542534
H   2.8458961684  1.2952478482 -0.8105543438
H   2.9593102763 -0.3697457423 -1.3898249033
22
Image 53  Energy = -383.5257648018
C  -0.7766426393 -1.0823972508  0.3256379407
C   1.3024305592  0.0426364987 -0.0319149045
C  -1.0169983948  1.5660320468  0.8460480527
C   1.9822204317 -0.4261768013  1.2437009280
C   2.2651069086  0.4304760086 -1.1330810037
N   0.3060497602 -0.9094476874 -0.5112003633
N  -2.0069021336 -1.4198068352 -0.2427875493
O  -1.6425317476  1.6405207008 -0.3920398583
H  -2.2201361900  0.8677931625 -0.4449862506
H   0.0254307434 -0.6826091832 -1.4591465610
H  -0.5976813184 -1.4419396318  1.3256434275
H   0.6958013053  0.9123611814  0.2731413263
H  -2.5831971900 -2.0866398386  0.2473692375
H  -2.0614921234 -1.5240509765 -1.2454777079
H  -0.3960555576  2.4558109397  0.9938475631
H  -1.6530772924  1.3449612351  1.6924463295
H   2.7610006035  0.2868045994  1.5189290907
H   1.7238305709  0.7289005268 -2.0343756707
H   2.4364825428 -1.4122180943  1.1347371013
H   1.2706443246 -0.4521226307  2.0724907342
H   2.8462154391  1.2950303588 -0.8105686526
H   2.9594096208 -0.3702783921 -1.3899479165
22
Image 54  Energy = -383.5259824736
C  -0.7770503812 -1.0796972794  0.3263571763
C   1.3029388489  0.0427981538 -0.0320321892
C  -1.0189409064  1.5647024499  0.8462443496
C   1.9824364251 -0.4263285812  1.2434905863
C   2.2655241243  0.4302654257 -1.1332753874
N   0.3064135345 -0.9096215383 -0.5109793558
N  -2.0076156109 -1.4173518645 -0.2424153642
O  -1.6435804715  1.6407321880 -0.3921289581
H  -2.2204935193  0.8675270636 -0.4456330496
H   0.0253373432 -0.6823709025 -1.4586742260
H  -0.5975977783 -1.4421968006  1.3257033434
H   0.6979159179  0.9129645964  0.2722064954
H  -2.5821223563 -2.0861817134  0.2472630029
H  -2.0602390867 -1.5244900776 -1.2449002822
H  -0.3964467397  2.4533530721  0.9936502194
H  -1.6549355606  1.3451769125  1.6932175291
H   2.7610955123  0.2866191278  1.5188548618
H   1.7239068789  0.7286962445 -2.0343733287
H   2.4365165892 -1.4124441776  1.1344238171
H   1.2707890759 -0.4525300982  2.0721379421
H   2.8465509786  1.2948113685 -0.8106003700
H   2.9595054029 -0.3707936330 -1.3900715213
22
Image 55  Energy = -383.5258488048
C  -0.7763982621 -1.1120051247  0.3365158795
C   1.2995606089  0.0425184007 -0.0325449438
C  -1.0886855354  1.6749952118  0.8599839184
C   1.9879075889 -0.4323370729  1.2401079476
C   2.2697144369  0.4246709647 -1.1343687421
N   0.3200428983 -0.9360556994 -0.5178054074
N  -2.0268709200 -1.4169955929 -0.2458525800
O  -1.6482491394  1.6538221885 -0.3754976333
H  -2.1982864784  0.8565004219 -0.4287329271
H   0.0236279066 -0.6828290108 -1.4553895835
H  -0.5941895255 -1.5131193092  1.3240748847
H   0.7578349929  0.9403203798  0.2473710080
H  -2.5813984980 -2.1083898784  0.2358137704
H  -2.0500231692 -1.5495928751 -1.2440706174
H  -0.4117724177  2.5157420288  0.9996535777
H  -1.6928130609  1.3759556973  1.7021360697
H   2.7677190028  0.2784244158  1.5192314043
H   1.7306949146  0.7238692703 -2.0362849340
H   2.4408662148 -1.4190762628  1.1295853160
H   1.2732072317 -0.4641853645  2.0640914941
H   2.8546461830  1.2866094369 -0.8134128342
H   2.9627748785 -0.3752022285 -1.3961393506
22
Image 56  Energy = -383.5262128280
C  -0.7768448772 -1.1116995599  0.3355385198
C   1.3032912727  0.0409245764 -0.0336812623
C  -1.0877688067  1.6747253803  0.8634746400
C   1.9877614382 -0.4322744913  1.2397488300
C   2.2703607386  0.4240030975 -1.1348111118
N   0.3182525818 -0.9345317478 -0.5156366300
N  -2.0256102678 -1.4137657397 -0.2438959097
O  -1.6508175792  1.6534584568 -0.3791526755
H  -2.1982490905  0.8566411761 -0.4289194361
H   0.0234663960 -0.6827906208 -1.4547369445
H  -0.5941585518 -1.5133691173  1.3232850138
H   0.7567078046  0.9416489324  0.2474926647
H  -2.5808066644 -2.1081776742  0.2355331615
H  -2.0488967054 -1.5506087659 -1.2446741207
H  -0.4128560579  2.5145575826  0.9994285017
H  -1.6940729130  1.3759990231  1.7029528350
H   2.7676897710  0.2782805896  1.5191488934
H   1.7306353952  0.7237469491 -2.0363752506
H   2.4407538440 -1.4191229304  1.1289449991
H   1.2733816157 -0.4645946922  2.0641968731
H   2.8550019270  1.2865459978 -0.8133362124
H   2.9626885803 -0.3759564234 -1.3960596636
22
Image 57  Energy = -383.5263804967
C  -0.7768475968 -1.1112650143  0.3355054570
C   1.3053754764  0.0404201579 -0.0341554378
C  -1.0878157288  1.6738636508  0.8647313820
C   1.9879054632 -0.4323839544  1.2395123766
C   2.2711586538  0.4234505867 -1.1354162034
N   0.3169947412 -0.9329655880 -0.5142879533
N  -2.0253169186 -1.4112527243 -0.2432153356
O  -1.6521491473  1.6537315786 -0.3808535785
H  -2.1986184993  0.8562254151 -0.4291568743
H   0.0233532087 -0.6828050390 -1.4539185672
H  -0.5941567786 -1.5135284365  1.3224414345
H   0.7562326846  0.9421276392  0.2473477438
H  -2.5799450836 -2.1076462994  0.2352014868
H  -2.0477171183 -1.5513865224 -1.2443698567
H  -0.4136426657  2.5138069866  0.9993385111
H  -1.6954408642  1.3760604949  1.7039208531
H   2.7676708161  0.2781221312  1.5190791683
H   1.7306068278  0.7235887828 -2.0364147068
H   2.4406731006 -1.4191677191  1.1283754105
H   1.2735246412 -0.4649689750  2.0641950570
H   2.8553159238  1.2863656597 -0.8133045237
H   2.9627487177 -0.3767528136 -1.3960901289
22
Image 58  Energy = -383.5265068056
C  -0.7767958116 -1.1106878431  0.3356937368
C   1.3066874249  0.0403441472 -0.0343872499
C  -1.0882058818  1.6728212086  0.8652556057
C   1.9881260479 -0.4325332196  1.2393486317
C   2.2719266687  0.4229844324 -1.1359956822
N   0.3161123363 -0.9314488608 -0.5132350420
N  -2.0253664381 -1.4090290019 -0.2428516364
O  -1.6531731729  1.6539920250 -0.3817739809
H  -2.1990147415  0.8558022927 -0.4294340908
H   0.0232177560 -0.6828017770 -1.4531464978
H  -0.5941409023 -1.5137097175  1.3217419269
H   0.7560642618  0.9422938712  0.2471087375
H  -2.5789971238 -2.1069779391  0.2348607278
H  -2.0465124005 -1.5520741578 -1.2438682281
H  -0.4143591030  2.5131515812  0.9993053769
H  -1.6967856317  1.3761702915  1.7048073438
H   2.7676839913  0.2779646519  1.5190289308
H   1.7306063939  0.7234113999 -2.0364482679
H   2.4406301458 -1.4192468384  1.1278368205
H   1.2736704694 -0.4653261948  2.0641231250
H   2.8556300978  1.2861244302 -0.8133152578
H   2.9629054690 -0.3775847845 -1.3961893169
22
Image 59  Energy = -383.5266172340
C  -0.7767650554 -1.1099941068  0.3359543206
C   1.3076123466  0.0404489754 -0.0345167153
C  -1.0887344813  1.6717298519  0.8655152219
C   1.9883603723 -0.4326821353  1.2392198112
C   2.2726239123  0.4225645702 -1.1365068679
N   0.3154635470 -0.9300180372 -0.5123447119
N  -2.0255392206 -1.4069383583 -0.2425985696
O  -1.6541022061  1.6541653930 -0.3823075653
H  -2.1993965879  0.8554291199 -0.4297455995
H   0.0230588126 -0.6827682400 -1.4524512819
H  -0.5941101128 -1.5139219564  1.3211836780
H   0.7560560474  0.9423589432  0.2468426737
H  -2.5780391042 -2.1062586000  0.2345432194
H  -2.0452969819 -1.5527129109 -1.2433360789
H  -0.4150746639  2.5124872312  0.9992979684
H  -1.6980823466  1.3763247689  1.7055720417
H   2.7677307214  0.2778115798  1.5189980697
H   1.7306320823  0.7232219026 -2.0364882569
H   2.4406173267 -1.4193565808  1.1273146346
H   1.2738222747 -0.4656738762  2.0640095504
H   2.8559587427  1.2858491721 -0.8133612371
H   2.9631144277 -0.3784267089 -1.3963285949
22
Image 60  Energy = -383.5249533831
C  -0.7652911901 -1.1856776700  0.3223544926
C   1.3000119794  0.0401553920 -0.0321583116
C  -1.0814848868  1.7446741822  0.8707454004
C   1.9845960997 -0.4328470461  1.2395281785
C   2.2673877085  0.4232606841 -1.1339449844
N   0.3150093630 -0.9359153969 -0.5170912733
N  -2.0308978211 -1.4301885685 -0.2504050939
O  -1.6362558329  1.6614299083 -0.3812237115
H  -2.1748614469  0.8563482115 -0.4053541982
H   0.0211680686 -0.6878962066 -1.4554267138
H  -0.5909812893 -1.5454453370  1.3176405622
H   0.7420658202  0.9440601179  0.2552414188
H  -2.5893685109 -2.1259514044  0.2223050189
H  -2.0559679528 -1.5680542459 -1.2495013134
H  -0.4273758655  2.5907172595  0.9998907606
H  -1.6744469933  1.3907266413  1.7052115747
H   2.7647503405  0.2775671238  1.5176040122
H   1.7285134187  0.7237188116 -2.0359918230
H   2.4388239501 -1.4184901752  1.1262772491
H   1.2734372680 -0.4671180942  2.0672119030
H   2.8519170563  1.2860116965 -0.8110336028
H   2.9591608248 -0.3774458774 -1.3934137724
22
Image 61  Energy = -383.5251450283
C  -0.7662634950 -1.1836273682  0.3213768731
C   1.2996776213  0.0412513504 -0.0317724210
C  -1.0852872023  1.7421413110  0.8705423720
C   1.9848414904 -0.4330980652  1.2394790928
C   2.2678080012  0.4230382923 -1.1342579734
N   0.3153055169 -0.9353176200 -0.5168250580
N  -2.0303882169 -1.4277106500 -0.2492732273
O  -1.6359099712  1.6617753888 -0.3804969491
H  -2.1748674321  0.8560431700 -0.4052885727
H   0.0208826744 -0.6879001028 -1.4548254144
H  -0.5905282767 -1.5466887015  1.3183552520
H   0.7429730292  0.9431224533  0.2545234348
H  -2.5887738107 -2.1257056890  0.2220397477
H  -2.0548729733 -1.5690566028 -1.2499593363
H  -0.4273868192  2.5916618591  0.9997745069
H  -1.6742939407  1.3914184337  1.7052148346
H   2.7647535603  0.2774725584  1.5175514300
H   1.7285003086  0.7235090148 -2.0359820663
H   2.4387825016 -1.4186443625  1.1257307309
H   1.2735659606 -0.4674948769  2.0670650246
H   2.8521747879  1.2857294492 -0.8110630860
H   2.9592167960 -0.3782792373 -1.3934434234
22
Image 62  Energy = -383.5252472337
C  -0.7665786694 -1.1817783186  0.3216157649
C   1.2997610823  0.0418217029 -0.0316016731
C  -1.0872721737  1.7411850070  0.8704927325
C   1.9850042539 -0.4332414789  1.2394137243
C   2.2681381874  0.4228106163 -1.1344571781
N   0.3154612020 -0.9347870802 -0.5166144314
N  -2.0305361320 -1.4256366018 -0.2490604752
O  -1.6361497364  1.6616600254 -0.3802240018
H  -2.1748049298  0.8559365861 -0.4053624124
H   0.0206384445 -0.6878527284 -1.4543519863
H  -0.5902119217 -1.5476718448  1.3183928858
H   0.7436322015  0.9426386285  0.2539561074
H  -2.5880192967 -2.1252649209  0.2217569571
H  -2.0537617410 -1.5699152769 -1.2498449137
H  -0.4281283839  2.5915773097  0.9995937565
H  -1.6747064486  1.3917947032  1.7057113585
H   2.7647826955  0.2773737842  1.5175189697
H   1.7285044025  0.7233025833 -2.0359936070
H   2.4387513537 -1.4188153695  1.1251650799
H   1.2737075032 -0.4678770866  2.0669285529
H   2.8524628444  1.2854544615 -0.8111171073
H   2.9592353719 -0.3790746974 -1.3934523316
22
Image 63  Energy = -383.5253361959
C  -0.7667506884 -1.1800115882  0.3221236562
C   1.3000215294  0.0421269229 -0.0315543339
C  -1.0886714326  1.7407002535  0.8705378374
C   1.9851472150 -0.4333553071  1.2393349709
C   2.2684450599  0.4225688427 -1.1346132685
N   0.3155436574 -0.9343058820 -0.5163412419
N  -2.0308214406 -1.4237275481 -0.2489980262
O  -1.6365233832  1.6615090643 -0.3801060670
H  -2.1748110061  0.8557661508 -0.4054947591
H   0.0204019417 -0.6877668355 -1.4539622222
H  -0.5899433216 -1.5485751218  1.3182415420
H   0.7441661926  0.9424028262  0.2534739862
H  -2.5872135672 -2.1247272779  0.2214655688
H  -2.0526371468 -1.5707201755 -1.2496232765
H  -0.4290609714  2.5912055834  0.9994018268
H  -1.6753050608  1.3920687389  1.7063287144
H   2.7648308765  0.2772724469  1.5175011465
H   1.7285246761  0.7230945503 -2.0360088803
H   2.4387232082 -1.4189781441  1.1245976293
H   1.2738486750 -0.4682591955  2.0668000774
H   2.8527706089  1.2851789338 -0.8111895684
H   2.9592244885 -0.3798272340 -1.3934495398
22
Image 64  Energy = -383.5254201200
C  -0.7669020508 -1.1782995543  0.3226967611
C   1.3003478534  0.0423061068 -0.0315651844
C  -1.0898497471  1.7403626701  0.8706416610
C   1.9852903193 -0.4334626986  1.2392473690
C   2.2687468931  0.4223132225 -1.1347559053
N   0.3155733919 -0.9338586868 -0.5160377993
N  -2.0311092715 -1.4219049544 -0.2489619393
O  -1.6369445203  1.6613713266 -0.3800452179
H  -2.1748752108  0.8555302997 -0.4056592759
H   0.0201737727 -0.6876571909 -1.4536107874
H  -0.5897003997 -1.5494415872  1.3180219568
H   0.7446385396  0.9423069626  0.2530429285
H  -2.5863999455 -2.1241407719  0.2211849132
H  -2.0515019537 -1.5714890921 -1.2493745425
H  -0.4300281340  2.5907622293  0.9992178779
H  -1.6759773950  1.3923044838  1.7069592399
H   2.7648938362  0.2771680121  1.5174942694
H   1.7285606082  0.7228830007 -2.0360218687
H   2.4386988806 -1.4191302330  1.1240353875
H   1.2739868815 -0.4686390991  2.0666745420
H   2.8530922511  1.2848987512 -0.8112762564
H   2.9591955131 -0.3805431933 -1.3934423589
22
Image 65  Energy = -383.5253290200
C  -0.7582277086 -1.2400200855  0.3178942950
C   1.2979015637  0.0417121802 -0.0313308834
C  -1.1273433506  1.8469063563  0.8851525928
C   1.9852629751 -0.4379202092  1.2362833180
C   2.2697269789  0.4173040119 -1.1353501672
N   0.3204853137 -0.9460595824 -0.5182776115
N  -2.0394527789 -1.4278667786 -0.2542281103
O  -1.6259357844  1.6751311911 -0.3731614852
H  -2.1398916338  0.8504107038 -0.3752441380
H   0.0153317401 -0.6921406661 -1.4499241064
H  -0.5825194136 -1.6196421087  1.3084287727
H   0.7591541728  0.9520707543  0.2455696194
H  -2.5891084643 -2.1473531761  0.2015737241
H  -2.0469132050 -1.6046769710 -1.2537152448
H  -0.4604689635  2.6888027487  0.9998080720
H  -1.6771889475  1.4275912683  1.7185422580
H   2.7643841601  0.2721994926  1.5154509659
H   1.7290065184  0.7192745180 -2.0358204645
H   2.4383229025 -1.4229418041  1.1157438981
H   1.2757357810 -0.4788089209  2.0643580256
H   2.8548822501  1.2789359504 -0.8101531592
H   2.9567669910 -0.3892688939 -1.3931342083
22
Image 66  Energy = -383.5254220651
C  -0.7581295347 -1.2382366987  0.3172473561
C   1.2982229443  0.0415811314 -0.0312980561
C  -1.1292432313  1.8455160178  0.8853815894
C   1.9853500202 -0.4379794271  1.2362803349
C   2.2697932007  0.4169624642 -1.1353403057
N   0.3197548514 -0.9454774499 -0.5174910790
N  -2.0391921512 -1.4270768189 -0.2545255599
O  -1.6262267656  1.6746170138 -0.3726459133
H  -2.1396002618  0.8506603802 -0.3752949892
H   0.0150872205 -0.6920825686 -1.4497213603
H  -0.5821936162 -1.6206407526  1.3083959615
H   0.7587721771  0.9519346954  0.2454186474
H  -2.5882926931 -2.1462017165  0.2015237825
H  -2.0457149605 -1.6050155462 -1.2531574126
H  -0.4614830965  2.6888883179  0.9996930028
H  -1.6766936304  1.4284965684  1.7183165386
H   2.7645402772  0.2721401171  1.5155330855
H   1.7291230544  0.7190468253 -2.0358766536
H   2.4383414326 -1.4230763861  1.1151242867
H   1.2758138690 -0.4791601229  2.0643237401
H   2.8552585013  1.2785883707 -0.8103381240
H   2.9566234895 -0.3898444349 -1.3930829092
22
Image 67  Energy = -383.5254902401
C  -0.7582230892 -1.2367018170  0.3173726701
C   1.2984219019  0.0415602449 -0.0312116885
C  -1.1303139561  1.8448506634  0.8854212381
C   1.9854725580 -0.4380643536  1.2362783299
C   2.2698843711  0.4166281815 -1.1353635914
N   0.3192920488 -0.9448120446 -0.5171227605
N  -2.0388712235 -1.4261699510 -0.2547654790
O  -1.6265135424  1.6742747828 -0.3723117678
H  -2.1395119707  0.8506198343 -0.3753950705
H   0.0148906741 -0.6920423905 -1.4494588254
H  -0.5819322314 -1.6214919280  1.3080081606
H   0.7584563251  0.9517717206  0.2452686205
H  -2.5875482956 -2.1451402823  0.2015463132
H  -2.0445515473 -1.6053836096 -1.2528195252
H  -0.4627362871  2.6886411755  0.9995627856
H  -1.6765835293  1.4291166280  1.7185127266
H   2.7646840841  0.2720642328  1.5156114308
H   1.7292433187  0.7188117381 -2.0359194801
H   2.4383586728 -1.4231891279  1.1145263902
H   1.2758930365 -0.4795096992  2.0642849293
H   2.8556183295  1.2782168521 -0.8105239658
H   2.9564814479 -0.3904108712 -1.3930354756
22
Image 68  Energy = -383.5255525359
C  -0.7583612903 -1.2352376336  0.3177152251
C   1.2985659615  0.0415941020 -0.0311333238
C  -1.1310912836  1.8443998244  0.8854324308
C   1.9856007406 -0.4381600974  1.2362728990
C   2.2699871350  0.4163121896 -1.1353927259
N   0.3189468355 -0.9441680758 -0.5168205784
N  -2.0385484769 -1.4252297689 -0.2549453264
O  -1.6268143253  1.6740144435 -0.3720985724
H  -2.1395198677  0.8504389758 -0.3755148150
H   0.0146953581 -0.6919802238 -1.4492357470
H  -0.5816909528 -1.6223035123  1.3075358601
H   0.7581843110  0.9516195747  0.2451302231
H  -2.5868546820 -2.1441189238  0.2016046195
H  -2.0433987044 -1.6057627789 -1.2526039895
H  -0.4640015938  2.6883564019  0.9994350234
H  -1.6766416628  1.4296111047  1.7188670443
H   2.7648210631  0.2719762766  1.5156879354
H   1.7293653866  0.7185715861 -2.0359557298
H   2.4383785618 -1.4232912593  1.1139449884
H   1.2759774505 -0.4798591375  2.0642430652
H   2.8559705323  1.2778303922 -0.8107125346
H   2.9563405991 -0.3909734803 -1.3929900063
22
Image 69  Energy = -383.5256118133
C  -0.7585054873 -1.2337985228  0.3181314442
C   1.2986859810  0.0416590593 -0.0310676453
C  -1.1317467994  1.8440103738  0.8854508566
C   1.9857261903 -0.4382574593  1.2362602755
C   2.2700946081  0.4160100788 -1.1354237185
N   0.3186604593 -0.9435611303 -0.5165349027
N  -2.0382380235 -1.4242834615 -0.2550993638
O  -1.6271389500  1.6737881506 -0.3719610051
H  -2.1395768097  0.8501869799 -0.3756457961
H   0.0144995957 -0.6918966596 -1.4490433868
H  -0.5814581396 -1.6231039154  1.3070514948
H   0.7579452429  0.9514910824  0.2450056486
H  -2.5862034033 -2.1431228374  0.2016881391
H  -2.0422506160 -1.6061426773 -1.2524512696
H  -0.4652213826  2.6881100324  0.9993146806
H  -1.6767924582  1.4300366819  1.7192866197
H   2.7649531924  0.2718780213  1.5157634698
H   1.7294890198  0.7183280367 -2.0359884056
H   2.4384020291 -1.4233870950  1.1133772910
H   1.2760671715 -0.4802088482  2.0641991277
H   2.8563202621  1.2774362126 -0.8109025878
H   2.9561994127 -0.3915321237 -1.3929450004
22
Image 70  Energy = -383.5254969603
C  -0.7558739021 -1.2519392585  0.3159990595
C   1.2970309105  0.0399152603 -0.0311422423
C  -1.1391155373  1.8832683642  0.8914911124
C   1.9849461545 -0.4399330505  1.2353500285
C   2.2692353674  0.4145559585 -1.1349722040
N   0.3198398120 -0.9484782057 -0.5179834064
N  -2.0356906732 -1.4371326850 -0.2599955542
O  -1.6190188371  1.6776844535 -0.3696115709
H  -2.1246645396  0.8493849505 -0.3627994149
H   0.0127332873 -0.6940767857 -1.4488809156
H  -0.5770633792 -1.6503079946  1.3010800326
H   0.7547448664  0.9487696823  0.2442787812
H  -2.5885819317 -2.1507966394  0.1958699416
H  -2.0430045251 -1.6163080733 -1.2557976837
H  -0.4790541133  2.7306977509  0.9990177407
H  -1.6725089641  1.4463108297  1.7245855365
H   2.7636131979  0.2707615396  1.5146946756
H   1.7286167866  0.7173619983 -2.0353308106
H   2.4379160661 -1.4247230652  1.1107799451
H   1.2758640625 -0.4828661126  2.0635445355
H   2.8554995555  1.2757756891 -0.8098355704
H   2.9544477152 -0.3942846717 -1.3918760061
22
Image 71  Energy = -383.5255749396
C  -0.7559024925 -1.2505536497  0.3160967292
C   1.2969237055  0.0400009924 -0.0310081739
C  -1.1408064720  1.8818331542  0.8910472607
C   1.9850548373 -0.4400430438  1.2353574595
C   2.2692549466  0.4142747908 -1.1349710734
N   0.3194751270 -0.9480074136 -0.5176856810
N  -2.0352808561 -1.4357546620 -0.2595759965
O  -1.6190081055  1.6776919194 -0.3687879875
H  -2.1245700312  0.8492601417 -0.3628076769
H   0.0125643362 -0.6940130741 -1.4486630237
H  -0.5768366874 -1.6511207065  1.3005924683
H   0.7545522656  0.9487617555  0.2441843934
H  -2.5881398493 -2.1501137533  0.1961939765
H  -2.0417507707 -1.6167843925 -1.2562930290
H  -0.4800441743  2.7307844389  0.9989011587
H  -1.6721249256  1.4471209567  1.7245727063
H   2.7637632936  0.2706517205  1.5147797116
H   1.7287657074  0.7171052680 -2.0353857888
H   2.4379581187 -1.4248044181  1.1102480007
H   1.2759423344 -0.4832431572  2.0635298452
H   2.8558567441  1.2753573107 -0.8100354024
H   2.9542643287 -0.3947642435 -1.3918238673
22
Image 72  Energy = -383.5256349224
C  -0.7559146821 -1.2492404112  0.3164465310
C   1.2968681156  0.0400987653 -0.0308983043
C  -1.1417084364  1.8811181576  0.8908371568
C   1.9851484181 -0.4401415233  1.2353563760
C   2.2692724492  0.4139970184 -1.1349631166
N   0.3192045043 -0.9475297324 -0.5174587643
N  -2.0350666702 -1.4345600145 -0.2595620105
O  -1.6192661511  1.6775129452 -0.3683859753
H  -2.1244937234  0.8491360773 -0.3628722758
H   0.0123960549 -0.6939359384 -1.4484747235
H  -0.5766123605 -1.6518994284  1.3000502074
H   0.7543703739  0.9487790336  0.2441081698
H  -2.5876300466 -2.1493321426  0.1964783747
H  -2.0405090899 -1.6171871614 -1.2564374572
H  -0.4812632987  2.7305451309  0.9987636505
H  -1.6720147141  1.4477099380  1.7248209506
H   2.7639030329  0.2705317226  1.5148609833
H   1.7289107544  0.7168497256 -2.0354422904
H   2.4380019066 -1.4248831159  1.1097242034
H   1.2760287735 -0.4836207900  2.0635153773
H   2.8562081013  1.2749369392 -0.8102323384
H   2.9540780685 -0.3952452600 -1.3917687118
22
Image 73  Energy = -383.5256903184
C  -0.7559676620 -1.2479539926  0.3168377729
C   1.2968471690  0.0402077606 -0.0308097629
C  -1.1423467453  1.8806126153  0.8907311161
C   1.9852339856 -0.4402343236  1.2353462168
C   2.2692955275  0.4137264519 -1.1349552107
N   0.3189870618 -0.9470629601 -0.5172400148
N  -2.0349107987 -1.4334652922 -0.2596457985
O  -1.6195978361  1.6773312255 -0.3681689187
H  -2.1244728038  0.8489350455 -0.3629584481
H   0.0122243617 -0.6938426533 -1.4483126234
H  -0.5763849526 -1.6526762125  1.2995246014
H   0.7542026086  0.9488153938  0.2440452611
H  -2.5870948433 -2.1484905500  0.1967287795
H  -2.0392793556 -1.6175641047 -1.2564648226
H  -0.4824916517  2.7302734416  0.9986236960
H  -1.6720306266  1.4481954368  1.7251700802
H   2.7640342916  0.2704033702  1.5149397535
H   1.7290524835  0.7165949178 -2.0354982430
H   2.4380459251 -1.4249566426  1.1092086016
H   1.2761206687 -0.4839983664  2.0635014466
H   2.8565558850  1.2745163374 -0.8104270903
H   2.9538886878 -0.3957269638 -1.3917103770
22
Image 74  Energy = -383.5257433005
C  -0.7560555005 -1.2466843080  0.3172354805
C   1.2968492663  0.0403279731 -0.0307346088
C  -1.1428790376  1.8801715465  0.8906753414
C   1.9853149940 -0.4403232953  1.2353276855
C   2.2693264256  0.4134627840 -1.1349514560
N   0.3187975252 -0.9466108534 -0.5170265957
N  -2.0347677647 -1.4324295022 -0.2597584732
O  -1.6199634726  1.6771612563 -0.3680420382
H  -2.1244928427  0.8486758420 -0.3630574948
H   0.0120530750 -0.6937355188 -1.4481648572
H  -0.5761573109 -1.6534538202  1.2990202132
H   0.7540509992  0.9488667498  0.2439925988
H  -2.5865588848 -2.1476175379  0.1969586292
H  -2.0380629544 -1.6179288105 -1.2564430732
H  -0.4836758132  2.7300416570  0.9984876506
H  -1.6721225202  1.4486184294  1.7255640021
H   2.7641588028  0.2702681667  1.5150169351
H   1.7291913911  0.7163409149 -2.0355531337
H   2.4380898169 -1.4250247439  1.1087007801
H   1.2762166645 -0.4843753772  2.0634873060
H   2.8569019078  1.2740973380 -0.8106196996
H   2.9536966131 -0.3962089559 -1.3916491745
22
Image 75  Energy = -383.5260397796
C  -0.7502003137 -1.2800277667  0.3166100719
C   1.2930797950  0.0373167334 -0.0301429341
C  -1.1784681922  1.9775470055  0.9050818351
C   1.9851462991 -0.4460073816  1.2325602117
C   2.2684180438  0.4062171561 -1.1342494431
N   0.3201752694 -0.9558960225 -0.5181145447
N  -2.0294842111 -1.4479321494 -0.2705794572
O  -1.6054493211  1.6867532247 -0.3575861856
H  -2.0866164727  0.8432227050 -0.3317344496
H   0.0058366625 -0.6978737889 -1.4451094445
H  -0.5632523820 -1.7342900868  1.2792595939
H   0.7527307504  0.9474614626  0.2384803692
H  -2.5862882393 -2.1597019644  0.1845323658
H  -2.0245676532 -1.6496909598 -1.2653446250
H  -0.5304688005  2.8348606040  0.9970826397
H  -1.6668375996  1.4961761158  1.7420773739
H   2.7633645538  0.2650867264  1.5134290278
H   1.7296375368  0.7106392225 -2.0349698866
H   2.4379751115 -1.4297103205  1.0962617717
H   1.2771849873 -0.4964064443  2.0608950657
H   2.8599986012  1.2645268625 -0.8106222002
H   2.9479978310 -0.4086310916 -1.3893509669
22
Image 76  Energy = -383.5261178947
C  -0.7501954606 -1.2790499210  0.3167182844
C   1.2931526426  0.0372914808 -0.0301594202
C  -1.1801419005  1.9755610339  0.9044632893
C   1.9851164875 -0.4460589895  1.2325265316
C   2.2683512352  0.4059874840 -1.1342460431
N   0.3198594496 -0.9555140569 -0.5176512535
N  -2.0290901466 -1.4472181896 -0.2706062729
O  -1.6054632041  1.6868381317 -0.3566641081
H  -2.0863153521  0.8434025223 -0.3315548392
H   0.0056903753 -0.6977473073 -1.4449930988
H  -0.5631005938 -1.7347967202  1.2783005189
H   0.7523581859  0.9477390317  0.2386569911
H  -2.5859876727 -2.1588100931  0.1849582296
H  -2.0233197163 -1.6498659739 -1.2652349158
H  -0.5314504808  2.8348812416  0.9968628504
H  -1.6661687112  1.4971681696  1.7418588660
H   2.7634498778  0.2648705412  1.5135167767
H   1.7297884058  0.7103837915 -2.0350784922
H   2.4380460889 -1.4296801817  1.0958748280
H   1.2772955619 -0.4968231677  2.0609767276
H   2.8603235337  1.2640710988 -0.8108108176
H   2.9477136500 -0.4089900847 -1.3892484424
22
Image 77  Energy = -383.5261722218
C  -0.7502442462 -1.2780828496  0.3169042985
C   1.2931408950  0.0373957378 -0.0301068964
C  -1.1808912937  1.9745593150  0.9040991011
C   1.9851090571 -0.4461223948  1.2324985154
C   2.2683018243  0.4057590553 -1.1342573520
N   0.3196185795 -0.9550969352 -0.5173800066
N  -2.0287661531 -1.4465370974 -0.2706640791
O  -1.6057195340  1.6867433799 -0.3562458820
H  -2.0860911189  0.8434822279 -0.3314523277
H   0.0055684801 -0.6976359795 -1.4448236330
H  -0.5629350435 -1.7353312474  1.2774324739
H   0.7520650881  0.9479326696  0.2388092256
H  -2.5856709410 -2.1578871879  0.1853544623
H  -2.0220983877 -1.6500462866 -1.2651195984
H  -0.5327204894  2.8344960631  0.9966230204
H  -1.6658190645  1.4978502390  1.7419836787
H   2.7635294536  0.2646584687  1.5136031342
H   1.7299311402  0.7101320517 -2.0351873224
H   2.4381160477 -1.4296532054  1.0954927838
H   1.2774042890 -0.4972341302  2.0610482400
H   2.8606429012  1.2636221455 -0.8109936153
H   2.9474407696 -0.4093641976 -1.3891520303
22
Image 78  Energy = -383.5262202185
C  -0.7503157711 -1.2771138451  0.3171098769
C   1.2930998801  0.0375532640 -0.0300335791
C  -1.1813387471  1.9738528866  0.9038609618
C   1.9851083751 -0.4461885960  1.2324738672
C   2.2682601151  0.4055406326 -1.1342693284
N   0.3194257166 -0.9546760023 -0.5171675147
N  -2.0284781458 -1.4458725264 -0.2707371830
O  -1.6060390397  1.6866517820 -0.3560548889
H  -2.0859520818  0.8434312320 -0.3313835100
H   0.0054501025 -0.6975170272 -1.4446620305
H  -0.5627571150 -1.7358910144  1.2766453175
H   0.7518176494  0.9480926218  0.2389508888
H  -2.5853568210 -2.1569541277  0.1857315115
H  -2.0209031813 -1.6502333519 -1.2650083087
H  -0.5340010577  2.8340819864  0.9963819471
H  -1.6656149472  1.4983898419  1.7422420634
H   2.7636062419  0.2644513499  1.5136895828
H   1.7300670715  0.7098839382 -2.0352964251
H   2.4381851321 -1.4296309677  1.0951123483
H   1.2775135161 -0.4976408216  2.0611122757
H   2.8609600686  1.2631810399 -0.8111735312
H   2.9471752936 -0.4097524533 -1.3890581520
22
Image 79  Energy = -383.5262649077
C  -0.7503954105 -1.2761447083  0.3173292984
C   1.2930525082  0.0377339056 -0.0299541522
C  -1.1816680622  1.9732460562  0.9036879360
C   1.9851107369 -0.4462544990  1.2324502496
C   2.2682237867  0.4053312690 -1.1342800528
N   0.3192623169 -0.9542594690 -0.5169816204
N  -2.0282110934 -1.4452163850 -0.2708220525
O  -1.6063894558  1.6865701566 -0.3559748934
H  -2.0858708672  0.8432923351 -0.3313384834
H   0.0053326284 -0.6973861376 -1.4445170343
H  -0.5625706326 -1.7364685181  1.2759210287
H   0.7516010558  0.9482396007  0.2390875072
H  -2.5850527858 -2.1560196317  0.1860944410
H  -2.0197336222 -1.6504273915 -1.2649037414
H  -0.5352259040  2.8337298721  0.9961465030
H  -1.6654983317  1.4988438950  1.7425621699
H   2.7636811979  0.2642491134  1.5137767423
H   1.7301974009  0.7096393630 -2.0354049331
H   2.4382528957 -1.4296127719  1.0947324659
H   1.2776231723 -0.4980437833  2.0611707439
H   2.8612769337  1.2627490080 -0.8113512788
H   2.9469137853 -0.4101514377 -1.3889646530
22
Image 80  Energy = -383.5267053550
C  -0.7454927069 -1.3018496239  0.3203085036
C   1.2869900888  0.0341116204 -0.0287524455
C  -1.2272517412  2.0834323487  0.9183708756
C   1.9847488582 -0.4538878298  1.2291545332
C   2.2655788982  0.3950457650 -1.1328350098
N   0.3194528265 -0.9641936783 -0.5177069828
N  -2.0158811306 -1.4665865690 -0.2862647162
O  -1.5896883610  1.6966812555 -0.3395635643
H  -2.0391441730  0.8360408937 -0.2930111417
H  -0.0025412816 -0.7011073328 -1.4410712499
H  -0.5442638756 -1.8402381602  1.2430002161
H   0.7453157491  0.9456740996  0.2340938744
H  -2.5840510635 -2.1621125733  0.1787579848
H  -1.9935977187 -1.6871597065 -1.2779572906
H  -0.6022158676  2.9600373977  0.9928248293
H  -1.6568210258  1.5635298852  1.7644228709
H   2.7634860607  0.2561353815  1.5128903078
H   1.7321151418  0.7006040980 -2.0357246610
H   2.4392898784 -1.4351010177  1.0774625201
H   1.2790577168 -0.5155151920  2.0584248697
H   2.8675520134  1.2471645816 -0.8131147981
H   2.9372750405 -0.4270659259 -1.3852430990
22
Image 81  Energy = -383.5267969106
C  -0.7452458653 -1.3018131084  0.3207425605
C   1.2872487533  0.0341528702 -0.0288042595
C  -1.2288951576  2.0810042271  0.9175548019
C   1.9846279338 -0.4539144204  1.2290896255
C   2.2655818259  0.3949171016 -1.1329457770
N   0.3192420858 -0.9636786255 -0.5172293526
N  -2.0154592950 -1.4660252178 -0.2860142790
O  -1.5895390410  1.6971692329 -0.3385892954
H  -2.0387033806  0.8365519232 -0.2925030944
H  -0.0026433108 -0.7009305734 -1.4408497384
H  -0.5442865317 -1.8399488746  1.2413437686
H   0.7450662479  0.9458759450  0.2343910944
H  -2.5839985266 -2.1612402060  0.1788991921
H  -1.9926494141 -1.6873962727 -1.2776374896
H  -0.6032708651  2.9596584590  0.9922760164
H  -1.6560415685  1.5645613337  1.7641756449
H   2.7634345927  0.2558745628  1.5129546623
H   1.7321509551  0.7004200316 -2.0358946193
H   2.4393282931 -1.4349733757  1.0772434431
H   1.2792133940 -0.5159631419  2.0585641335
H   2.8677908449  1.2468196179 -0.8132015211
H   2.9369613566 -0.4274817712 -1.3850990896
22
Image 82  Energy = -383.5268521533
C  -0.7450857995 -1.3015605784  0.3208206602
C   1.2873738874  0.0343063412 -0.0287863737
C  -1.2296076902  2.0797578699  0.9170842143
C   1.9845481931 -0.4539562562  1.2290421672
C   2.2655919675  0.3947806640 -1.1330566235
N   0.3190694748 -0.9631707822 -0.5168673818
N  -2.0150768793 -1.4654609189 -0.2858317171
O  -1.5896788075  1.6973127970 -0.3382123519
H  -2.0383249445  0.8369743212 -0.2921094480
H  -0.0027387715 -0.7007644156 -1.4405891252
H  -0.5442181435 -1.8398848992  1.2401077574
H   0.7448967337  0.9460128155  0.2346616420
H  -2.5839576923 -2.1603799903  0.1790572418
H  -1.9917109438 -1.6876215532 -1.2772937059
H  -0.6046018685  2.9588788378  0.9917358196
H  -1.6555670638  1.5652297207  1.7642845350
H   2.7633923589  0.2556310895  1.5130259823
H   1.7321893000  0.7002370091 -2.0360568777
H   2.4393715280 -1.4348643988  1.0770210153
H   1.2793562686 -0.5163997744  2.0586889526
H   2.8680324628  1.2464816373 -0.8132931455
H   2.9366597559 -0.4278998179 -1.3849668083
22
Image 83  Energy = -383.5268963211
C  -0.7449665539 -1.3012107059  0.3207941572
C   1.2874381000  0.0345024591 -0.0287348617
C  -1.2300173235  2.0788803461  0.9167745745
C   1.9844878328 -0.4540031653  1.2290074940
C   2.2655969247  0.3946449710 -1.1331552786
N   0.3189424319 -0.9626698633 -0.5165967127
N  -2.0147510755 -1.4649009603 -0.2857141219
O  -1.5898941059  1.6974083538 -0.3380976476
H  -2.0380444396  0.8372301160 -0.2917752664
H  -0.0028306375 -0.7005933804 -1.4403346039
H  -0.5440991767 -1.8399397760  1.2391061149
H   0.7447702608  0.9461314226  0.2349187864
H  -2.5839176220 -2.1595241342  0.1792271311
H  -1.9907910375 -1.6878413139 -1.2769553771
H  -0.6059197643  2.9581103027  0.9912147920
H  -1.6552363038  1.5657275852  1.7645335191
H   2.7633608251  0.2554043352  1.5131043347
H   1.7322305407  0.7000551378 -2.0362124495
H   2.4394190434 -1.4347733034  1.0767929602
H   1.2794912964 -0.5168274918  2.0588018323
H   2.8682774333  1.2461495186 -0.8133908224
H   2.9363666767 -0.4283207356 -1.3848421269
22
Image 84  Energy = -383.5269344171
C  -0.7448671329 -1.3008125595  0.3207502326
C   1.2874744715  0.0347147619 -0.0286676575
C  -1.2303064502  2.0781399651  0.9165455979
C   1.9844393392 -0.4540525519  1.2289818261
C   2.2655960916  0.3945117780 -1.1332394194
N   0.3188500349 -0.9621820818 -0.5163872958
N  -2.0144729952 -1.4643425579 -0.2856435070
O  -1.5901468668  1.6974875372 -0.3381065285
H  -2.0378374860  0.8373618326 -0.2914880530
H  -0.0029211093 -0.7004098213 -1.4401059025
H  -0.5439489003 -1.8400649381  1.2382524666
H   0.7446704885  0.9462499430  0.2351683078
H  -2.5838776025 -2.1586717322  0.1794058631
H  -1.9898926237 -1.6880603650 -1.2766396231
H  -0.6071592567  2.9574467643  0.9907169826
H  -1.6549943840  1.5661209857  1.7648476895
H   2.7633390766  0.2551925734  1.5131891033
H   1.7322745223  0.6998744690 -2.0363612393
H   2.4394697134 -1.4346971930  1.0765591182
H   1.2796201987 -0.5172475029  2.0589052125
H   2.8685257418  1.2458228579 -0.8134945634
H   2.9360784541 -0.4287424464 -1.3847221835
22
Image 85  Energy = -383.5267603479
C  -0.7398064950 -1.3322137018  0.3175093207
C   1.2839873089  0.0352813809 -0.0273196513
C  -1.2430255365  2.1237976986  0.9199260315
C   1.9830054788 -0.4561009505  1.2282063747
C   2.2636663721  0.3923667460 -1.1328574662
N   0.3195600161 -0.9653192446 -0.5176559833
N  -2.0134409728 -1.4744972067 -0.2900994855
O  -1.5812705009  1.7035719990 -0.3328065395
H  -2.0185913832  0.8373403925 -0.2730475829
H  -0.0052824944 -0.7017829363 -1.4391772552
H  -0.5385283449 -1.8727879344  1.2254841601
H   0.7422070932  0.9473839925  0.2369172588
H  -2.5885893336 -2.1643052254  0.1743978558
H  -1.9847596932 -1.7022544399 -1.2803095302
H  -0.6292829906  3.0078822387  0.9875567242
H  -1.6458334604  1.5867674369  1.7702062777
H   2.7622290748  0.2520616182  1.5129780785
H   1.7321848767  0.6974933446 -2.0373033969
H   2.4395843804 -1.4352119908  1.0723607321
H   1.2804734065 -0.5235286713  2.0596362288
H   2.8697114480  1.2414028224 -0.8134017406
H   2.9317154531 -0.4337076619 -1.3827338761
22
Image 86  Energy = -383.5268825521
C  -0.7397335472 -1.3301001009  0.3151777376
C   1.2840394366  0.0351373673 -0.0273180003
C  -1.2448514464  2.1210119940  0.9196650630
C   1.9829770626 -0.4561315703  1.2282267312
C   2.2635789186  0.3922351417 -1.1328233368
N   0.3191385848 -0.9651987252 -0.5168761511
N  -2.0126573753 -1.4739819341 -0.2897457438
O  -1.5811925131  1.7039184657 -0.3320415361
H  -2.0181612721  0.8379141789 -0.2726943525
H  -0.0054786887 -0.7015678373 -1.4390413889
H  -0.5379955597 -1.8738922255  1.2261626668
H   0.7420537959  0.9474687658  0.2371084175
H  -2.5886423280 -2.1635283623  0.1745353087
H  -1.9840741393 -1.7025019690 -1.2800513087
H  -0.6301706627  3.0075846254  0.9869729691
H  -1.6448655462  1.5880546284  1.7697724979
H   2.7622386290  0.2519612149  1.5131090638
H   1.7322261838  0.6973355271 -2.0373788631
H   2.4396240950 -1.4352155758  1.0720750236
H   1.2805531111 -0.5239200431  2.0597322494
H   2.8699474883  1.2411451847 -0.8135262518
H   2.9313594754 -0.4340890440 -1.3825742626
22
Image 87  Energy = -383.5269353108
C  -0.7396296976 -1.3287974604  0.3146849586
C   1.2840516730  0.0351289359 -0.0272158948
C  -1.2456211732  2.1196774711  0.9193962130
C   1.9829722798 -0.4561859531  1.2282561749
C   2.2635001611  0.3920796756 -1.1328115583
N   0.3190116569 -0.9648443477 -0.5168505541
N  -2.0122033787 -1.4735085678 -0.2898200891
O  -1.5813353189  1.7039909149 -0.3317288130
H  -2.0178270649  0.8383379321 -0.2724510271
H  -0.0055617809 -0.7013983351 -1.4388127320
H  -0.5376456444 -1.8744487811  1.2259709150
H   0.7419436679  0.9474955147  0.2372818888
H  -2.5885868160 -2.1626971998  0.1747004638
H  -1.9834435207 -1.7027201352 -1.2797622478
H  -0.6314140598  3.0067666459  0.9864127606
H  -1.6442845568  1.5888339365  1.7698819728
H   2.7622432625  0.2518612165  1.5132351814
H   1.7322658015  0.6971773162 -2.0374475114
H   2.4396634519 -1.4352129992  1.0717978530
H   1.2806322299 -0.5243060322  2.0598165415
H   2.8701695707  1.2408772355 -0.8136449298
H   2.9310129553 -0.4344672780 -1.3824230346
22
Image 88  Energy = -383.5269761667
C  -0.7395381166 -1.3277437395  0.3146791180
C   1.2840571424  0.0351813264 -0.0271220618
C  -1.2460632364  2.1187851437  0.9191688083
C   1.9829734274 -0.4562567747  1.2282883826
C   2.2634376109  0.3919357504 -1.1327948270
N   0.3189900033 -0.9644764958 -0.5168821653
N  -2.0118511192 -1.4730455415 -0.2899177087
O  -1.5815317703  1.7040356200 -0.3316293252
H  -2.0175942725  0.8385812099 -0.2722585523
H  -0.0056452187 -0.7011985249 -1.4386697445
H  -0.5373430582 -1.8748453774  1.2255404110
H   0.7418546480  0.9475080596  0.2374515347
H  -2.5884944851 -2.1618399646  0.1748670469
H  -1.9828256518 -1.7029450940 -1.2795449621
H  -0.6326646186  3.0059343878  0.9858750958
H  -1.6438706520  1.5893942605  1.7701892342
H   2.7622452064  0.2517618906  1.5133589716
H   1.7323022644  0.6970186118 -2.0375103787
H   2.4397049045 -1.4352103081  1.0715255871
H   1.2807115891 -0.5246877659  2.0598949955
H   2.8703844535  1.2406012635 -0.8137655154
H   2.9306746474 -0.4348482322 -1.3822774145
22
Image 89  Energy = -383.5270118181
C  -0.7394636094 -1.3267917293  0.3148239838
C   1.2840680510  0.0352660107 -0.0270399451
C  -1.2463833482  2.1180517042  0.9189828722
C   1.9829780786 -0.4563329630  1.2283184767
C   2.2633884317  0.3918025969 -1.1327760824
N   0.3189977714 -0.9641265522 -0.5168931645
N  -2.0115328360 -1.4725790313 -0.2900019873
O  -1.5817588115  1.7040682719 -0.3316393800
H  -2.0174316619  0.8386994430 -0.2721044084
H  -0.0057337589 -0.7009731268 -1.4385840544
H  -0.5370540295 -1.8751862937  1.2250418463
H   0.7417787876  0.9475211488  0.2376203681
H  -2.5883945894 -2.1609785732  0.1750395499
H  -1.9822121246 -1.7031750745 -1.2793774534
H  -0.6338428864  3.0052039216  0.9853601983
H  -1.6435512415  1.5898315264  1.7705781376
H   2.7622448425  0.2516619993  1.5134818267
H   1.7323369235  0.6968596895 -2.0375669111
H   2.4397491730 -1.4352102588  1.0712564830
H   1.2807904119 -0.5250657234  2.0599691954
H   2.8705975452  1.2403233071 -0.8138874843
H   2.9303425794 -0.4352305876 -1.3821355391
22
Image 90  Energy = -383.5267914521
C  -0.7327040225 -1.3620361261  0.3133321374
C   1.2792535018  0.0340705045 -0.0255326534
C  -1.2784276511  2.2002245206  0.9275850506
C   1.9815707189 -0.4614912663  1.2261941091
C   2.2608732510  0.3854958905 -1.1321326674
N   0.3197942074 -0.9703535490 -0.5178117564
N  -2.0041583726 -1.4898042731 -0.2997858883
O  -1.5673213002  1.7142524054 -0.3197704288
H  -1.9806220421  0.8368017979 -0.2394301458
H  -0.0111551249 -0.7031309134 -1.4358012909
H  -0.5242385254 -1.9464605855  1.1984620902
H   0.7375915317  0.9470449944  0.2370905643
H  -2.5921951597 -2.1668311871  0.1675741320
H  -1.9662445475 -1.7311712872 -1.2871479063
H  -0.6832789201  3.0987512315  0.9796099126
H  -1.6318616672  1.6363598177  1.7850542540
H   2.7609633875  0.2453062763  1.5130898106
H   1.7328970691  0.6908678092 -2.0386672572
H   2.4403554353 -1.4379466274  1.0602771578
H   1.2822913217 -0.5385521126  2.0594519861
H   2.8745057095  1.2297371756 -0.8145411761
H   2.9220256806 -0.4474948557 -1.3786333184
22
Image 91  Energy = -383.5269596202
C  -0.7324343991 -1.3603791922  0.3122690290
C   1.2794291063  0.0337490865 -0.0255630281
C  -1.2807962361  2.1961957645  0.9264413350
C   1.9815815975 -0.4615616795  1.2262610501
C   2.2607965648  0.3853632488 -1.1320559090
N   0.3194629529 -0.9702734109 -0.5172130222
N  -2.0034477268 -1.4894958204 -0.2995867734
O  -1.5669503590  1.7151065369 -0.3178771051
H  -1.9800729505  0.8378617521 -0.2390213419
H  -0.0113362124 -0.7028478901 -1.4357590271
H  -0.5238119882 -1.9468449320  1.1982717325
H   0.7374204717  0.9470627885  0.2372711259
H  -2.5921840127 -2.1660317288  0.1676592650
H  -1.9658722703 -1.7313687336 -1.2869091883
H  -0.6841559259  3.0981096332  0.9788753979
H  -1.6306372365  1.6381279260  1.7843821387
H   2.7609635864  0.2452786585  1.5132517359
H   1.7329144162  0.6907440310 -2.0386650105
H   2.4403900308 -1.4379660566  1.0600444600
H   1.2823391220 -0.5389127364  2.0595228600
H   2.8746785412  1.2295205530 -0.8146654794
H   2.9216374070 -0.4477981577 -1.3784675298
22
Image 92  Energy = -383.5270356018
C  -0.7322677012 -1.3591870080  0.3121163501
C   1.2795195227  0.0336086599 -0.0254945290
C  -1.2817903954  2.1943399637  0.9258208295
C   1.9816166137 -0.4616474239  1.2263294612
C   2.2607307360  0.3852180285 -1.1320080034
N   0.3193500960 -0.9700100325 -0.5171552751
N  -2.0029232709 -1.4891722878 -0.2996113427
O  -1.5669546587  1.7153428970 -0.3170311081
H  -1.9796141407  0.8387539424 -0.2387499948
H  -0.0114357144 -0.7026137949 -1.4356053828
H  -0.5234601633 -1.9469771713  1.1977443668
H   0.7373178949  0.9469950357  0.2374302286
H  -2.5921190312 -2.1652163724  0.1677814025
H  -1.9655118332 -1.7315519831 -1.2866739642
H  -0.6855272404  3.0967272754  0.9781626715
H  -1.6298304637  1.6392392086  1.7843495408
H   2.7609538265  0.2452429683  1.5134072638
H   1.7329286877  0.6906182050 -2.0386573319
H   2.4404321326 -1.4379874086  1.0598238929
H   1.2823853708 -0.5392684764  2.0595853553
H   2.8748415343  1.2292957957 -0.8147808878
H   2.9212726756 -0.4481103803 -1.3783168254
22
Image 93  Energy = -383.5270897098
C  -0.7321536416 -1.3581475194  0.3122006386
C   1.2795804088  0.0335530584 -0.0254159888
C  -1.2823578178  2.1931713552  0.9254512209
C   1.9816550029 -0.4617420636  1.2263953821
C   2.2606765438  0.3850845040 -1.1319624150
N   0.3193304780 -0.9697224881 -0.5171717287
N  -2.0024859440 -1.4888411350 -0.2996583019
O  -1.5670408995  1.7154899896 -0.3166772933
H  -1.9792948192  0.8393642252 -0.2385296361
H  -0.0115306501 -0.7023658433 -1.4354890738
H  -0.5231227606 -1.9470461104  1.1971524504
H   0.7372465711  0.9469018871  0.2375841696
H  -2.5920339140 -2.1643933770  0.1679194426
H  -1.9651442355 -1.7317371124 -1.2864866397
H  -0.6869103830  3.0953320529  0.9774743805
H  -1.6292180763  1.6400462255  1.7845841219
H   2.7609390772  0.2452018302  1.5135593721
H   1.7329385651  0.6904912184 -2.0386470031
H   2.4404814720 -1.4380126522  1.0596108830
H   1.2824326743 -0.5396208989  2.0596430996
H   2.8750006993  1.2290652171 -0.8148939784
H   2.9209261269 -0.4484327215 -1.3781763850
22
Image 94  Energy = -383.5271332950
C  -0.7320691848 -1.3571786179  0.3123550387
C   1.2796347082  0.0335429652 -0.0253391312
C  -1.2827706905  2.1922596965  0.9252037935
C   1.9816929226 -0.4618387781  1.2264559303
C   2.2606321430  0.3849614650 -1.1319178404
N   0.3193466318 -0.9694403795 -0.5171935167
N  -2.0020977039 -1.4884996291 -0.2997081370
O  -1.5671635894  1.7156110369 -0.3165709929
H  -1.9790762839  0.8397710851 -0.2383482825
H  -0.0116263339 -0.7021009925 -1.4354069471
H  -0.5227871122 -1.9470996312  1.1965642911
H   0.7371914522  0.9468065170  0.2377379627
H  -2.5919452359 -2.1635739177  0.1680731589
H  -1.9647677394 -1.7319230044 -1.2863343133
H  -0.6881927829  3.0940940450  0.9768148254
H  -1.6287238822  1.6406690517  1.7849533405
H   2.7609208632  0.2451555690  1.5137095062
H   1.7329449358  0.6903637321 -2.0386342722
H   2.4405370421 -1.4380417649  1.0594032515
H   1.2824809340 -0.5399705906  2.0596974046
H   2.8751603352  1.2288333261 -0.8150052782
H   2.9205930475 -0.4487615421 -1.3780430740
22
Image 95  Energy = -383.5265571505
C  -0.7377130886 -1.3395206657  0.3174732947
C   1.2792765215  0.0342497136 -0.0261712850
C  -1.2714939720  2.1908190087  0.9302673718
C   1.9822736666 -0.4609656926  1.2257236182
C   2.2614149035  0.3847074183 -1.1320164265
N   0.3180575233 -0.9687221577 -0.5165245857
N  -2.0028448627 -1.4847693463 -0.3007558021
O  -1.5723170891  1.7074211759 -0.3245026135
H  -1.9888404171  0.8295040478 -0.2488271549
H  -0.0109904293 -0.7041833462 -1.4361846858
H  -0.5257210721 -1.9447233809  1.2031267088
H   0.7338232928  0.9454569894  0.2351283094
H  -2.5861952307 -2.1628236667  0.1722148383
H  -1.9602447727 -1.7263836836 -1.2884900958
H  -0.6775634351  3.0913287329  0.9856004724
H  -1.6391828589  1.6288197116  1.7859692152
H   2.7623363961  0.2457551849  1.5124494960
H   1.7340119822  0.6903212379 -2.0383694411
H   2.4402968626 -1.4383908961  1.0588006043
H   1.2819713326 -0.5364487385  2.0584496608
H   2.8753607030  1.2291015111 -0.8153308884
H   2.9241983771 -0.4469135480 -1.3795639602
22
Image 96  Energy = -383.5269054859
C  -0.7369209074 -1.3401090718  0.3190078921
C   1.2795924657  0.0340271600 -0.0262160882
C  -1.2747258997  2.1854633716  0.9277288530
C   1.9822294684 -0.4610604966  1.2257677006
C   2.2614362563  0.3846616016 -1.1320415792
N   0.3179792786 -0.9684426389 -0.5161583833
N  -2.0025077561 -1.4845638661 -0.3006223919
O  -1.5714440858  1.7091140213 -0.3209137427
H  -1.9880190684  0.8310598929 -0.2480467018
H  -0.0111142168 -0.7038317282 -1.4361571122
H  -0.5258546948 -1.9434415469  1.2007942011
H   0.7338923255  0.9455248724  0.2353335591
H  -2.5861762076 -2.1618771229  0.1719485724
H  -1.9599522671 -1.7266464388 -1.2879708464
H  -0.6786592948  3.0903941982  0.9846313745
H  -1.6376854488  1.6309682335  1.7848563350
H   2.7622694427  0.2456575185  1.5125648169
H   1.7339860962  0.6902153708 -2.0384609965
H   2.4402546152 -1.4382550197  1.0586472315
H   1.2820986290 -0.5368604328  2.0585244699
H   2.8755025454  1.2288905748 -0.8154124671
H   2.9237330592 -0.4472488433 -1.3793380495
22
Image 97  Energy = -383.5270461509
C  -0.7364830635 -1.3401388742  0.3194212735
C   1.2797943834  0.0339498602 -0.0262040721
C  -1.2760805895  2.1830271507  0.9265088693
C   1.9822191890 -0.4611360334  1.2258066622
C   2.2614451335  0.3845977020 -1.1320788678
N   0.3179006316 -0.9681688057 -0.5158291975
N  -2.0019879007 -1.4842163499 -0.3003445653
O  -1.5712435987  1.7096927292 -0.3191711962
H  -1.9872488417  0.8325257416 -0.2474595132
H  -0.0112386976 -0.7035250953 -1.4360010698
H  -0.5257859117 -1.9427088227  1.1992968897
H   0.7340264962  0.9455308772  0.2355267820
H  -2.5862599778 -2.1610359490  0.1717719958
H  -1.9596129455 -1.7269164273 -1.2875199070
H  -0.6804047790  3.0884749097  0.9836702296
H  -1.6366940317  1.6323516886  1.7844587223
H   2.7622014036  0.2455593053  1.5126835100
H   1.7339663872  0.6901067083 -2.0385384311
H   2.4402380969 -1.4381622051  1.0584937560
H   1.2822068108 -0.5372619484  2.0586011714
H   2.8756534713  1.2286903341 -0.8154911902
H   2.9233026702 -0.4475968871 -1.3791352034
22
Image 98  Energy = -383.5271332556
C  -0.7361871565 -1.3399394338  0.3194625046
C   1.2799405824  0.0339414027 -0.0261555892
C  -1.2768238666  2.1815489322  0.9258915049
C   1.9822218552 -0.4612024811  1.2258436914
C   2.2614410953  0.3845257924 -1.1321149146
N   0.3178667356 -0.9678738249 -0.5156177377
N  -2.0014978157 -1.4838352322 -0.3001131522
O  -1.5712080084  1.7100684947 -0.3183381907
H  -1.9866651081  0.8336151574 -0.2469428466
H  -0.0113509037 -0.7032392349 -1.4357871612
H  -0.5256184048 -1.9422383002  1.1982109106
H   0.7341861290  0.9455217503  0.2357162603
H  -2.5863677142 -2.1602318541  0.1716564898
H  -1.9592532770 -1.7271713341 -1.2870877542
H  -0.6821598205  3.0865442311  0.9827396861
H  -1.6359534044  1.6333575386  1.7844085797
H   2.7621395979  0.2454657778  1.5128069422
H   1.7339502146  0.6899965291 -2.0386067162
H   2.4402400234 -1.4380988235  1.0583391666
H   1.2823045057 -0.5376552623  2.0586749503
H   2.8758100556  1.2284940803 -0.8155703062
H   2.9228990217 -0.4479542971 -1.3789496675
22
Image 99  Energy = -383.5271962567
C  -0.7359528670 -1.3396392291  0.3193882366
C   1.2800598665  0.0339703577 -0.0260902800
C  -1.2773365738  2.1804362663  0.9255363506
C   1.9822305498 -0.4612669688  1.2258800835
C   2.2614300261  0.3844506813 -1.1321439612
N   0.3178764737 -0.9675686576 -0.5154913656
N  -2.0010792811 -1.4834443160 -0.2999457936
O  -1.5712361260  1.7103927463 -0.3179684206
H  -1.9862301271  0.8344062245 -0.2464810140
H  -0.0114552902 -0.7029543977 -1.4355687895
H  -0.5253972974 -1.9419076628  1.1973535704
H   0.7343538073  0.9455168699  0.2359059231
H  -2.5864778068 -2.1594442764  0.1715871623
H  -1.9588841680 -1.7274132532 -1.2866842425
H  -0.6837702512  3.0848374942  0.9818539447
H  -1.6353750154  1.6341198122  1.7845690957
H   2.7620851102  0.2453777383  1.5129348057
H   1.7339359380  0.6898855069 -2.0386678993
H   2.4402556898 -1.4380559003  1.0581834576
H   1.2823954017 -0.5380413635  2.0587447911
H   2.8759707451  1.2282989155 -0.8156516037
H   2.9225155325 -0.4483169787 -1.3787773971
22
Image 100  Energy = -383.5261546852
C  -0.7287019280 -1.3728246412  0.3146094376
C   1.2758317499  0.0295476021 -0.0246276355
C  -1.3255086825  2.2849167373  0.9383595639
C   1.9818304764 -0.4690575595  1.2237911372
C   2.2587633049  0.3757546907 -1.1309670526
N   0.3201781103 -0.9782580765 -0.5181760134
N  -1.9901648574 -1.5079377554 -0.3123652804
O  -1.5547517471  1.7250199871 -0.3046203562
H  -1.9396485160  0.8347871002 -0.2055766938
H  -0.0179398670 -0.7037970072 -1.4319800238
H  -0.5053302550 -2.0359423099  1.1664527948
H   0.7350130879  0.9451688157  0.2330269295
H  -2.5919616040 -2.1672531268  0.1643896956
H  -1.9427629774 -1.7625503970 -1.2974996783
H  -0.7464448525  3.1958151135  0.9715313262
H  -1.6234464340  1.6982381643  1.8064024770
H   2.7607721776  0.2376133263  1.5139041633
H   1.7346797061  0.6824882410 -2.0388486208
H   2.4426129779 -1.4432631829  1.0456475047
H   1.2836425424 -0.5562322710  2.0571758490
H   2.8810757251  1.2149919621 -0.8167790190
H   2.9121773389 -0.4635858548 -1.3753835313
22
Image 101  Energy = -383.5266865042
C  -0.7276999385 -1.3747791115  0.3170544369
C   1.2763118876  0.0293155781 -0.0246858483
C  -1.3287256220  2.2782234188  0.9352165024
C   1.9818019758 -0.4692113601  1.2238512085
C   2.2588918534  0.3756713346 -1.1310434525
N   0.3200451265 -0.9776035670 -0.5178289652
N  -1.9899530484 -1.5078592938 -0.3122692820
O  -1.5538816539  1.7273054057 -0.3003349028
H  -1.9389509733  0.8366922854 -0.2048064158
H  -0.0180611391 -0.7034582844 -1.4319178679
H  -0.5057369827 -2.0332286981  1.1631558460
H   0.7347807920  0.9449631058  0.2332939046
H  -2.5917143714 -2.1662704759  0.1640909978
H  -1.9426022854 -1.7626884101 -1.2968677135
H  -0.7472693463  3.1947852660  0.9705455266
H  -1.6219667838  1.7007280797  1.8051402873
H   2.7606585923  0.2375160288  1.5140263378
H   1.7345991104  0.6824112472 -2.0388880022
H   2.4426072052 -1.4431286152  1.0455945079
H   1.2837625622 -0.5566038619  2.0572218204
H   2.8811534412  1.2147804617 -0.8168244456
H   2.9118650769 -0.4639209761 -1.3752575069
22
Image 102  Energy = -383.5268838181
C  -0.7271350919 -1.3755963305  0.3175832473
C   1.2766196397  0.0292228107 -0.0246896211
C  -1.3300014523  2.2751831850  0.9336883806
C   1.9818111824 -0.4693288682  1.2239020427
C   2.2589951513  0.3755788674 -1.1311253783
N   0.3198435656 -0.9770967463 -0.5173076302
N  -1.9894147450 -1.5075773514 -0.3118675809
O  -1.5536702473  1.7280770150 -0.2982377704
H  -1.9382730778  0.8385285681 -0.2042567444
H  -0.0182220635 -0.7031523286 -1.4317435674
H  -0.5058081013 -2.0315116332  1.1611469516
H   0.7346498801  0.9447157652  0.2335509176
H  -2.5916630537 -2.1654610025  0.1639028390
H  -1.9423752923 -1.7628560827 -1.2963461496
H  -0.7488960236  3.1925290523  0.9695803254
H  -1.6209477720  1.7023324219  1.8046546566
H   2.7605475046  0.2374171308  1.5141558479
H   1.7345303280  0.6823284275 -2.0389138887
H   2.4426322344 -1.4430486091  1.0455379541
H   1.2838582296 -0.5569664733  2.0572745750
H   2.8812520512  1.2145869064 -0.8168699713
H   2.9115826314 -0.4642651660 -1.3751524616
22
Image 103  Energy = -383.5269973262
C  -0.7267540103 -1.3759073838  0.3174601888
C   1.2768366458  0.0291940439 -0.0246390810
C  -1.3306663656  2.2733796760  0.9329346596
C   1.9818340534 -0.4694266761  1.2239501032
C   2.2590677314  0.3754774725 -1.1312010449
N   0.3196856302 -0.9766105740 -0.5169351138
N  -1.9888874912 -1.5072413801 -0.3115158847
O  -1.5535982531  1.7285322601 -0.2972513247
H  -1.9377862793  0.8399191097 -0.2037705164
H  -0.0183680646 -0.7028755173 -1.4314821193
H  -0.5057115336 -2.0302923346  1.1597889369
H   0.7345711169  0.9444716776  0.2338046303
H  -2.5916726358 -2.1647196940  0.1637919052
H  -1.9421252219 -1.7630115791 -1.2958394935
H  -0.7505730548  3.1902184294  0.9686394301
H  -1.6201581794  1.7035034379  1.8045461694
H   2.7604475652  0.2373239897  1.5142932018
H   1.7344698765  0.6822420168 -2.0389327297
H   2.4426778457 -1.4430037830  1.0454777744
H   1.2839410106 -0.5573223117  2.0573262896
H   2.8813642456  1.2144021086 -0.8169168635
H   2.9113208437 -0.4646134295 -1.3750621453
22
Image 104  Energy = -383.5270753844
C  -0.7264534556 -1.3759736781  0.3171357306
C   1.2770050204  0.0291990346 -0.0245609510
C  -1.3311171841  2.2720632968  0.9325204716
C   1.9818613264 -0.4695182556  1.2239983649
C   2.2591182488  0.3753730953 -1.1312620413
N   0.3195936977 -0.9761371425 -0.5167038801
N  -1.9884494099 -1.5068875450 -0.3112564337
O  -1.5535697932  1.7289000558 -0.2968304237
H  -1.9374557561  0.8409491760 -0.2033316121
H  -0.0185012160 -0.7026017754 -1.4312071959
H  -0.5055239921 -2.0293444670  1.1587904135
H   0.7345210528  0.9442492793  0.2340590240
H  -2.5916991657 -2.1640090607  0.1637365192
H  -1.9418682971 -1.7631562210 -1.2953618896
H  -0.7521126453  3.1881466204  0.9677366867
H  -1.6195192282  1.7043916346  1.8046733504
H   2.7603597676  0.2372383333  1.5144371614
H   1.7344148836  0.6821530857 -2.0389470746
H   2.4427377556 -1.4429818153  1.0454146249
H   1.2840160158 -0.5576724864  2.0573754529
H   2.8814852875  1.2142201023 -0.8169672198
H   2.9110725615 -0.4649617070 -1.3749821053
22
Image 105  Energy = -383.5264914069
C  -0.7271660456 -1.3819496425  0.3120455772
C   1.2774041704  0.0289675188 -0.0245668627
C  -1.3302431658  2.2843112827  0.9369788546
C   1.9824646419 -0.4697088150  1.2242700590
C   2.2597179385  0.3757019258 -1.1313963243
N   0.3207702150 -0.9781583299 -0.5184716431
N  -1.9926219515 -1.5081097309 -0.3106300451
O  -1.5558830135  1.7287452990 -0.3037376934
H  -1.9401357367  0.8390525241 -0.2047056491
H  -0.0176236039 -0.7026502379 -1.4314591003
H  -0.5052277337 -2.0295504185  1.1657266630
H   0.7399442965  0.9467595515  0.2327716704
H  -2.5931326213 -2.1694879509  0.1640057295
H  -1.9470500150 -1.7624712694 -1.2959650965
H  -0.7434842413  3.1895452078  0.9693172672
H  -1.6246074325  1.7002641307  1.8062435447
H   2.7606790638  0.2373934113  1.5149258801
H   1.7344458077  0.6830509861 -2.0384488782
H   2.4438148169 -1.4437421129  1.0478996490
H   1.2836166801 -0.5568663228  2.0570468739
H   2.8808932496  1.2155006395 -0.8166141949
H   2.9133402649 -0.4629580398 -1.3767692554
22
Image 106  Energy = -383.5268301613
C  -0.7263653801 -1.3823849503  0.3132543585
C   1.2777719788  0.0287120918 -0.0246064792
C  -1.3330030285  2.2785494940  0.9344202012
C   1.9824369299 -0.4698365540  1.2243312782
C   2.2598049369  0.3756016404 -1.1314395015
N   0.3205469100 -0.9776371960 -0.5180510191
N  -1.9920906737 -1.5080097966 -0.3106235934
O  -1.5552263021  1.7304474883 -0.3001843732
H  -1.9395817382  0.8406698297 -0.2041234642
H  -0.0177785600 -0.7023208901 -1.4314732185
H  -0.5053467477 -2.0279876810  1.1636111789
H   0.7395667034  0.9464963115  0.2330760010
H  -2.5929843744 -2.1686079440  0.1638553689
H  -1.9469057782 -1.7625840469 -1.2953828351
H  -0.7442132379  3.1887339251  0.9684893874
H  -1.6232918293  1.7024258277  1.8051665789
H   2.7605867516  0.2373073362  1.5150624832
H   1.7343809362  0.6829576846 -2.0384846748
H   2.4438241647 -1.4436456801  1.0477954148
H   1.2837179567 -0.5572204019  2.0571043379
H   2.8810077038  1.2152854204 -0.8166722006
H   2.9130582622 -0.4633123001 -1.3766582037
22
Image 107  Energy = -383.5269618851
C  -0.7259103010 -1.3822881391  0.3135296117
C   1.2780037887  0.0286061846 -0.0245854355
C  -1.3340779135  2.2759326016  0.9331876438
C   1.9824424362 -0.4699455062  1.2243875524
C   2.2598732790  0.3754878968 -1.1314924807
N   0.3203685136 -0.9771436928 -0.5177232179
N  -1.9914584300 -1.5077866290 -0.3104012442
O  -1.5550932332  1.7309478064 -0.2984904524
H  -1.9390767866  0.8421571719 -0.2037178551
H  -0.0179251648 -0.7020319806 -1.4313670458
H  -0.5052721725 -2.0269580124  1.1622250199
H   0.7392853392  0.9461868941  0.2333645791
H  -2.5929120009 -2.1678005681  0.1637680736
H  -1.9467089345 -1.7627273933 -1.2949408640
H  -0.7456522654  3.1868595108  0.9676784784
H  -1.6223794918  1.7038087159  1.8047848763
H   2.7604943312  0.2372196064  1.5152016198
H   1.7343263973  0.6828590085 -2.0385072857
H   2.4438565750 -1.4435883481  1.0476924654
H   1.2838010978 -0.5575679308  2.0571645420
H   2.8811339438  1.2150800361 -0.8167287485
H   2.9127965745 -0.4636676246 -1.3765628079
22
Image 108  Energy = -383.5270421643
C  -0.7255968959 -1.3819690628  0.3135001114
C   1.2781679282  0.0285712088 -0.0245303169
C  -1.3346329918  2.2743640119  0.9325675732
C   1.9824585907 -0.4700449688  1.2244408121
C   2.2599223459  0.3753722548 -1.1315394613
N   0.3202554438 -0.9766594989 -0.5175252911
N  -1.9908829690 -1.5075200625 -0.3101991151
O  -1.5550614605  1.7312219185 -0.2977106109
H  -1.9387433464  0.8432445497 -0.2033604033
H  -0.0180574023 -0.7017560618 -1.4312144359
H  -0.5050984984 -2.0261922403  1.1612104207
H   0.7390565633  0.9458787684  0.2336466589
H  -2.5928638713 -2.1670294858  0.1637359056
H  -1.9464871123 -1.7628680784 -1.2945464235
H  -0.7471387533  3.1849338046  0.9668863041
H  -1.6216666743  1.7048130731  1.8047352794
H   2.7604088081  0.2371355597  1.5153445709
H   1.7342788436  0.6827568627 -2.0385222839
H   2.4439051673 -1.4435575573  1.0475894678
H   1.2838746482 -0.5579106587  2.0572232147
H   2.8812684068  1.2148783234 -0.8167870305
H   2.9125488128 -0.4640230526 -1.3764779214
22
Image 109  Energy = -383.5270999304
C  -0.7253474624 -1.3815505004  0.3133810782
C   1.2782978288  0.0285738116 -0.0244607217
C  -1.3350103390  2.2732038983  0.9322138225
C   1.9824780500 -0.4701412904  1.2244918772
C   2.2599583314  0.3752593431 -1.1315750146
N   0.3201980106 -0.9761937780 -0.5174186274
N  -1.9903926315 -1.5072305863 -0.3100507059
O  -1.5550615240  1.7314367289 -0.2973908765
H  -1.9385421425  0.8440255343 -0.2030397967
H  -0.0181804647 -0.7014746609 -1.4310631816
H  -0.5048685184 -2.0255728416  1.1604094251
H   0.7388600007  0.9455909445  0.2339263968
H  -2.5928235446 -2.1662802149  0.1637480394
H  -1.9462514405 -1.7630035593 -1.2941913279
H  -0.7485088225  3.1832072356  0.9661235169
H  -1.6210833626  1.7055733995  1.8048869762
H   2.7603310036  0.2370560278  1.5154909666
H   1.7342361670  0.6826524219 -2.0385319674
H   2.4439653988 -1.4435448830  1.0474861563
H   1.2839422282 -0.5582493636  2.0572793652
H   2.8814092319  1.2146778316 -0.8168484993
H   2.9123095841 -0.4643758904 -1.3763998767
22
Image 110  Energy = -383.5269109707
C  -0.7351449472 -1.3438875502  0.3118786638
C   1.2854267199  0.0322220003 -0.0264531977
C  -1.2725338129  2.1440712071  0.9186365972
C   1.9839139995 -0.4605575922  1.2285578108
C   2.2635961532  0.3882757391 -1.1329586506
N   0.3205254341 -0.9669011782 -0.5180769106
N  -2.0079068041 -1.4832533709 -0.2918555830
O  -1.5781606710  1.7155244838 -0.3230173848
H  -2.0019546687  0.8477108662 -0.2563636263
H  -0.0074168218 -0.6980177149 -1.4364842085
H  -0.5285081080 -1.8961625865  1.2073891652
H   0.7486937354  0.9486021499  0.2370057038
H  -2.5924726340 -2.1624090324  0.1755268247
H  -1.9807732182 -1.7136226420 -1.2810506122
H  -0.6558695941  3.0268196575  0.9755405665
H  -1.6400855007  1.6193050534  1.7789655262
H   2.7616460923  0.2480096263  1.5162109306
H   1.7324564486  0.6945456312 -2.0372962770
H   2.4431549831 -1.4377177625  1.0703319882
H   1.2812006346 -0.5337409596  2.0593255845
H   2.8729425160  1.2352158363 -0.8146427120
H   2.9271843276 -0.4403920985 -1.3827034580
22
Image 111  Energy = -383.5270474257
C  -0.7353307266 -1.3416081936  0.3101348778
C   1.2852974216  0.0324562712 -0.0263078430
C  -1.2709622915  2.1460402894  0.9201553774
C   1.9839306581 -0.4606240034  1.2285825921
C   2.2635867563  0.3881360712 -1.1329449145
N   0.3204809080 -0.9665148839 -0.5180831134
N  -2.0075100572 -1.4824646481 -0.2920037890
O  -1.5791840117  1.7143326819 -0.3253658020
H  -2.0023966503  0.8468514343 -0.2567492644
H  -0.0075435559 -0.6977727146 -1.4365637005
H  -0.5278280200 -1.8977329482  1.2090075544
H   0.7483826756  0.9484582964  0.2372451687
H  -2.5923785572 -2.1617467764  0.1757622917
H  -1.9802376274 -1.7139257310 -1.2809755753
H  -0.6565806730  3.0266951833  0.9753872829
H  -1.6405870276  1.6185103263  1.7801386295
H   2.7616345484  0.2479393642  1.5163428095
H   1.7324650756  0.6943858560 -2.0373233114
H   2.4432293307 -1.4378033945  1.0700168743
H   1.2812574741 -0.5340735785  2.0593963478
H   2.8731863311  1.2349725286 -0.8147447377
H   2.9270022824 -0.4408716667 -1.3826410113
22
Image 112  Energy = -383.5270965396
C  -0.7353263711 -1.3401435411  0.3100057575
C   1.2852427082  0.0326554183 -0.0261824239
C  -1.2704899938  2.1464305293  0.9205917393
C   1.9839402269 -0.4607035074  1.2286066259
C   2.2635834623  0.3879944172 -1.1329248990
N   0.3205494199 -0.9660513429 -0.5183846166
N  -2.0073626282 -1.4817902923 -0.2923227212
O  -1.5797200086  1.7139030649 -0.3263924206
H  -2.0028865396  0.8458888903 -0.2570382035
H  -0.0076096994 -0.6975087802 -1.4366691721
H  -0.5273833128 -1.8986446869  1.2095743741
H   0.7480607617  0.9483577413  0.2374837413
H  -2.5921654830 -2.1609813561  0.1759623675
H  -1.9797390096 -1.7142155615 -1.2809253995
H  -0.6568528091  3.0272032776  0.9752505335
H  -1.6408677894  1.6180286988  1.7809544741
H   2.7616232849  0.2478670471  1.5164716917
H   1.7324767821  0.6942262282 -2.0373446886
H   2.4432939831 -1.4378677926  1.0697068790
H   1.2813209425 -0.5344075347  2.0594602992
H   2.8734283015  1.2347228800 -0.8148507311
H   2.9267980347 -0.4413240318 -1.3825664631
22
Image 113  Energy = -383.5271314287
C  -0.7352755744 -1.3389631414  0.3102918129
C   1.2852265523  0.0328373865 -0.0260989821
C  -1.2703171315  2.1463897588  0.9207295090
C   1.9839471942 -0.4607913952  1.2286257589
C   2.2635951830  0.3878635418 -1.1328991798
N   0.3206086167 -0.9656281547 -0.5186074372
N  -2.0072290687 -1.4811479550 -0.2925812475
O  -1.5801914716  1.7135298537 -0.3269233855
H  -2.0032921741  0.8450919051 -0.2573135257
H  -0.0076783523 -0.6972105315 -1.4368329371
H  -0.5270240815 -1.8993084922  1.2097500922
H   0.7477472854  0.9482830587  0.2377205505
H  -2.5919275514 -2.1601804250  0.1761426147
H  -1.9792431312 -1.7145103616 -1.2809223194
H  -0.6570792746  3.0277773316  0.9751112623
H  -1.6410443071  1.6176967617  1.7815594073
H   2.7616096934  0.2477907576  1.5165981701
H   1.7324915467  0.6940665948 -2.0373599115
H   2.4433533228 -1.4379189743  1.0694013855
H   1.2813873899 -0.5347412313  2.0595201960
H   2.8736712976  1.2344702347 -0.8149618811
H   2.9265782983 -0.4417567588 -1.3824832085
22
Image 114  Energy = -383.5271611047
C  -0.7352206504 -1.3379168218  0.3106855324
C   1.2852296984  0.0330088367 -0.0260380339
C  -1.2702352305  2.1462161952  0.9207665285
C   1.9839545930 -0.4608803481  1.2286381468
C   2.2636176093  0.3877409144 -1.1328743552
N   0.3206335379 -0.9652422805 -0.5187521372
N  -2.0070653542 -1.4805210185 -0.2927823312
O  -1.5806501056  1.7131507493 -0.3272146868
H  -2.0036379518  0.8444105901 -0.2575807911
H  -0.0077486143 -0.6968955504 -1.4370058809
H  -0.5267051756 -1.8998514680  1.2097417342
H   0.7474503743  0.9482243696  0.2379529817
H  -2.5916917403 -2.1593677120  0.1763150167
H  -1.9787417692 -1.7148041884 -1.2809315871
H  -0.6573494000  3.0282883038  0.9749616216
H  -1.6411595934  1.6174537981  1.7820256182
H   2.7615935327  0.2477098292  1.5167229780
H   1.7325100471  0.6939073383 -2.0373693373
H   2.4434097327 -1.4379619390  1.0690997776
H   1.2814550683 -0.5350740979  2.0595758761
H   2.8739175757  1.2342183877 -0.8150762970
H   2.9263480763 -0.4421741229 -1.3823936305
22
Image 115  Energy = -383.5272848552
C  -0.7249536796 -1.3724951378  0.3135437004
C   1.2771011847  0.0310206106 -0.0230648685
C  -1.3298576967  2.2682514311  0.9322347512
C   1.9817879136 -0.4708145112  1.2249371768
C   2.2585795984  0.3745534503 -1.1312544947
N   0.3201859470 -0.9716744298 -0.5183222491
N  -1.9862823199 -1.5046030934 -0.3114910704
O  -1.5587006004  1.7284242513 -0.3025863538
H  -1.9397615060  0.8403446947 -0.2024984826
H  -0.0185413020 -0.6977174854 -1.4316645750
H  -0.5005901790 -2.0279210369  1.1548743716
H   0.7345848292  0.9449615211  0.2385535521
H  -2.5942337010 -2.1546393263  0.1688558922
H  -1.9383214745 -1.7640147349 -1.2941939192
H  -0.7586214212  3.1814311065  0.9604141769
H  -1.6179689565  1.7052219271  1.8111038389
H   2.7598030312  0.2354680466  1.5172605016
H   1.7344384609  0.6807832455 -2.0397586602
H   2.4448918707 -1.4429471835  1.0452019898
H   1.2847531218 -0.5627306165  2.0588774399
H   2.8840733757  1.2113314616 -0.8183297337
H   2.9075490312 -0.4685945747 -1.3742259365
22
Image 116  Energy = -383.5273668387
C  -0.7244990274 -1.3728723469  0.3142717395
C   1.2773644887  0.0309515978 -0.0230654517
C  -1.3311741126  2.2654862552  0.9312458889
C   1.9818406603 -0.4709281992  1.2249797165
C   2.2587155365  0.3744855873 -1.1312387019
N   0.3200838674 -0.9714074622 -0.5182265509
N  -1.9862783937 -1.5042228668 -0.3113730693
O  -1.5586386681  1.7289466061 -0.3007935758
H  -1.9396312472  0.8409193347 -0.2023924767
H  -0.0186383560 -0.6972819477 -1.4316468647
H  -0.5004713547 -2.0269062466  1.1538595391
H   0.7345920266  0.9448718816  0.2387508145
H  -2.5940056461 -2.1538405119  0.1686099645
H  -1.9382891320 -1.7642807494 -1.2939000147
H  -0.7590861760  3.1811596470  0.9597797805
H  -1.6173541989  1.7060710952  1.8104873145
H   2.7597321538  0.2354527678  1.5174185365
H   1.7343857219  0.6807107047 -2.0396660277
H   2.4449287272 -1.4429713657  1.0450694223
H   1.2848177673 -0.5630193167  2.0588395956
H   2.8842300617  1.2112054269 -0.8184080914
H   2.9072908291 -0.4688902746 -1.3741344416
22
Image 117  Energy = -383.5274019206
C  -0.7242409383 -1.3729109227  0.3144152133
C   1.2775596766  0.0309257278 -0.0230387307
C  -1.3316841257  2.2642236523  0.9308239043
C   1.9819061964 -0.4710323028  1.2250099633
C   2.2588268845  0.3744140438 -1.1312293605
N   0.3200016065 -0.9711501870 -0.5181192301
N  -1.9860892727 -1.5037311925 -0.3112517376
O  -1.5587998794  1.7289724479 -0.2999068143
H  -1.9395478773  0.8413799909 -0.2023506465
H  -0.0187447922 -0.6968658553 -1.4315773062
H  -0.5002495516 -2.0262090665  1.1532541944
H   0.7346347054  0.9447684391  0.2389421152
H  -2.5939023632 -2.1531592261  0.1684660417
H  -1.9382319326 -1.7645373036 -1.2936078033
H  -0.7598924252  3.1803545858  0.9591676476
H  -1.6169344852  1.7065475769  1.8102527337
H   2.7596631710  0.2354314182  1.5175776922
H   1.7343402202  0.6806367894 -2.0395713724
H   2.4449785010 -1.4430080907  1.0449398694
H   1.2848710109 -0.5633055357  2.0588085295
H   2.8843982689  1.2110852983 -0.8184840747
H   2.9070529302 -0.4691906715 -1.3740537817
22
Image 118  Energy = -383.5274264140
C  -0.7240507079 -1.3728073851  0.3143700916
C   1.2777180933  0.0309214836 -0.0229921146
C  -1.3319550120  2.2634320575  0.9306291272
C   1.9819741233 -0.4711317715  1.2250347025
C   2.2589201387  0.3743399350 -1.1312186598
N   0.3199548667 -0.9708840011 -0.5180660207
N  -1.9858915201 -1.5032221867 -0.3111657007
O  -1.5589959069  1.7289293426 -0.2994441126
H  -1.9395497594  0.8416422234 -0.2023158541
H  -0.0188471011 -0.6964606050 -1.4314780635
H  -0.4999852971 -2.0256604971  1.1528406106
H   0.7346957494  0.9446676089  0.2391306721
H  -2.5938392328 -2.1525140263  0.1683749655
H  -1.9381581647 -1.7647795689 -1.2933217900
H  -0.7607244566  3.1795167762  0.9585747945
H  -1.6166077301  1.7068490949  1.8102029305
H   2.7595987379  0.2354067270  1.5177378269
H   1.7342990625  0.6805627576 -2.0394783269
H   2.4450382618 -1.4430527564  1.0448125463
H   1.2849185276 -0.5635899502  2.0587797078
H   2.8845735953  1.2109660582 -0.8185593295
H   2.9068292588 -0.4694917006 -1.3739809548
22
Image 119  Energy = -383.5274463995
C  -0.7238859237 -1.3726373852  0.3142675338
C   1.2778566093  0.0309303812 -0.0229356352
C  -1.3321471504  2.2628121614  0.9305251011
C   1.9820411280 -0.4712300028  1.2250570053
C   2.2590019052  0.3742651850 -1.1312034660
N   0.3199396961 -0.9706147160 -0.5180561028
N  -1.9857215068 -1.5027164336 -0.3111118443
O  -1.5592032124  1.7288701581 -0.2991992219
H  -1.9396105726  0.8417680111 -0.2022858527
H  -0.0189459879 -0.6960566172 -1.4313737225
H  -0.4997027252 -2.0251911210  1.1525290442
H   0.7347669722  0.9445763876  0.2393183723
H  -2.5937931237 -2.1518827943  0.1683201518
H  -1.9380726450 -1.7650100802 -1.2930516729
H  -0.7615069254  3.1787656563  0.9580036540
H  -1.6163385247  1.7070431152  1.8102629415
H   2.7595388260  0.2353793717  1.5178984067
H   1.7342608875  0.6804890453 -2.0393877755
H   2.4451059437 -1.4431022676  1.0446871399
H   1.2849626491 -0.5638728855  2.0587518257
H   2.8847535261  1.2108451210 -0.8186349435
H   2.9066156820 -0.4697906749 -1.3739138901
22
Image 120  Energy = -383.5275378324
C  -0.7207030611 -1.3769871034  0.3122765059
C   1.2778177193  0.0311655869 -0.0216999200
C  -1.3418713226  2.2734804242  0.9306948102
C   1.9821147017 -0.4736708867  1.2252959371
C   2.2585943649  0.3720168687 -1.1309532915
N   0.3203860897 -0.9687952872 -0.5190568909
N  -1.9820004040 -1.5037660594 -0.3130936342
O  -1.5595028374  1.7316354910 -0.2966888881
H  -1.9325582197  0.8428161501 -0.1943671361
H  -0.0205373011 -0.6919755344 -1.4306865764
H  -0.4927800310 -2.0380115737  1.1424349067
H   0.7347719845  0.9444900820  0.2421382745
H  -2.5957163405 -2.1453326725  0.1693749479
H  -1.9327845793 -1.7725827143 -1.2931258623
H  -0.7790695384  3.1919616072  0.9499120694
H  -1.6115827150  1.7203927597  1.8167881433
H   2.7587364433  0.2329291618  1.5201872110
H   1.7342377516  0.6781329615 -2.0395657265
H   2.4468583063 -1.4440637210  1.0417940975
H   1.2858165108 -0.5709385510  2.0592351931
H   2.8877476150  1.2064081692 -0.8198762670
H   2.9019406128 -0.4756655231 -1.3725507621
22
Image 121  Energy = -383.5275506990
C  -0.7205689045 -1.3768109821  0.3123112547
C   1.2779509159  0.0311644818 -0.0216534263
C  -1.3420265944  2.2729954891  0.9306734389
C   1.9821987953 -0.4737813652  1.2253074989
C   2.2587023527  0.3719530620 -1.1309015066
N   0.3204015016 -0.9686114108 -0.5191318091
N  -1.9819935049 -1.5032618450 -0.3131201170
O  -1.5597924371  1.7314152251 -0.2964467591
H  -1.9328020366  0.8425706440 -0.1945054400
H  -0.0206252278 -0.6915029241 -1.4306501259
H  -0.4924952378 -2.0376240270  1.1423634413
H   0.7348884572  0.9444439642  0.2422936796
H  -2.5956155960 -2.1447334450  0.1693316088
H  -1.9328001327 -1.7728163962 -1.2929493779
H  -0.7794705985  3.1918330271  0.9495095669
H  -1.6114398990  1.7203357217  1.8167483372
H   2.7586884114  0.2329202671  1.5203551210
H   1.7342064027  0.6780752226 -2.0394201041
H   2.4469425338 -1.4441426013  1.0416600179
H   1.2858433154 -0.5711795349  2.0591592173
H   2.8879531271  1.2063108741 -0.8199607517
H   2.9017701074 -0.4759138118 -1.3725066230
22
Image 122  Energy = -383.5275628953
C  -0.7204562951 -1.3766059902  0.3122899099
C   1.2780786039  0.0311689301 -0.0216049213
C  -1.3421148455  2.2726381959  0.9306563170
C   1.9822815152 -0.4738895544  1.2253161613
C   2.2588024818  0.3718906684 -1.1308513479
N   0.3204225537 -0.9684265233 -0.5192041016
N  -1.9819536243 -1.5027497077 -0.3131473496
O  -1.5600969948  1.7311624629 -0.2962895092
H  -1.9330515206  0.8423103249 -0.1946384521
H  -0.0207137264 -0.6910322193 -1.4306080295
H  -0.4922120456 -2.0372653291  1.1423225827
H   0.7350082360  0.9444028512  0.2424482863
H  -2.5955458498 -2.1441562260  0.1693205231
H  -1.9328046106 -1.7730418886 -1.2927821768
H  -0.7798943543  3.1916689553  0.9491190070
H  -1.6113203398  1.7202324447  1.8167713072
H   2.7586410913  0.2329047663  1.5205208828
H   1.7341775140  0.6780185984 -2.0392791606
H   2.4470314744 -1.4442205739  1.0415289938
H   1.2858677097 -0.5714215743  2.0590874023
H   2.8881615745  1.2062115718 -0.8200434985
H   2.9016072041 -0.4761605476 -1.3724656885
22
Image 123  Energy = -383.5275747587
C  -0.7203492935 -1.3763895478  0.3122497837
C   1.2782024634  0.0311777944 -0.0215548112
C  -1.3421844741  2.2723179562  0.9306386967
C   1.9823619315 -0.4739968015  1.2253234503
C   2.2588979378  0.3718290508 -1.1308024703
N   0.3204493953 -0.9682395336 -0.5192800995
N  -1.9819085621 -1.5022458188 -0.3131760572
O  -1.5604044642  1.7309051181 -0.2961812794
H  -1.9333074583  0.8420335233 -0.1947627547
H  -0.0208012308 -0.6905626686 -1.4305620931
H  -0.4919354977 -2.0369201935  1.1422933051
H   0.7351302488  0.9443674502  0.2426023193
H  -2.5954914426 -2.1435858518  0.1693304802
H  -1.9327991487 -1.7732588161 -1.2926229355
H  -0.7803159226  3.1915094285  0.9487380040
H  -1.6112117296  1.7201079654  1.8168248576
H   2.7585950377  0.2328836416  1.5206847447
H   1.7341506067  0.6779632781 -2.0391430843
H   2.4471244418 -1.4442971080  1.0414007619
H   1.2858906623 -0.5716645294  2.0590185396
H   2.8883720592  1.2061097316 -0.8201248701
H   2.9014501908 -0.4764044337 -1.3724273507
