22
Image 0  Energy = -383.5275747587
C  -0.7203492935 -1.3763895478  0.3122497837
C   1.2782024634  0.0311777944 -0.0215548112
C  -1.3421844741  2.2723179562  0.9306386967
C   1.9823619315 -0.4739968015  1.2253234503
C   2.2588979378  0.3718290508 -1.1308024703
N   0.3204493953 -0.9682395336 -0.5192800995
N  -1.9819085621 -1.5022458188 -0.3131760572
O  -1.5604044642  1.7309051181 -0.2961812794
H  -1.9333074583  0.8420335233 -0.1947627547
H  -0.0208012308 -0.6905626686 -1.4305620931
H  -0.4919354977 -2.0369201935  1.1422933051
H   0.7351302488  0.9443674502  0.2426023193
H  -2.5954914426 -2.1435858518  0.1693304802
H  -1.9327991487 -1.7732588161 -1.2926229355
H  -0.7803159226  3.1915094285  0.9487380040
H  -1.6112117296  1.7201079654  1.8168248576
H   2.7585950377  0.2328836416  1.5206847447
H   1.7341506067  0.6779632781 -2.0391430843
H   2.4471244418 -1.4442971080  1.0414007619
H   1.2858906623 -0.5716645294  2.0590185396
H   2.8883720592  1.2061097316 -0.8201248701
H   2.9014501908 -0.4764044337 -1.3724273507
