22
Image 0  Energy = -383.6469144961
C  -0.9141084009 -0.5095367598  0.4608093850
C   1.4054111012  0.1773666831 -0.0206400918
C  -1.3137907394  0.9392507932  0.7709916016
C   2.0730224382 -0.3975062867  1.2209406753
C   2.3683841265  0.3495860699 -1.1842444199
N   0.2568021078 -0.6481223494 -0.4079160317
N  -2.0739933819 -1.1363985476 -0.1854892558
O  -1.8247000079  1.5660354287 -0.3863215829
H  -2.4985375958  0.9521214397 -0.7142059766
H  -0.0183856528 -0.3888249558 -1.3497727008
H  -0.7000309701 -1.0150690006  1.4070649933
H   1.0757648479  1.1917428613  0.2212813975
H  -2.4361777272 -1.9065260727  0.3577844433
H  -1.8203077707 -1.5094152402 -1.0907933467
H  -0.4667405674  1.5328489233  1.1078565042
H  -2.0467851710  0.9355749073  1.5852626442
H   2.8923933816  0.2450433911  1.5457879198
H   1.8257822951  0.6585512821 -2.0807691877
H   2.4635558616 -1.3977271496  1.0257330286
H   1.3668752395 -0.4687317059  2.0503591010
H   3.0719559961  1.1483223321 -0.9445397923
H   2.9335176070 -0.5549460419 -1.4107143158
