22
Image 0  Energy = -383.5281735479
C  -0.7781260000 -1.0675610000  0.3210590000
C   1.3025530000  0.0521200000 -0.0282990000
C  -0.9719930000  1.4562490000  0.8236570000
C   1.9812290000 -0.4184330000  1.2501750000
C   2.2640330000  0.4351680000 -1.1331070000
N   0.2911640000 -0.8768210000 -0.5003990000
N  -2.0191630000 -1.3720060000 -0.2331120000
O  -1.6647340000  1.6302230000 -0.4018370000
H  -2.2586320000  0.8701390000 -0.4758990000
H   0.0278490000 -0.6783120000 -1.4584950000
H  -0.6097590000 -1.3678560000  1.3411780000
H   0.6812640000  0.9183000000  0.2869410000
H  -2.5732630000 -2.0573610000  0.2574120000
H  -2.0524280000 -1.5045420000 -1.2338230000
H  -0.3689930000  2.3513920000  0.9917470000
H  -1.6396090000  1.2942150000  1.6746530000
H   2.7644490000  0.2914620000  1.5228460000
H   1.7251140000  0.7306950000 -2.0377940000
H   2.4355930000 -1.4060980000  1.1342150000
H   1.2730050000 -0.4472240000  2.0805790000
H   2.8503450000  1.2986970000 -0.8143220000
H   2.9600090000 -0.3688060000 -1.3889100000
22
Image 1  Energy = -383.5292433453
C  -0.7788470353 -1.0578435300  0.3220295878
C   1.3046338259  0.0514130720 -0.0285298758
C  -0.9795905345  1.4493897152  0.8249225383
C   1.9817324803 -0.4189914573  1.2489183060
C   2.2649762241  0.4341480473 -1.1335430261
N   0.2921716986 -0.8786231988 -0.5008733209
N  -2.0170229984 -1.3710667496 -0.2321390720
O  -1.6647874641  1.6299760130 -0.4014250984
H  -2.2583518671  0.8707545711 -0.4762128643
H   0.0275502074 -0.6779499025 -1.4580425121
H  -0.6096662237 -1.3683009841  1.3409795766
H   0.6825430423  0.9183669090  0.2859222316
H  -2.5728423670 -2.0566897018  0.2575499153
H  -2.0517562361 -1.5044585624 -1.2334716281
H  -0.3685339631  2.3499816220  0.9915746508
H  -1.6403187617  1.2955970041  1.6742955296
H   2.7643137998  0.2912053074  1.5227623629
H   1.7251996142  0.7305582978 -2.0375147934
H   2.4354758062 -1.4059710517  1.1342002218
H   1.2729090856 -0.4474107971  2.0803151801
H   2.8503562246  1.2983490067 -0.8143574701
H   2.9597624440 -0.3687936293 -1.3888954390
22
Image 2  Energy = -383.5301187376
C  -0.7795234725 -1.0483756460  0.3237964578
C   1.3060558675  0.0509723167 -0.0289069187
C  -0.9843202939  1.4441669769  0.8253227037
C   1.9821214583 -0.4194013412  1.2481690065
C   2.2657710939  0.4335052997 -1.1339216357
N   0.2933703828 -0.8800864409 -0.5011869987
N  -2.0154189588 -1.3702293706 -0.2315772864
O  -1.6652305684  1.6297572702 -0.4010577441
H  -2.2584275798  0.8711612118 -0.4768220347
H   0.0272826594 -0.6775534360 -1.4576793090
H  -0.6096085535 -1.3685212523  1.3404189723
H   0.6840838584  0.9181855553  0.2848008356
H  -2.5721645298 -2.0557904119  0.2577140832
H  -2.0509831320 -1.5042619272 -1.2328623991
H  -0.3689792797  2.3468133168  0.9912860344
H  -1.6422427665  1.2967037358  1.6749821602
H   2.7642104513  0.2909327503  1.5226653991
H   1.7253055723  0.7303859120 -2.0372330708
H   2.4354757190 -1.4060526654  1.1341491677
H   1.2729585443 -0.4475988230  2.0798282305
H   2.8504019706  1.2979601436 -0.8144249696
H   2.9597685560 -0.3690331737 -1.3889956828
22
Image 3  Energy = -383.5309524153
C  -0.7802511307 -1.0391380083  0.3257466802
C   1.3071616067  0.0506419529 -0.0293715788
C  -0.9878543196  1.4394916333  0.8253927271
C   1.9824678370 -0.4197337664  1.2476488402
C   2.2664857921  0.4330373179 -1.1342584970
N   0.2945669175 -0.8812927059 -0.5013263156
N  -2.0140495295 -1.3692949185 -0.2310762521
O  -1.6658672665  1.6296269850 -0.4007132845
H  -2.2587605703  0.8713961610 -0.4776188226
H   0.0270514841 -0.6771407955 -1.4573275083
H  -0.6095582818 -1.3685959149  1.3397845939
H   0.6857864417  0.9179140206  0.2836166148
H  -2.5713393663 -2.0547747053  0.2579293320
H  -2.0501180890 -1.5040054147 -1.2322087234
H  -0.3697281972  2.3428212701  0.9909648532
H  -1.6446661980  1.2976716564  1.6760227275
H   2.7641514407  0.2906668256  1.5225732674
H   1.7254194987  0.7301992262 -2.0369785546
H   2.4355370329 -1.4062410082  1.1340768193
H   1.2730582306 -0.4477923728  2.0792553805
H   2.8505035264  1.2975825449 -0.8145064375
H   2.9599101386 -0.3693999827 -1.3891608592
22
Image 4  Energy = -383.5317732221
C  -0.7810230978 -1.0301268393  0.3277447285
C   1.3081074443  0.0503634461 -0.0298730366
C  -0.9908747454  1.4349742788  0.8253488283
C   1.9828026064 -0.4200237971  1.2472345622
C   2.2671604713  0.4326511148 -1.1345729012
N   0.2956867513 -0.8822919725 -0.5013454199
N  -2.0128337276 -1.3682060118 -0.2305812070
O  -1.6666461653  1.6295491262 -0.4003760934
H  -2.2592714449  0.8715263270 -0.4785534889
H   0.0268625038 -0.6767223389 -1.4569478334
H  -0.6095151560 -1.3685428227  1.3391443321
H   0.6876065961  0.9176254480  0.2823888529
H  -2.5704108774 -2.0536863242  0.2582046005
H  -2.0491695289 -1.5037035570 -1.2315439702
H  -0.3705501678  2.3383615607  0.9906412963
H  -1.6472947074  1.2985483396  1.6771347623
H   2.7641382199  0.2904148936  1.5224924038
H   1.7255388012  0.7300067664 -2.0367588722
H   2.4356327644 -1.4064854276  1.1339906062
H   1.2731703937 -0.4479926618  2.0786534999
H   2.8506626139  1.2972311173 -0.8145950530
H   2.9601274504 -0.3698306643 -1.3893655959
22
Image 5  Energy = -383.5325887719
C  -0.7818245872 -1.0213374620  0.3297556472
C   1.3089659197  0.0501153876 -0.0303826927
C  -0.9936772492  1.4304810301  0.8252596460
C   1.9831395501 -0.4202890859  1.2468726533
C   2.2678170778  0.4323061254 -1.1348769066
N   0.2967096327 -0.8831216510 -0.5012776458
N  -2.0117503798 -1.3669495240 -0.2300810664
O  -1.6675403684  1.6294891440 -0.4000269546
H  -2.2599158613  0.8715926671 -0.4796009044
H   0.0267144684 -0.6763011451 -1.4565317634
H  -0.6094821864 -1.3683686430  1.3385180490
H   0.6895260796  0.9173568605  0.2811278758
H  -2.5693986911 -2.0525420729  0.2585371726
H  -2.0481441121 -1.5033635734 -1.2308723173
H  -0.3713501305  2.3335839719  0.9903274722
H  -1.6500094361  1.2993453157  1.6782120989
H   2.7641678272  0.2901777772  1.5224244099
H   1.7256641223  0.7298115797 -2.0365736402
H   2.4357492870 -1.4067598548  1.1338941659
H   1.2732815621 -0.4482000137  2.0780457633
H   2.8508748102  1.2969064609 -0.8146893667
H   2.9603896658 -0.3702932930 -1.3895966922
22
Image 6  Energy = -383.5334022320
C  -0.7826457353 -1.0127635332  0.3317683508
C   1.3097728371  0.0498906142 -0.0308858996
C  -0.9963971777  1.4259742321  0.8251419015
C   1.9834845771 -0.4205385225  1.2465400817
C   2.2684669904  0.4319847120 -1.1351769111
N   0.2976365901 -0.8838114275 -0.5011422151
N  -2.0107932212 -1.3655252483 -0.2295724575
O  -1.6685302059  1.6294241928 -0.3996515622
H  -2.2606700544  0.8716167890 -0.4807464149
H   0.0266031645 -0.6758774232 -1.4560819943
H  -0.6094620148 -1.3680780873  1.3379136722
H   0.6915374297  0.9171291869  0.2798401254
H  -2.5683146137 -2.0513503037  0.2589209083
H  -2.0470474906 -1.5029908637 -1.2301924554
H  -0.3720877093  2.3285577152  0.9900279786
H  -1.6527619327  1.3000609648  1.6792189630
H   2.7642361789  0.2899539593  1.5223691636
H   1.7257969530  0.7296145420 -2.0364199690
H   2.4358793890 -1.4070503185  1.1337892695
H   1.2733883270 -0.4484145033  2.0774412849
H   2.8511345575  1.2966047188 -0.8147899282
H   2.9606801614 -0.3707713946 -1.3898468882
22
Image 7  Energy = -383.5342154994
C  -0.7834806131 -1.0043970415  0.3337773358
C   1.3105476188  0.0496870251 -0.0313753736
C  -0.9990991244  1.4214493124  0.8249979839
C   1.9838401267 -0.4207763704  1.2462268588
C   2.2691157933  0.4316788022 -1.1354760209
N   0.2984752086 -0.8843849414 -0.5009510475
N  -2.0099585476 -1.3639370193 -0.2290535628
O  -1.6696013172  1.6293404385 -0.3992432672
H  -2.2615202771  0.8716101822 -0.4819798939
H   0.0265236701 -0.6754505614 -1.4556040122
H  -0.6094566852 -1.3676754010  1.3373355791
H   0.6936368347  0.9169555621  0.2785303532
H  -2.5671675504 -2.0501163884  0.2593492130
H  -2.0458846990 -1.5025899235 -1.2295020183
H  -0.3727459053  2.3233193801  0.9897441629
H  -1.6555319941  1.3006899995  1.6801467096
H   2.7643391703  0.2897411626  1.5223260151
H   1.7259387619  0.7294157761 -2.0362944985
H   2.4360191310 -1.4073490443  1.1336767789
H   1.2734911160 -0.4486360690  2.0768434596
H   2.8514367612  1.2963213348 -0.8148978157
H   2.9609895246 -0.3712562121 -1.3901119355
22
Image 8  Energy = -383.5350304533
C  -0.7843250528 -0.9962278357  0.3357784744
C   1.3113022853  0.0495038724 -0.0318478925
C  -1.0018137400  1.4169095512  0.8248278816
C   1.9842070746 -0.4210048089  1.2459284538
C   2.2697661372  0.4313843777 -1.1357756901
N   0.2992338010 -0.8848606483 -0.5007119828
N  -2.0092421722 -1.3621902480 -0.2285230060
O  -1.6707438124  1.6292301176 -0.3988019245
H  -2.2624575676  0.8715794235 -0.4832933619
H   0.0264712490 -0.6750198562 -1.4551031399
H  -0.6094678777 -1.3671644267  1.3367865734
H   0.6958208462  0.9168449137  0.2772026203
H  -2.5659651266 -2.0488443681  0.2598160513
H  -2.0446603233 -1.5021644121 -1.2287986279
H  -0.3733184942  2.3178915758  0.9894759854
H  -1.6583112327  1.3012272688  1.6809969683
H   2.7644732189  0.2895371999  1.5222943072
H   1.7260907922  0.7292151752 -2.0361939837
H   2.4361662271 -1.4076514241  1.1335571590
H   1.2735915983 -0.4488645461  2.0762534669
H   2.8517770047  1.2960520647 -0.8150141395
H   2.9613121706 -0.3717429618 -1.3903891881
22
Image 9  Energy = -383.5358488988
C  -0.7851760067 -0.9882437767  0.3377681778
C   1.3120451122  0.0493405252 -0.0323024294
C  -1.0045543082  1.4123564520  0.8246320925
C   1.9845854538 -0.4212249806  1.2456427541
C   2.2704191964  0.4310987067 -1.1360766789
N   0.2999196409 -0.8852524919 -0.5004305417
N  -2.0086387294 -1.3602911667 -0.2279794757
O  -1.6719509648  1.6290897595 -0.3983316925
H  -2.2634756477  0.8715283891 -0.4846801029
H   0.0264416508 -0.6745847835 -1.4545835684
H  -0.6094970478 -1.3665484138  1.3362683678
H   0.6980853315  0.9168034540  0.2758606650
H  -2.5647139680 -2.0475372456  0.2603161057
H  -2.0433785642 -1.5017171525 -1.2280800603
H  -0.3738044985  2.3122905645  0.9892229513
H  -1.6610963287  1.3016690749  1.6817749203
H   2.7646353174  0.2893401386  1.5222734884
H   1.7262539738  0.7290126044 -2.0361155483
H   2.4363193720 -1.4079546219  1.1334306787
H   1.2736917277 -0.4490996499  2.0756715793
H   2.8521517055  1.2957935069 -0.8151397777
H   2.9616445882 -0.3722288900 -1.3906769016
22
Image 10  Energy = -383.5366726759
C  -0.7860311001 -0.9804309265  0.3397439468
C   1.3127821925  0.0491962217 -0.0327388210
C  -1.0073245880  1.4077874417  0.8244117125
C   1.9849750467 -0.4214375068  1.2453683339
C   2.2710757136  0.4308197724 -1.1363793845
N   0.3005388765 -0.8855707421 -0.5001105701
N  -2.0081419934 -1.3582464669 -0.2274221187
O  -1.6732184087  1.6289182976 -0.3978389016
H  -2.2645695095  0.8714598662 -0.4861342459
H   0.0264310460 -0.6741449404 -1.4540486998
H  -0.6095455197 -1.3658299197  1.3357816826
H   0.7004253886  0.9168352417  0.2745079506
H  -2.5634198941 -2.0461972637  0.2608448569
H  -2.0420432974 -1.5012501742 -1.2273441334
H  -0.3742059417  2.3065288974  0.9889843948
H  -1.6638862140  1.3020133736  1.6824866052
H   2.7648229207  0.2891483628  1.5222631316
H   1.7264288957  0.7288079902 -2.0360567805
H   2.4364777641 -1.4082568030  1.1332975679
H   1.2737932613 -0.4493410147  2.0750978414
H   2.8525577744  1.2955427735 -0.8152754365
H   2.9619845934 -0.3727124784 -1.3909739290
22
Image 11  Energy = -383.5375037821
C  -0.7868885721 -0.9727737120  0.3417043631
C   1.3135180805  0.0490701268 -0.0331577325
C  -1.0101232487  1.4031959883  0.8241679533
C   1.9853754722 -0.4216428206  1.2451042732
C   2.2717360421  0.4305457946 -1.1366840239
N   0.3010968310 -0.8858227589 -0.4997552737
N  -2.0077454939 -1.3560631553 -0.2268502631
O  -1.6745430466  1.6287161621 -0.3973304138
H  -2.2657350718  0.8713759661 -0.4876506524
H   0.0264361374 -0.6737000879 -1.4535008323
H  -0.6096144694 -1.3650109416  1.3353265868
H   0.7028355683  0.9169427125  0.2731476924
H  -2.5620878859 -2.0448259453  0.2613984021
H  -2.0406580781 -1.5007648765 -1.2265888875
H  -0.3745265995  2.3006165930  0.9887596399
H  -1.6666807135  1.3022595606  1.6831377817
H   2.7650339449  0.2889605399  1.5222629310
H   1.7266159138  0.7286013003 -2.0360156121
H   2.4366409879 -1.4085567851  1.1331580317
H   1.2738977086 -0.4495881944  2.0745322104
H   2.8529926118  1.2952975315 -0.8154216374
H   2.9623308873 -0.3731929938 -1.3912795332
22
Image 12  Energy = -383.5383442984
C  -0.7877473009 -0.9652554443  0.3436491316
C   1.3142559726  0.0489616789 -0.0335600371
C  -1.0129462911  1.3985728887  0.8239016656
C   1.9857864101 -0.4218414053  1.2448498712
C   2.2724004247  0.4302752538 -1.1369908292
N   0.3015982456 -0.8860139084 -0.4993671935
N  -2.0074428337 -1.3537484063 -0.2262634530
O  -1.6759223284  1.6284845236 -0.3968125581
H  -2.2669689348  0.8712783850 -0.4892248279
H   0.0264540082 -0.6732500209 -1.4529417217
H  -0.6097049398 -1.3640929682  1.3349025923
H   0.7053103893  0.9171268137  0.2717827391
H  -2.5607220960 -2.0434241885  0.2619733712
H  -2.0392261437 -1.5002621323 -1.2258125595
H  -0.3747713751  2.2945615145  0.9885480082
H  -1.6694799222  1.3024080757  1.6837335256
H   2.7652666369  0.2887756033  1.5222726668
H   1.7268152203  0.7283925201 -2.0359902252
H   2.4368087613 -1.4088536941  1.1330122918
H   1.2740063588 -0.4498406972  2.0739745536
H   2.8534539838  1.2950558327 -0.8155787636
H   2.9626827616 -0.3736702181 -1.3915932448
22
Image 13  Energy = -383.5391963363
C  -0.7886067809 -0.9578585712  0.3455789878
C   1.3149981009  0.0488703858 -0.0339467077
C  -1.0157887281  1.3939073733  0.8236133957
C   1.9862075110 -0.4220335166  1.2446043947
C   2.2730692806  0.4300068463 -1.1373001173
N   0.3020475779 -0.8861481057 -0.4989485136
N  -2.0072278514 -1.3513091384 -0.2256616411
O  -1.6773539657  1.6282246821 -0.3962906707
H  -2.2682680980  0.8711687119 -0.4908528327
H   0.0264821075 -0.6727945375 -1.4523726504
H  -0.6098178113 -1.3630771458  1.3345089171
H   0.7078445005  0.9173874405  0.2704156401
H  -2.5593261432 -2.0419926783  0.2625669838
H  -2.0377504440 -1.4997424418 -1.2250135504
H  -0.3749458619  2.2883696574  0.9883487828
H  -1.6722837459  1.3024600275  1.6842779101
H   2.7655195201  0.2885926833  1.5222921695
H   1.7270268792  0.7281816230 -2.0359790165
H   2.4369809795 -1.4091470443  1.1328605673
H   1.2741202271 -0.4500980430  2.0734248509
H   2.8539399268  1.2948160072 -0.8157471101
H   2.9630398252 -0.3741442083 -1.3919147864
22
Image 14  Energy = -383.5400620250
C  -0.7894671294 -0.9505650977  0.3474953271
C   1.3157460204  0.0487960761 -0.0343188532
C  -1.0186454181  1.3891880791  0.8233031013
C   1.9866384298 -0.4222193548  1.2443672805
C   2.2737427214  0.4297393778 -1.1376120359
N   0.3024490087 -0.8862283305 -0.4985012631
N  -2.0070948083 -1.3487520155 -0.2250448719
O  -1.6788355175  1.6279378104 -0.3957688076
H  -2.2696299729  0.8710484001 -0.4925312417
H   0.0265182246 -0.6723334321 -1.4517944707
H  -0.6099538209 -1.3619643407  1.3341446548
H   0.7104330120  0.9177236273  0.2690485515
H  -2.5579030286 -2.0405318058  0.2631768613
H  -2.0362336405 -1.4992060392 -1.2241905197
H  -0.3750560090  2.2820454122  0.9881611995
H  -1.6750918751  1.3024168577  1.6847742195
H   2.7657913175  0.2884110292  1.5223213056
H   1.7272508646  0.7279686186 -2.0359806458
H   2.4371576464 -1.4094365482  1.1327030571
H   1.2742401911 -0.4503597324  2.0728830240
H   2.8544488004  1.2945767227 -0.8159268696
H   2.9634019891 -0.3746153072 -1.3922440011
22
Image 15  Energy = -383.5409435068
C  -0.7903287507 -0.9433569083  0.3494003585
C   1.3165005240  0.0487387741 -0.0346774610
C  -1.0215113694  1.3844038830  0.8229704324
C   1.9870787758 -0.4223991979  1.2441379079
C   2.2744211682  0.4294719087 -1.1379267622
N   0.3028064132 -0.8862569771 -0.4980270702
N  -2.0070385879 -1.3460833917 -0.2244133440
O  -1.6803644813  1.6276247987 -0.3952499303
H  -2.2710522807  0.8709188315 -0.4942570867
H   0.0265604326 -0.6718664148 -1.4512078566
H  -0.6101136166 -1.3607551652  1.3338086317
H   0.7130715764  0.9181337440  0.2676832818
H  -2.5564552327 -2.0390417820  0.2638009635
H  -2.0346781326 -1.4986529707 -1.2233423428
H  -0.3751080054  2.2755915843  0.9879844436
H  -1.6779036625  1.3022801060  1.6852248776
H   2.7660810264  0.2882301049  1.5223599958
H   1.7274870194  0.7277535092 -2.0359939836
H   2.4373387551 -1.4097219742  1.1325399699
H   1.2743670016 -0.4506253049  2.0723489726
H   2.8549791669  1.2943367968 -0.8161181972
H   2.9637692670 -0.3750839473 -1.3925807983
22
Image 16  Energy = -383.5418428624
C  -0.7911926404 -0.9362161889  0.3512964482
C   1.3172622527  0.0486985927 -0.0350236321
C  -1.0243823260  1.3795441612  0.8226146397
C   1.9875283531 -0.4225732481  1.2439155950
C   2.2751046847  0.4292036679 -1.1382443854
N   0.3031233856 -0.8862359705 -0.4975274015
N  -2.0070544003 -1.3433089857 -0.2237672806
O  -1.6819381401  1.6272861133 -0.3947358995
H  -2.2725329492  0.8707814047 -0.4960277617
H   0.0266070806 -0.6713931625 -1.4506132294
H  -0.6102977186 -1.3594500806  1.3334997604
H   0.7157563647  0.9186158525  0.2663213428
H  -2.5549848960 -2.0375228507  0.2644376548
H  -2.0330860644 -1.4980831644 -1.2224681539
H  -0.3751079716  2.2690098396  0.9878176241
H  -1.6807181316  1.3020512109  1.6856316297
H   2.7663877269  0.2880494479  1.5224081720
H   1.7277352045  0.7275362926 -2.0360180047
H   2.4375242785 -1.4100031516  1.1323714943
H   1.2745012214 -0.4508943391  2.0718227318
H   2.8555298502  1.2940953054 -0.8163211934
H   2.9641418417 -0.3755507399 -1.3929251495
22
Image 17  Energy = -383.5427621904
C  -0.7920598277 -0.9291257126  0.3531863603
C   1.3180313709  0.0486757693 -0.0353582993
C  -1.0272546913  1.3745992202  0.8222348002
C   1.9879868514 -0.4227415381  1.2436998608
C   2.2757935960  0.4289340395 -1.1385650979
N   0.3034030459 -0.8861669796 -0.4970034692
N  -2.0071381424 -1.3404341331 -0.2231071174
O  -1.6835535478  1.6269219198 -0.3942277422
H  -2.2740702328  0.8706373720 -0.4978410312
H   0.0266567772 -0.6709132938 -1.4500107740
H  -0.6105065854 -1.3580493120  1.3332167802
H   0.7184841643  0.9191677086  0.2649639366
H  -2.5534937192 -2.0359751510  0.2650855319
H  -2.0314593463 -1.4974964419 -1.2215671467
H  -0.3750618847  2.2623008405  0.9876598132
H  -1.6835339903  1.3017313865  1.6859956256
H   2.7667106235  0.2878686455  1.5224657568
H   1.7279952248  0.7273169581 -2.0360518479
H   2.4377142616 -1.4102800627  1.1321977751
H   1.2746434097 -0.4511664414  2.0713042066
H   2.8560998405  1.2938514571 -0.8165359254
H   2.9645198087 -0.3760162454 -1.3932769953
22
Image 18  Energy = -383.5437033788
C  -0.7929317530 -0.9220691769  0.3550727205
C   1.3188079198  0.0486706551 -0.0356823563
C  -1.0301254564  1.3695605364  0.8218298156
C   1.9884540553 -0.4229041952  1.2434901329
C   2.2764882121  0.4286625585 -1.1388890232
N   0.3036481982 -0.8860514780 -0.4964560879
N  -2.0072861558 -1.3374637035 -0.2224331683
O  -1.6852077437  1.6265318529 -0.3937258592
H  -2.2756624700  0.8704880774 -0.4996949216
H   0.0267082868 -0.6704263456 -1.4494007119
H  -0.6107406171 -1.3565529523  1.3329585198
H   0.7212523388  0.9197869558  0.2636120104
H  -2.5519830395 -2.0343987451  0.2657433813
H  -2.0297996594 -1.4968925638 -1.2206386652
H  -0.3749754782  2.2554644508  0.9875100440
H  -1.6863497859  1.3013215248  1.6863176333
H   2.7670490665  0.2876874233  1.5225327079
H   1.7282668684  0.7270954901 -2.0360947316
H   2.4379086550 -1.4105526266  1.1320189595
H   1.2747940352 -0.4514412708  2.0707933279
H   2.8566882698  1.2936045687 -0.8167624578
H   2.9649032612 -0.3764810322 -1.3936362704
22
Image 19  Energy = -383.5446683773
C  -0.7938099047 -0.9150315908  0.3569582563
C   1.3195919976  0.0486835448 -0.0359967136
C  -1.0329921858  1.3644210230  0.8213986554
C   1.9889296617 -0.4230611470  1.2432859953
C   2.2771885466  0.4283888978 -1.1392161804
N   0.3038612501 -0.8858906992 -0.4958859308
N  -2.0074952576 -1.3344019549 -0.2217458545
O  -1.6868975879  1.6261153934 -0.3932302163
H  -2.2773083169  0.8703346432 -0.5015877328
H   0.0267605838 -0.6699318245 -1.4487830458
H  -0.6110001940 -1.3549608783  1.3327237009
H   0.7240586775  0.9204712825  0.2622663255
H  -2.5504539736 -2.0327938093  0.2664102682
H  -2.0281084811 -1.4962712607 -1.2196821806
H  -0.3748542433  2.2484998818  0.9873673092
H  -1.6891638411  1.3008221373  1.6865980318
H   2.7674024470  0.2875055012  1.5226089570
H   1.7285499569  0.7268718595 -2.0361459913
H   2.4381074816 -1.4108208913  1.1318351185
H   1.2749535526 -0.4517184977  2.0702899912
H   2.8572944823  1.2933541418 -0.8170008206
H   2.9652923560 -0.3769457463 -1.3940029431
22
Image 20  Energy = -383.5456588548
C  -0.7946958231 -0.9079993678  0.3588453020
C   1.3203834267  0.0487147503 -0.0363019542
C  -1.0358531158  1.3591748839  0.8209402188
C   1.9894136310 -0.4232124791  1.2430868147
C   2.2778949692  0.4281128070 -1.1395467677
N   0.3040440403 -0.8856856864 -0.4952935398
N  -2.0077626102 -1.3312526895 -0.2210455931
O  -1.6886198972  1.6256715909 -0.3927404290
H  -2.2790064882  0.8701782440 -0.5035179374
H   0.0268128321 -0.6694292283 -1.4481575606
H  -0.6112856710 -1.3532728516  1.3325111645
H   0.7269014459  0.9212183711  0.2609274353
H  -2.5489074276 -2.0311605549  0.2670854424
H  -2.0263871095 -1.4956322334 -1.2186972486
H  -0.3747032375  2.2414061249  0.9872306109
H  -1.6919743580  1.3002333359  1.6868370020
H   2.7677702622  0.2873227033  1.5226944652
H   1.7288442445  0.7266460480 -2.0362050450
H   2.4383106287 -1.4110847449  1.1316463381
H   1.2751222519 -0.4519978436  2.0697942079
H   2.8579179078  1.2930997590 -0.8172510244
H   2.9656871069 -0.3774109340 -1.3943769034
22
Image 21  Energy = -383.5466764367
C  -0.7955910522 -0.9009607289  0.3607360796
C   1.3211821634  0.0487644924 -0.0365987764
C  -1.0387068817  1.3538178946  0.8204536372
C   1.9899057222 -0.4233581637  1.2428921942
C   2.2786075295  0.4278340892 -1.1398808165
N   0.3041981286 -0.8854372614 -0.4946791475
N  -2.0080859787 -1.3280194598 -0.2203326803
O  -1.6903715253  1.6251993340 -0.3922560495
H  -2.2807558548  0.8700199439 -0.5054841773
H   0.0268642856 -0.6689180003 -1.4475240542
H  -0.6115974088 -1.3514884535  1.3323196954
H   0.7297792310  0.9220260886  0.2595958000
H  -2.5473439466 -2.0294990373  0.2677681788
H  -2.0246366865 -1.4949751840 -1.2176835202
H  -0.3745271712  2.2341819554  0.9870989589
H  -1.6947794166  1.2995548178  1.6870345101
H   2.7681520882  0.2871388873  1.5227891986
H   1.7291495396  0.7264180307 -2.0362713837
H   2.4385180216 -1.4113441599  1.1314526584
H   1.2753005331 -0.4522790479  2.0693058295
H   2.8585581317  1.2928411130 -0.8175130770
H   2.9660875572 -0.3778771459 -1.3947580592
22
Image 22  Energy = -383.5477224855
C  -0.7964971089 -0.8939055990  0.3626323463
C   1.3219881428  0.0488330530 -0.0368877027
C  -1.0415524258  1.3483471628  0.8199380925
C   1.9904057367 -0.4234981548  1.2427017573
C   2.2793263564  0.4275526335 -1.1402183742
N   0.3043245515 -0.8851461199 -0.4940428027
N  -2.0084633593 -1.3247053335 -0.2196077277
O  -1.6921492076  1.6246974173 -0.3917764997
H  -2.2825554770  0.8698606242 -0.5074852279
H   0.0269143214 -0.6683975710 -1.4468822284
H  -0.6119357290 -1.3496071409  1.3321481948
H   0.7326909442  0.9228923988  0.2582717434
H  -2.5457640480 -2.0278095239  0.2684580082
H  -2.0228582178 -1.4942997861 -1.2166405562
H  -0.3743303626  2.2268262193  0.9869713908
H  -1.6975771159  1.2987859262  1.6871904915
H   2.7685475934  0.2869539726  1.5228931132
H   1.7294656210  0.7261877869 -2.0363445977
H   2.4387295903 -1.4115991510  1.1312540936
H   1.2754887038 -0.4525618835  2.0688247445
H   2.8592148250  1.2925779722 -0.8177869747
H   2.9664936756 -0.3783449002 -1.3951462851
22
Image 23  Energy = -383.5487982671
C  -0.7974154748 -0.8868257244  0.3645354645
C   1.3228012402  0.0489205968 -0.0371691788
C  -1.0443889371  1.3427611608  0.8193930565
C   1.9909136823 -0.4236323930  1.2425150585
C   2.2800516022  0.4272684189 -1.1405594466
N   0.3044240590 -0.8848127158 -0.4933843727
N  -2.0088930898 -1.3213131403 -0.2188710580
O  -1.6939499378  1.6241643535 -0.3913013645
H  -2.2844043575  0.8697012717 -0.5095199379
H   0.0269623837 -0.6678673456 -1.4462317494
H  -0.6123009876 -1.3476282937  1.3319956234
H   0.7356356814  0.9238154745  0.2569555519
H  -2.5441680300 -2.0260921964  0.2691544800
H  -2.0210525860 -1.4936057536 -1.2155681120
H  -0.3741167564  2.2193378684  0.9868469990
H  -1.7003654887  1.2979256715  1.6873047834
H   2.7689564013  0.2867678375  1.5230061595
H   1.7297922671  0.7259552986 -2.0364243076
H   2.4389452146 -1.4118496627  1.1310506501
H   1.2756870000 -0.4528461299  2.0683508952
H   2.8598876938  1.2923100999 -0.8180727374
H   2.9669054315 -0.3788146949 -1.3955414584
22
Image 24  Energy = -383.5499048419
C  -0.7983475050 -0.8797145392  0.3664464260
C   1.3236213887  0.0490273133 -0.0374433963
C  -1.0472157821  1.3370593786  0.8188180913
C   1.9914294489 -0.4237608418  1.2423317433
C   2.2807834004  0.4269813181 -1.1409042055
N   0.3044970230 -0.8844372945 -0.4927036394
N  -2.0093739177 -1.3178455644 -0.2181231660
O  -1.6957705567  1.6235988314 -0.3908302215
H  -2.2863017390  0.8695425756 -0.5115872543
H   0.0270079910 -0.6673267359 -1.4455722122
H  -0.6126935051 -1.3455512071  1.3318610468
H   0.7386127325  0.9247935904  0.2556474453
H  -2.5425560836 -2.0243472607  0.2698572629
H  -2.0192205661 -1.4928927802 -1.2144659128
H  -0.3738899137  2.2117162076  0.9867249259
H  -1.7031426097  1.2969727961  1.6873772259
H   2.7693782513  0.2865804645  1.5231282867
H   1.7301292894  0.7257205362 -2.0365101530
H   2.4391647584 -1.4120956579  1.1308423013
H   1.2758956665 -0.4531315915  2.0678841627
H   2.8605765526  1.2920373844 -0.8183703393
H   2.9673226880 -0.3792869213 -1.3959434180
22
Image 25  Energy = -383.5510430508
C  -0.7992946156 -0.8725670421  0.3683658753
C   1.3244485809  0.0491532374 -0.0377107189
C  -1.0500323761  1.3312420486  0.8182129855
C   1.9919528877 -0.4238834770  1.2421515510
C   2.2815217960  0.4266912813 -1.1412525780
N   0.3045435398 -0.8840198573 -0.4920003486
N  -2.0099045368 -1.3143049125 -0.2173645670
O  -1.6976082994  1.6229993230 -0.3903629546
H  -2.2882466839  0.8693853973 -0.5136861208
H   0.0270507276 -0.6667751583 -1.4449031012
H  -0.6131136023 -1.3433751144  1.3317436187
H   0.7416214387  0.9258252754  0.2543476511
H  -2.5409283981 -2.0225750628  0.2705661645
H  -2.0173628886 -1.4921606045 -1.2133337713
H  -0.3736529791  2.2039609471  0.9866044187
H  -1.7059066205  1.2959258546  1.6874076933
H   2.7698129635  0.2863918508  1.5232594630
H   1.7304764701  0.7254835057 -2.0366018729
H   2.4393881154 -1.4123371072  1.1306290127
H   1.2761149384 -0.4534180768  2.0674244013
H   2.8612812225  1.2917596953 -0.8186797941
H   2.9677453321 -0.3797620032 -1.3963520087
22
Image 26  Energy = -383.5522136890
C  -0.8002580731 -0.8653794582  0.3702941171
C   1.3252829064  0.0492984880 -0.0379712192
C  -1.0528382042  1.3253100304  0.8175776480
C   1.9924839894 -0.4240001249  1.2419741669
C   2.2822668053  0.4263982193 -1.1416045538
N   0.3045635142 -0.8835602356 -0.4912741010
N  -2.0104841400 -1.3106936268 -0.2165958469
O  -1.6994602586  1.6223646571 -0.3898995651
H  -2.2902385037  0.8692302642 -0.5158155514
H   0.0270901571 -0.6662120118 -1.4442239913
H  -0.6135615589 -1.3410992808  1.3316426694
H   0.7446612372  0.9269091307  0.2530563622
H  -2.5392850364 -2.0207758389  0.2712809864
H  -2.0154801955 -1.4914089404 -1.2121714298
H  -0.3734088162  2.1960721457  0.9864847711
H  -1.7086556817  1.2947832454  1.6873960846
H   2.7702602769  0.2862019367  1.5233996105
H   1.7308335700  0.7252442063 -2.0366992728
H   2.4396151879 -1.4125740368  1.1304107305
H   1.2763449603 -0.4537054038  2.0669715464
H   2.8620016172  1.2914769700 -0.8190010774
H   2.9681732607 -0.3802403351 -1.3967670855
22
Image 27  Energy = -383.5534174049
C  -0.8012389722 -0.8581490949  0.3722312224
C   1.3261243201  0.0494631332 -0.0382248331
C  -1.0556326853  1.3192644631  0.8169120540
C   1.9930226936 -0.4241108430  1.2417993010
C   2.2830184018  0.4261020940 -1.1419603580
N   0.3045565647 -0.8830580663 -0.4905244117
N  -2.0111119747 -1.3070139646 -0.2158175495
O  -1.7013239295  1.6216934485 -0.3894402448
H  -2.2922762824  0.8690779394 -0.5179745476
H   0.0271258983 -0.6656366890 -1.4435344397
H  -0.6140376523 -1.3387229337  1.3315576217
H   0.7477316324  0.9280438959  0.2517737719
H  -2.5376260442 -2.0189498819  0.2720016184
H  -2.0135731012 -1.4906375475 -1.2109788025
H  -0.3731599551  2.1880502686  0.9863653813
H  -1.7113880478  1.2935432916  1.6873423160
H   2.7707200508  0.2860107560  1.5235486812
H   1.7312004753  0.7250025903 -2.0368019985
H   2.4398457949 -1.4128063261  1.1301874304
H   1.2765858994 -0.4539934050  2.0665254463
H   2.8627376239  1.2911891206 -0.8193341809
H   2.9686063064 -0.3807222502 -1.3971884799
22
Image 28  Energy = -383.5546547264
C  -0.8022386815 -0.8508740341  0.3741771542
C   1.3269728893  0.0496471303 -0.0384716887
C  -1.0584151985  1.3131065396  0.8162162113
C   1.9935689400 -0.4242155068  1.2416268000
C   2.2837766408  0.4258028059 -1.1423198984
N   0.3045224161 -0.8825127296 -0.4897508601
N  -2.0117873939 -1.3032681754 -0.2150301747
O  -1.7031967577  1.6209846658 -0.3889853275
H  -2.2943592689  0.8689289318 -0.5201621482
H   0.0271575555 -0.6650485898 -1.4428339557
H  -0.6145421221 -1.3362453235  1.3314879931
H   0.7508320660  0.9292284943  0.2505001129
H  -2.5359514238 -2.0170974540  0.2727279875
H  -2.0116421827 -1.4898462005 -1.2097558522
H  -0.3729086666  2.1798961306  0.9862457099
H  -1.7141020531  1.2922042825  1.6872463756
H   2.7711921383  0.2858183017  1.5237066018
H   1.7315769312  0.7247586754 -2.0369099252
H   2.4400798519 -1.4130340091  1.1299590463
H   1.2768378644 -0.4542819100  2.0660859986
H   2.8634891468  1.2908960609 -0.8196791089
H   2.9690443257 -0.3812080854 -1.3976160533
22
Image 29  Energy = -383.5559261770
C  -0.8032583240 -0.8435528692  0.3761316872
C   1.3278286636  0.0498505425 -0.0387116976
C  -1.0611851392  1.3068372770  0.8154900827
C   1.9941227576 -0.4243140753  1.2414564974
C   2.2845414927  0.4255002779 -1.1426831579
N   0.3044604900 -0.8819235202 -0.4889528895
N  -2.0125097371 -1.2994583731 -0.2142345206
O  -1.7050764010  1.6202373649 -0.3885352812
H  -2.2964866458  0.8687837811 -0.5223773939
H   0.0271847297 -0.6644470890 -1.4421221711
H  -0.6150751850 -1.3336657518  1.3314334749
H   0.7539620810  0.9304618825  0.2492355987
H  -2.5342612916 -2.0152189767  0.2734601613
H  -2.0096880018 -1.4890346595 -1.2085024186
H  -0.3726569268  2.1716108950  0.9861253252
H  -1.7167960683  1.2907645019  1.6871082288
H   2.7716763709  0.2856245646  1.5238732958
H   1.7319627243  0.7245124629 -2.0370228965
H   2.4403171934 -1.4132570057  1.1297255279
H   1.2771009595 -0.4545707549  2.0656530742
H   2.8642560945  1.2905976890 -0.8200358674
H   2.9694871803 -0.3816981643 -1.3980496623
22
Image 30  Energy = -383.5572322496
C  -0.8042990746 -0.8361844242  0.3780947193
C   1.3286917154  0.0500733846 -0.0389448067
C  -1.0639417528  1.3004575036  0.8147337017
C   1.9946840359 -0.4244064588  1.2412882781
C   2.2853127967  0.4251943401 -1.1430503099
N   0.3043702557 -0.8812895535 -0.4881301578
N  -2.0132785843 -1.2955867993 -0.2134311095
O  -1.7069607366  1.6194506830 -0.3880907658
H  -2.2986575203  0.8686430774 -0.5246193158
H   0.0272070617 -0.6638315822 -1.4413985675
H  -0.6156370344 -1.3309835425  1.3313938139
H   0.7571211898  0.9317431418  0.2479804804
H  -2.5325556643 -2.0133147375  0.2741981464
H  -2.0077111111 -1.4882027488 -1.2072186220
H  -0.3724065546  2.1631958712  0.9860038299
H  -1.7194685285  1.2892222455  1.6869278507
H   2.7721726930  0.2854295758  1.5240486929
H   1.7323577279  0.7242639141 -2.0371406515
H   2.4405577415 -1.4134753387  1.1294868083
H   1.2773752240 -0.4548597760  2.0652265741
H   2.8650384372  1.2902939762 -0.8204044341
H   2.9699346989 -0.3821927509 -1.3984891568
22
Image 31  Energy = -383.5585734610
C  -0.8053621267 -0.8287676586  0.3800660100
C   1.3295620658  0.0503156332 -0.0391708992
C  -1.0666842013  1.2939677685  0.8139468625
C   1.9952528415 -0.4244926140  1.2411219767
C   2.2860906238  0.4248848792 -1.1434212848
N   0.3042512781 -0.8806098131 -0.4872820134
N  -2.0140936174 -1.2916557431 -0.2126205688
O  -1.7088477084  1.6186238993 -0.3876524385
H  -2.3008710312  0.8685073589 -0.5268869901
H   0.0272240985 -0.6632014073 -1.4406628823
H  -0.6162278399 -1.3281980885  1.3313688849
H   0.7603089170  0.9330714381  0.2467350168
H  -2.5308345882 -2.0113850315  0.2749420022
H  -2.0057120113 -1.4873502575 -1.2059044617
H  -0.3721591868  2.1546525083  0.9858809088
H  -1.7221179703  1.2875758348  1.6867052859
H   2.7726809721  0.2852333248  1.5242327049
H   1.7327616934  0.7240130436 -2.0372631004
H   2.4408013283 -1.4136889190  1.1292428547
H   1.2776606790 -0.4551488195  2.0648063914
H   2.8658360638  1.2899847893 -0.8207848391
H   2.9703867366 -0.3826921235 -1.3989344219
22
Image 32  Energy = -383.5599503063
C  -0.8064487097 -0.8213016432  0.3820456009
C   1.3304397586  0.0505773115 -0.0393899208
C  -1.0694116752  1.2873683003  0.8131293869
C   1.9958291057 -0.4245724471  1.2409575673
C   2.2868749939  0.4245717785 -1.1437960980
N   0.3041029643 -0.8798831969 -0.4864080292
N  -2.0149543052 -1.2876673118 -0.2118036502
O  -1.7107353984  1.6177564343 -0.3872210572
H  -2.3031262700  0.8683771825 -0.5291794792
H   0.0272354514 -0.6625559114 -1.4399147563
H  -0.6168477900 -1.3253087857  1.3313585566
H   0.7635248260  0.9344459973  0.2454994828
H  -2.5290981954 -2.0094302956  0.2756918942
H  -2.0036912465 -1.4864770184 -1.2045599853
H  -0.3719163338  2.1459823320  0.9857562790
H  -1.7247428771  1.2858236231  1.6864404756
H   2.7732011596  0.2850358339  1.5244252566
H   1.7331744029  0.7237598365 -2.0373901131
H   2.4410478457 -1.4138977439  1.1289936096
H   1.2779573435 -0.4554377314  2.0643923953
H   2.8666488606  1.2896699763 -0.8211770962
H   2.9708431049 -0.3831965152 -1.3993853191
22
Image 33  Energy = -383.5613633222
C  -0.8075600555 -0.8137853610  0.3840334162
C   1.3313248699  0.0508584139 -0.0396017215
C  -1.0721234099  1.2806590288  0.8122809933
C   1.9964127590 -0.4246459274  1.2407949289
C   2.2876657012  0.4242549126 -1.1441748240
N   0.3039249073 -0.8791085056 -0.4855077429
N  -2.0158604643 -1.2836239026 -0.2109807937
O  -1.7126219757  1.6168477705 -0.3867973808
H  -2.3054223283  0.8682531126 -0.5314958841
H   0.0272406946 -0.6618944275 -1.4391538482
H  -0.6174970382 -1.3223151180  1.3313628294
H   0.7667685096  0.9358661212  0.2442741535
H  -2.5273465128 -2.0074507594  0.2764478631
H  -2.0016493178 -1.4855828836 -1.2031853893
H  -0.3716792630  2.1371869923  0.9856297240
H  -1.7273418033  1.2839640020  1.6861333648
H   2.7737332234  0.2848371356  1.5246262715
H   1.7335956886  0.7235042714 -2.0375215363
H   2.4412971616 -1.4141017518  1.1287390319
H   1.2782651821 -0.4557263591  2.0639844977
H   2.8674767831  1.2893494651 -0.8215812048
H   2.9713037041 -0.3837062221 -1.3998417492
22
Image 34  Energy = -383.5628130235
C  -0.8086973660 -0.8062179963  0.3860295711
C   1.3322175199  0.0511589870 -0.0398063180
C  -1.0748183948  1.2738400166  0.8114013000
C   1.9970038316 -0.4247129680  1.2406340559
C   2.2884627063  0.4239341034 -1.1445574168
N   0.3037164974 -0.8782845380 -0.4845807949
N  -2.0168116162 -1.2795276274 -0.2101528701
O  -1.7145057282  1.6158975054 -0.3863821943
H  -2.3077582683  0.8681357266 -0.5338353135
H   0.0272394359 -0.6612162818 -1.4383797893
H  -0.6181757726 -1.3192165996  1.3313816750
H   0.7700395411  0.9373312298  0.2430593585
H  -2.5255797865 -2.0054469810  0.2772101633
H  -1.9995867526 -1.4846676994 -1.2017806680
H  -0.3714492967  2.1282679740  0.9855010309
H  -1.7299133679  1.2819953829  1.6857839186
H   2.7742771301  0.2846372275  1.5248356642
H   1.7340253271  0.7232463348 -2.0376572780
H   2.4415491563 -1.4143009070  1.1284790765
H   1.2785841114 -0.4560145543  2.0635826102
H   2.8683197504  1.2890231335 -0.8219971861
H   2.9717683568 -0.3842214586 -1.4003035959
22
Image 35  Energy = -383.5642998372
C  -0.8098617593 -0.7985990028  0.3880340074
C   1.3331175549  0.0514790976 -0.0400035455
C  -1.0774958939  1.2669114261  0.8104901214
C   1.9976022298 -0.4247734702  1.2404749421
C   2.2892659636  0.4236093056 -1.1449438907
N   0.3034774301 -0.8774099967 -0.4836266148
N  -2.0178075739 -1.2753809099 -0.2093203641
O  -1.7163849692  1.6149052673 -0.3859763117
H  -2.3101331471  0.8680256217 -0.5361969043
H   0.0272312153 -0.6605207498 -1.4375923468
H  -0.6188841875 -1.3160127859  1.3314151162
H   0.7733376362  0.9388406717  0.2418553889
H  -2.5237981358 -2.0034192826  0.2779788951
H  -1.9975040715 -1.4837313487 -1.2003460127
H  -0.3712275618  2.1192268630  0.9853700231
H  -1.7324560893  1.2799162173  1.6853919773
H   2.7748328368  0.2844361037  1.5250533517
H   1.7344631214  0.7229859985 -2.0377972305
H   2.4418037004 -1.4144951676  1.1282137067
H   1.2789141203 -0.4563021622  2.0631865526
H   2.8691776462  1.2886908047 -0.8224250794
H   2.9722369485 -0.3847424931 -1.4007707847
22
Image 36  Energy = -383.5658241007
C  -0.8110543745 -0.7909284638  0.3900466781
C   1.3340250934  0.0518187875 -0.0401933986
C  -1.0801550457  1.2598740067  0.8095471442
C   1.9982078710 -0.4248273867  1.2403175738
C   2.2900753091  0.4232803720 -1.1453343093
N   0.3032072249 -0.8764835356 -0.4826448103
N  -2.0188480773 -1.2711862605 -0.2084837252
O  -1.7182580795  1.6138707729 -0.3855804748
H  -2.3125459960  0.8679233961 -0.5385797927
H   0.0272156183 -0.6598071312 -1.4367911935
H  -0.6196225062 -1.3127033368  1.3314631809
H   0.7766624110  0.9403939693  0.2406626014
H  -2.5220016646 -2.0013679795  0.2787541431
H  -1.9954018076 -1.4827737363 -1.1988816023
H  -0.3710151488  2.1100652492  0.9852365480
H  -1.7349685776  1.2777249748  1.6849574026
H   2.7754003737  0.2842338024  1.5252792681
H   1.7349088963  0.7227232274 -2.0379412471
H   2.4420606639 -1.4146844870  1.1279428882
H   1.2792551066 -0.4565890411  2.0627962310
H   2.8700503954  1.2883523620 -0.8228648986
H   2.9727093283 -0.3852695553 -1.4012432094
22
Image 37  Energy = -383.5673859782
C  -0.8122761840 -0.7832074197  0.3920672017
C   1.3349401464  0.0521781028 -0.0403757776
C  -1.0827951513  1.2527293134  0.8085722757
C   1.9988209005 -0.4248746009  1.2401618130
C   2.2908907045  0.4229471882 -1.1457285798
N   0.3029054019 -0.8755038123 -0.4816347924
N  -2.0199325973 -1.2669460797 -0.2076436830
O  -1.7201234906  1.6127937144 -0.3851954803
H  -2.3149957825  0.8678297197 -0.5409831030
H   0.0271921961 -0.6590746951 -1.4359760944
H  -0.6203909717 -1.3092879620  1.3315258615
H   0.7800135283  0.9419906355  0.2394813354
H  -2.5201906865 -1.9992936521  0.2795361333
H  -1.9932805605 -1.4817947650 -1.1973874597
H  -0.3708129956  2.1007849066  0.9851004844
H  -1.7374494665  1.2754201805  1.6844800923
H   2.7759796424  0.2840302428  1.5255133018
H   1.7353624159  0.7224580056 -2.0380893000
H   2.4423198914 -1.4148687620  1.1276665960
H   1.2796068605 -0.4568750412  2.0624116355
H   2.8709378934  1.2880076359 -0.8233166906
H   2.9731853187 -0.3858028517 -1.4017207729
22
Image 38  Energy = -383.5689853910
C  -0.8135279454 -0.7754382415  0.3940949441
C   1.3358626228  0.0525571227 -0.0405505752
C  -1.0854155335  1.2454802575  0.8075656933
C   1.9994410368 -0.4249150559  1.2400078226
C   2.2917119760  0.4226095901 -1.1461268891
N   0.3025715688 -0.8744694008 -0.4805962002
N  -2.0210608521 -1.2626631288 -0.2068005942
O  -1.7219796077  1.6116739408 -0.3848221001
H  -2.3174814962  0.8677451937 -0.5434059692
H   0.0271605415 -0.6583227446 -1.4351467086
H  -0.6211898503 -1.3057665328  1.3316032639
H   0.7833905922  0.9436302457  0.2383119985
H  -2.5183654367 -1.9971967223  0.2803249730
H  -1.9911409509 -1.4807943954 -1.1958639005
H  -0.3706220116  2.0913877528  0.9849617221
H  -1.7398974014  1.2730004240  1.6839599106
H   2.7765706931  0.2838254540  1.5257553852
H   1.7358235387  0.7221902770 -2.0382412133
H   2.4425812879 -1.4150479859  1.1273847952
H   1.2799693740 -0.4571600003  2.0620324881
H   2.8718400979  1.2876565289 -0.8237804684
H   2.9736647698 -0.3863425726 -1.4022033796
22
Image 39  Energy = -383.5706218286
C  -0.8148102186 -0.7676250375  0.3961287654
C   1.3367924462  0.0529558595 -0.0407176992
C  -1.0880157079  1.2381312199  0.8065278656
C   2.0000682458 -0.4249487377  1.2398554730
C   2.2925390352  0.4222675408 -1.1465290867
N   0.3022052904 -0.8733788725 -0.4795284930
N  -2.0222321672 -1.2583402489 -0.2059551074
O  -1.7238249777  1.6105112168 -0.3844611440
H  -2.3200019270  0.8676705837 -0.5458474327
H   0.0271202065 -0.6575505723 -1.4343028598
H  -0.6220194331 -1.3021390736  1.3316954586
H   0.7867931182  0.9453123799  0.2371550078
H  -2.5165263184 -1.9950778166  0.2811208622
H  -1.9889836942 -1.4797725682 -1.1943110275
H  -0.3704428926  2.0818762066  0.9848202043
H  -1.7423111154  1.2704644140  1.6833967791
H   2.7771735536  0.2836194358  1.5260054492
H   1.7362920228  0.7219200308 -2.0383969909
H   2.4428447227 -1.4152220655  1.1270974709
H   1.2803424089 -0.4574437606  2.0616587459
H   2.8727568737  1.2872988309 -0.8242562941
H   2.9741475414 -0.3868889617 -1.4026909480
22
Image 40  Energy = -383.5722942868
C  -0.8161231171 -0.7597739220  0.3981667960
C   1.3377294415  0.0533743395 -0.0408770279
C  -1.0905951788  1.2306886888  0.8054595444
C   2.0007024401 -0.4249755479  1.2397048546
C   2.2933717058  0.4219209015 -1.1469352148
N   0.3018060996 -0.8722307328 -0.4784313348
N  -2.0234461059 -1.2539808825 -0.2051076428
O  -1.7256579788  1.6093055877 -0.3841133786
H  -2.3225559290  0.8676064800 -0.5483065122
H   0.0270708092 -0.6567575385 -1.4334441918
H  -0.6228799820 -1.2984059259  1.3318027177
H   0.7902205119  0.9470366162  0.2360108464
H  -2.5146736613 -1.9929373702  0.2819238462
H  -1.9868095859 -1.4787292554 -1.1927291076
H  -0.3702763024  2.0722531037  0.9846758962
H  -1.7446895044  1.2678110129  1.6827908168
H   2.7777881857  0.2834121381  1.5262633861
H   1.7367676899  0.7216472321 -2.0385565344
H   2.4431100581 -1.4153909406  1.1268045984
H   1.2807258129 -0.4577261720  2.0612902203
H   2.8736881331  1.2869344024 -0.8247442007
H   2.9746334729 -0.3874422113 -1.4031833791
22
Image 41  Energy = -383.5740012661
C  -0.8174666498 -0.7518935938  0.4002067052
C   1.3386733338  0.0538125604 -0.0410283316
C  -1.0931537463  1.2231611972  0.8043619872
C   2.0013434839 -0.4249955099  1.2395559211
C   2.2942099400  0.4215695881 -1.1473452403
N   0.3013736861 -0.8710234893 -0.4773044407
N  -2.0247016211 -1.2495884169 -0.2042588152
O  -1.7274771629  1.6080571100 -0.3837797034
H  -2.3251420856  0.8675536271 -0.5507820705
H   0.0270119440 -0.6559430343 -1.4325705214
H  -0.6237717644 -1.2945676830  1.3319253133
H   0.7936720006  0.9488025150  0.2348800356
H  -2.5128081217 -1.9907762192  0.2827341625
H  -1.9846195932 -1.4776644872 -1.1911184852
H  -0.3701225959  2.0625221845  0.9845288356
H  -1.7470315663  1.2650392852  1.6821422226
H   2.7784145715  0.2832035310  1.5265291005
H   1.7372503297  0.7213718581 -2.0387198338
H   2.4433771756 -1.4155545201  1.1265061637
H   1.2811193621 -0.4580070598  2.0609267957
H   2.8746337392  1.2865630368 -0.8252442415
H   2.9751223544 -0.3880024764 -1.4036805617
22
Image 42  Energy = -383.5757406079
C  -0.8188401429 -0.7439951691  0.4022452846
C   1.3396238556  0.0542704755 -0.0411713250
C  -1.0956911926  1.2155597638  0.8032368601
C   2.0019911169 -0.4250085046  1.2394087093
C   2.2950533782  0.4212134608 -1.1477592261
N   0.3009076889 -0.8697556655 -0.4761477736
N  -2.0259978115 -1.2451670380 -0.2034092086
O  -1.7292808965  1.6067662465 -0.3834609765
H  -2.3277590099  0.8675125444 -0.5532728851
H   0.0269432602 -0.6551065362 -1.4316815956
H  -0.6246949822 -1.2906254029  1.3320637808
H   0.7971465577  0.9506095915  0.2337631805
H  -2.5109303553 -1.9885950482  0.2835519098
H  -1.9824148183 -1.4765783025 -1.1894796189
H  -0.3699820639  2.0526879527  0.9843791063
H  -1.7493365515  1.2621486222  1.6814514656
H   2.7790526720  0.2829935584  1.5268024828
H   1.7377397991  0.7210938749 -2.0388867996
H   2.4436459956 -1.4157128105  1.1262021469
H   1.2815228567 -0.4582862615  2.0605682918
H   2.8755936096  1.2861846114 -0.8257564268
H   2.9756140482 -0.3885699595 -1.4041823853
22
Image 43  Energy = -383.5775094680
C  -0.8202426854 -0.7360923764  0.4042786517
C   1.3405804902  0.0547480381 -0.0413057460
C  -1.0982075138  1.2078976952  0.8020863029
C   2.0026452515 -0.4250145955  1.2392632205
C   2.2959018274  0.4208524813 -1.1481770292
N   0.3004080819 -0.8684258730 -0.4749614164
N  -2.0273334027 -1.2407212551 -0.2025595777
O  -1.7310676965  1.6054335752 -0.3831581981
H  -2.3304049942  0.8674838688 -0.5557775125
H   0.0268643902 -0.6542475635 -1.4307773819
H  -0.6256497572 -1.2865806713  1.3322188640
H   0.8006429270  0.9524572534  0.2326609315
H  -2.5090413087 -1.9863948259  0.2843772972
H  -1.9801965542 -1.4754707911 -1.1878131073
H  -0.3698546978  2.0427560698  0.9842268890
H  -1.7516039650  1.2591387960  1.6807192757
H   2.7797023833  0.2827821345  1.5270833886
H   1.7382359020  0.7208132691 -2.0390574349
H   2.4439163803 -1.4158656794  1.1258925571
H   1.2819360070 -0.4585636074  2.0602145818
H   2.8765675734  1.2857988980 -0.8262808235
H   2.9761083758 -0.3891448411 -1.4046887351
22
Image 44  Energy = -383.5793043570
C  -0.8216729443 -0.7282013221  0.4063023188
C   1.3415426141  0.0552452204 -0.0414312251
C  -1.1007027854  1.2001904919  0.8009127900
C   2.0033054529 -0.4250138342  1.2391195478
C   2.2967550673  0.4204864167 -1.1485986162
N   0.2998749879 -0.8670328593 -0.4737459435
N  -2.0287069521 -1.2362562227 -0.2017106345
O  -1.7328361168  1.6040600166 -0.3828724279
H  -2.3330781286  0.8674681777 -0.5582943047
H   0.0267750242 -0.6533657533 -1.4298578493
H  -0.6266360854 -1.2824357065  1.3323915775
H   0.8041595552  0.9543447965  0.2315740429
H  -2.5071420545 -1.9841765254  0.2852104552
H  -1.9779663002 -1.4743421177 -1.1861198093
H  -0.3697402609  2.0327333681  0.9840724599
H  -1.7538336437  1.2560100625  1.6799467160
H   2.7803637136  0.2825692571  1.5273717026
H   1.7387384405  0.7205300441 -2.0392317549
H   2.4441882939 -1.4160131315  1.1255773652
H   1.2823585507 -0.4588389055  2.0598654813
H   2.8775554843  1.2854057427 -0.8268174384
H   2.9766051018 -0.3897272151 -1.4051994548
22
Image 45  Energy = -383.5811212313
C  -0.8231291309 -0.7203399771  0.4083112225
C   1.3425095949  0.0557619157 -0.0415473122
C  -1.1031771463  1.1924553490  0.7997190906
C   2.0039714880 -0.4250062729  1.2389777057
C   2.2976126024  0.4201151778 -1.1490239145
N   0.2993087876 -0.8655756081 -0.4725021612
N  -2.0301167574 -1.2317776173 -0.2008633950
O  -1.7345847261  1.6026469903 -0.3826048712
H  -2.3357763103  0.8674659089 -0.5608213856
H   0.0266748536 -0.6524607986 -1.4289232174
H  -0.6276537745 -1.2781934819  1.3325833019
H   0.8076945619  0.9562714500  0.2305033273
H  -2.5052339804 -1.9819413738  0.2860515869
H  -1.9757257791 -1.4731925054 -1.1844007444
H  -0.3696382726  2.0226279342  0.9839162035
H  -1.7560257954  1.2527632646  1.6791352649
H   2.7810364806  0.2823547988  1.5276672448
H   1.7392472960  0.7202441741 -2.0394097122
H   2.4444616087 -1.4161550483  1.1252565910
H   1.2827901927 -0.4591119904  2.0595208380
H   2.8785571696  1.2850049517 -0.8273662789
H   2.9771040499 -0.3903172391 -1.4057143870
22
Image 46  Energy = -383.5829554900
C  -0.8246092864 -0.7125274314  0.4103000386
C   1.3434805286  0.0562981208 -0.0416534820
C  -1.1056308439  1.1847105301  0.7985081790
C   2.0046429687 -0.4249920042  1.2388377446
C   2.2984740748  0.4197386689 -1.1494528530
N   0.2987102460 -0.8640534576 -0.4712315502
N  -2.0315608051 -1.2272916139 -0.2000189125
O  -1.7363121267  1.6011963602 -0.3823567593
H  -2.3384972176  0.8674773900 -0.5633566536
H   0.0265636370 -0.6515325131 -1.4279737220
H  -0.6287024496 -1.2738577483  1.3327956996
H   0.8112458772  0.9582362533  0.2294496675
H  -2.5033187366 -1.9796907802  0.2869008986
H  -1.9734769340 -1.4720222887 -1.1826572416
H  -0.3695479970  2.0124490656  0.9837586112
H  -1.7581809818  1.2493999174  1.6782867156
H   2.7817205565  0.2821387022  1.5279698227
H   1.7397623036  0.7199556631 -2.0395913331
H   2.4447362691 -1.4162914096  1.1249302282
H   1.2832305632 -0.4593826909  2.0591805719
H   2.8795723837  1.2845962862 -0.8279273385
H   2.9776049846 -0.3909150145 -1.4062333337
22
Image 47  Energy = -383.5848024057
C  -0.8261113401 -0.7047827913  0.4122634135
C   1.3444544444  0.0568537734 -0.0417491754
C  -1.1080641379  1.1769743762  0.7972828695
C   2.0053195476 -0.4249710677  1.2386997940
C   2.2993390678  0.4193567466 -1.1498852902
N   0.2980805271 -0.8624662055 -0.4699358933
N  -2.0330368411 -1.2228049664 -0.1991781498
O  -1.7380170446  1.5997103988 -0.3821293907
H  -2.3412382515  0.8675028933 -0.5658977530
H   0.0264411241 -0.6505807633 -1.4270099354
H  -0.6297815125 -1.2694331172  1.3330306709
H   0.8148111525  0.9602382047  0.2284140249
H  -2.5013982131 -1.9774262645  0.2877585449
H  -1.9712219005 -1.4708319500 -1.1808910457
H  -0.3694684267  2.0022072246  0.9836003244
H  -1.7603001840  1.2459222884  1.6774033091
H   2.7824156639  0.2819208200  1.5282791955
H   1.7402833106  0.7196645150 -2.0397766432
H   2.4450122180 -1.4164222164  1.1245982621
H   1.2836793214 -0.4596508165  2.0588445439
H   2.8806008623  1.2841795333 -0.8285006027
H   2.9781076258 -0.3915206113 -1.4067560746
22
Image 48  Energy = -383.5866570962
C  -0.8276332170 -0.6971241239  0.4141962551
C   1.3454303654  0.0574288635 -0.0418339620
C  -1.1104772051  1.1692642918  0.7960458170
C   2.0060007022 -0.4249436886  1.2385639450
C   2.3002069714  0.4189692753 -1.1503209794
N   0.2974211668 -0.8608141301 -0.4686174762
N  -2.0345422429 -1.2183247018 -0.1983423883
O  -1.7396983802  1.5981919159 -0.3819241801
H  -2.3439966234  0.8675425605 -0.5684421342
H   0.0263071212 -0.6496054916 -1.4260325665
H  -0.6308901484 -1.2649250158  1.3332903735
H   0.8183879464  0.9622761963  0.2273974000
H  -2.4994746689 -1.9751497090  0.2886247747
H  -1.9689630058 -1.4696220810 -1.1791040413
H  -0.3693983155  1.9919138322  0.9834421269
H  -1.7623847239  1.2423333952  1.6764875860
H   2.7831216225  0.2817011103  1.5285951370
H   1.7408101700  0.7193707331 -2.0399656802
H   2.4452893638 -1.4165474047  1.1242606982
H   1.2841361121 -0.4599162140  2.0585126723
H   2.8816423215  1.2837544824 -0.8290860222
H   2.9786116808 -0.3921340900 -1.4072823562
22
Image 49  Energy = -383.5885148606
C  -0.8291730380 -0.6895673507  0.4160939968
C   1.3464070768  0.0580233817 -0.0419072107
C  -1.1128701516  1.1615960262  0.7947993185
C   2.0066859267 -0.4249100030  1.2384302468
C   2.3010771167  0.4185761285 -1.1507598415
N   0.2967341551 -0.8590981065 -0.4672788636
N  -2.0360742088 -1.2138584066 -0.1975127789
O  -1.7413551916  1.5966440637 -0.3817424445
H  -2.3467693465  0.8675964715 -0.5709871061
H   0.0261614340 -0.6486066873 -1.4250426284
H  -0.6320273249 -1.2603396044  1.3335770278
H   0.8219738152  0.9643489969  0.2264008054
H  -2.4975505316 -1.9728630493  0.2894997128
H  -1.9667027229 -1.4683934390 -1.1772984546
H  -0.3693362174  1.9815810308  0.9832849543
H  -1.7644361980  1.2386369971  1.6755422727
H   2.7838381492  0.2814794709  1.5289173801
H   1.7413427709  0.7190743139 -2.0401584392
H   2.4455676504 -1.4166669736  1.1239175142
H   1.2846005284 -0.4601787159  2.0581849366
H   2.8826964685  1.2833209646 -0.8296835021
H   2.9791168532 -0.3927555068 -1.4078118974
22
Image 50  Energy = -383.5903711691
C  -0.8307291362 -0.6821261545  0.4179527136
C   1.3473835552  0.0586372148 -0.0419686651
C  -1.1152428733  1.1539835063  0.7935453584
C   2.0073748158 -0.4248701522  1.2382987858
C   2.3019488360  0.4181772538 -1.1512015477
N   0.2960216260 -0.8573195319 -0.4659228909
N  -2.0376295569 -1.2094136887 -0.1966904295
O  -1.7429867862  1.5950702699 -0.3815854428
H  -2.3495532873  0.8676646768 -0.5735298903
H   0.0260039589 -0.6475843981 -1.4240411939
H  -0.6331918559 -1.2556835852  1.3338927314
H   0.8255662472  0.9664554388  0.2254253034
H  -2.4956285657 -1.9705686018  0.2903835605
H  -1.9644436259 -1.4671469824 -1.1754768709
H  -0.3692805758  1.9712214185  0.9831298827
H  -1.7664564301  1.2348375095  1.6745701946
H   2.7845649007  0.2812557842  1.5292456350
H   1.7418809536  0.7187752522 -2.0403549650
H   2.4458469832 -1.4167809107  1.1235686877
H   1.2850721198 -0.4604381802  2.0578613730
H   2.8837629333  1.2828787354 -0.8302929541
H   2.9796227771 -0.3933848734 -1.4083443767
22
Image 51  Energy = -383.5922215873
C  -0.8323001312 -0.6748122860  0.4197689266
C   1.3483585892  0.0592702932 -0.0420179799
C  -1.1175950602  1.1464394596  0.7922858137
C   2.0080669178 -0.4248242887  1.2381697127
C   2.3028215086  0.4177726258 -1.1516458089
N   0.2952859409 -0.8554804056 -0.4645524145
N  -2.0392047949 -1.2049984443 -0.1958764104
O  -1.7445925285  1.5934743059 -0.3814541799
H  -2.3523453337  0.8677470375 -0.5760677171
H   0.0258346062 -0.6465387008 -1.4230296612
H  -0.6343824323 -1.2509641072  1.3342394300
H   0.8291628671  0.9685941873  0.2244718863
H  -2.4937116049 -1.9682687542  0.2912763878
H  -1.9621883793 -1.4658838198 -1.1736419457
H  -0.3692298700  1.9608477563  0.9829780976
H  -1.7684473992  1.2309399371  1.6735741350
H   2.7853014628  0.2810299229  1.5295796019
H   1.7424245463  0.7184735576 -2.0405553216
H   2.4461272456 -1.4168892013  1.1232141838
H   1.2855505160 -0.4606944589  2.0575419672
H   2.8848413049  1.2824275842 -0.8309142615
H   2.9801290415 -0.3940221967 -1.4088794427
22
Image 52  Energy = -383.5940616446
C  -0.8338845474 -0.6676367958  0.4215395915
C   1.3493309702  0.0599224353 -0.0420550016
C  -1.1199264871  1.1389764193  0.7910225854
C   2.0087615244 -0.4247726004  1.2380431358
C   2.3036944193  0.4173622154 -1.1520924060
N   0.2945295138 -0.8535831197 -0.4631704061
N  -2.0407962973 -1.2006205628 -0.1950717263
O  -1.7461720037  1.5918599333 -0.3813494212
H  -2.3551422286  0.8678434946 -0.5785978055
H   0.0256534163 -0.6454697335 -1.4220093676
H  -0.6355976491 -1.2461885667  1.3346187305
H   0.8327613069  0.9707638541  0.2235415348
H  -2.4918026573 -1.9659661665  0.2921782681
H  -1.9599396726 -1.4646052506 -1.1717966154
H  -0.3691825321  1.9504730184  0.9828308996
H  -1.7704111517  1.2269497390  1.6725567797
H   2.7860475793  0.2808018725  1.5299190166
H   1.7429734187  0.7181692161 -2.0407594936
H   2.4464083887 -1.4169918987  1.1228539590
H   1.2860353297 -0.4609474134  2.0572267125
H   2.8859311841  1.2819673497 -0.8315472690
H   2.9806351890 -0.3946674371 -1.4094167008
22
Image 53  Energy = -383.5958868184
C  -0.8354808364 -0.6606109616  0.4232614203
C   1.3502996782  0.0605934055 -0.0420797216
C  -1.1222370751  1.1316079143  0.7897579678
C   2.0094583056 -0.4247152158  1.2379190358
C   2.3045667695  0.4169461619 -1.1525409810
N   0.2937547876 -0.8516306304 -0.4617796959
N  -2.0424003097 -1.1962880474 -0.1942773464
O  -1.7477248892  1.5902309688 -0.3812715911
H  -2.3579406192  0.8679539815 -0.5811173625
H   0.0254604494 -0.6443776547 -1.4209818683
H  -0.6368359801 -1.2413647163  1.3350321236
H   0.8363591860  0.9729629852  0.2226351554
H  -2.4899047641 -1.9636636109  0.2930891572
H  -1.9577002087 -1.4633127216 -1.1699438491
H  -0.3691371513  1.9401102340  0.9826896470
H  -1.7723497623  1.2228728451  1.6715206296
H   2.7868027777  0.2805715004  1.5302635678
H   1.7435274416  0.7178622085 -2.0409674568
H   2.4466902591 -1.4170889487  1.1224879755
H   1.2865260750 -0.4611969259  2.0569157665
H   2.8870321087  1.2814978261 -0.8321918316
H   2.9811407717 -0.3953205963 -1.4099557437
22
Image 54  Energy = -383.5976923666
C  -0.8370870217 -0.6537472525  0.4249312904
C   1.3512634546  0.0612829231 -0.0420921211
C  -1.1245270753  1.1243489841  0.7884945845
C   2.0101565907 -0.4246522886  1.2377975315
C   2.3054379480  0.4165243644 -1.1529912706
N   0.2929641373 -0.8496262918 -0.4603833058
N  -2.0440128615 -1.1920086528 -0.1934943131
O  -1.7492508676  1.5885913825 -0.3812208114
H  -2.3607371162  0.8680783782 -0.5836235900
H   0.0252559108 -0.6432627001 -1.4199486524
H  -0.6380958454 -1.2365005055  1.3354807483
H   0.8399540823  0.9751899309  0.2217535990
H  -2.4880210810 -1.9613641973  0.2940090029
H  -1.9554727284 -1.4620079079 -1.1680867922
H  -0.3690923157  1.9297727061  0.9825557343
H  -1.7742654143  1.2187155934  1.6704681797
H   2.7875667429  0.2803388008  1.5306129928
H   1.7440863949  0.7175525517 -2.0411792881
H   2.4469727546 -1.4171803727  1.1221161784
H   1.2870223931 -0.4614428752  2.0566091254
H   2.8881437057  1.2810189834 -0.8328477138
H   2.9816452259 -0.3959815533 -1.4104961096
22
Image 55  Energy = -383.5994732762
C  -0.8387006587 -0.6470590503  0.4265456895
C   1.3522210402  0.0619906910 -0.0420923444
C  -1.1267970102  1.1172159621  0.7872355112
C   2.0108560293 -0.4245839137  1.2376786979
C   2.3063072516  0.4160970731 -1.1534428138
N   0.2921599978 -0.8475739697 -0.4589841991
N  -2.0456300655 -1.1877901988 -0.1927235736
O  -1.7507496704  1.5869454307 -0.3811969909
H  -2.3635283251  0.8682164597 -0.5861136858
H   0.0250400463 -0.6421251403 -1.4189113226
H  -0.6393755192 -1.2316043430  1.3359657355
H   0.8435435117  0.9774428982  0.2208976051
H  -2.4861547321 -1.9590710886  0.2949375635
H  -1.9532599668 -1.4606926782 -1.1662287016
H  -0.3690466373  1.9194740657  0.9824306025
H  -1.7761604250  1.2144848427  1.6694019280
H   2.7883389930  0.2801036697  1.5309669840
H   1.7446501010  0.7172402511 -2.0413950201
H   2.4472557347 -1.4172661488  1.1217385208
H   1.2875238300 -0.4616851453  2.0563069099
H   2.8892654437  1.2805306381 -0.8335147379
H   2.9821480445 -0.3966503032 -1.4110373585
22
Image 56  Energy = -383.6012246303
C  -0.8403190039 -0.6405602557  0.4281012333
C   1.3531710393  0.0627162715 -0.0420804179
C  -1.1290478173  1.1102257394  0.7859838741
C   2.0115561489 -0.4245101775  1.2375625202
C   2.3071740606  0.4156643918 -1.1538953927
N   0.2913449370 -0.8454779838 -0.4575855541
N  -2.0472478634 -1.1836402570 -0.1919661505
O  -1.7522211990  1.5852974673 -0.3811998887
H  -2.3663106354  0.8683681308 -0.5885847414
H   0.0248131864 -0.6409653187 -1.4178714544
H  -0.6406731635 -1.2266850087  1.3364880368
H   0.8471248814  0.9797199666  0.2200678542
H  -2.4843088951 -1.9567876773  0.2958745188
H  -1.9510646860 -1.4593691118 -1.1643729074
H  -0.3689986298  1.9092284091  0.9823157281
H  -1.7780373095  1.2101879388  1.6683245695
H   2.7891190959  0.2798660584  1.5313252568
H   1.7452184073  0.7169252966 -2.0416146076
H   2.4475390610 -1.4173462566  1.1213549526
H   1.2880299497 -0.4619236241  2.0560092298
H   2.8903968415  1.2800327122 -0.8341926699
H   2.9826486094 -0.3973267132 -1.4115789892
22
Image 57  Energy = -383.6029417076
C  -0.8419389576 -0.6342642744  0.4295947428
C   1.3541122221  0.0634590959 -0.0420564792
C  -1.1312806487  1.1033948361  0.7847427676
C   2.0122562681 -0.4244312469  1.2374489757
C   2.3080376518  0.4152263664 -1.1543486385
N   0.2905215459 -0.8433430888 -0.4561907012
N  -2.0488622313 -1.1795662064 -0.1912230801
O  -1.7536654451  1.5836521827 -0.3812290527
H  -2.3690804710  0.8685332065 -0.5910338692
H   0.0245757545 -0.6397836444 -1.4168305788
H  -0.6419867945 -1.2217517627  1.3370486012
H   0.8506954702  0.9820191531  0.2192649398
H  -2.4824867498 -1.9545174942  0.2968194040
H  -1.9488896490 -1.4580395069 -1.1625228513
H  -0.3689467018  1.8990502324  0.9822126296
H  -1.7798987849  1.2058327447  1.6672388796
H   2.7899066837  0.2796260021  1.5316875558
H   1.7457911115  0.7166077227 -2.0418381022
H   2.4478225970 -1.4174206734  1.1209654332
H   1.2885403984 -0.4621581993  2.0557161422
H   2.8915374507  1.2795252311 -0.8348812322
H   2.9831462962 -0.3980106772 -1.4121204862
22
Image 58  Energy = -383.6046199736
C  -0.8435570504 -0.6281834025  0.4310235321
C   1.3550431760  0.0642185547 -0.0420208022
C  -1.1334967683  1.0967386416  0.7835150584
C   2.0129559173 -0.4243471954  1.2373381127
C   2.3088972095  0.4147832820 -1.1548021609
N   0.2896925869 -0.8411744055 -0.4548028544
N  -2.0504692424 -1.1755752089 -0.1904954142
O  -1.7550826270  1.5820143981 -0.3812840144
H  -2.3718341443  0.8687116097 -0.5934581491
H   0.0243281691 -0.6385805561 -1.4157903852
H  -0.6433143280 -1.2168141652  1.3376481823
H   0.8542525630  0.9843382634  0.2184893364
H  -2.4806914387 -1.9522641227  0.2977716054
H  -1.9467376037 -1.4567063474 -1.1606820339
H  -0.3688892421  1.8889542393  0.9821228260
H  -1.7817477485  1.2014275703  1.6661478845
H   2.7907012704  0.2793834567  1.5320535759
H   1.7463680569  0.7162875332 -2.0420654580
H   2.4481062003 -1.4174893766  1.1205698941
H   1.2890547564 -0.4623887614  2.0554277772
H   2.8926867688  1.2790081689 -0.8355801615
H   2.9836405368 -0.3987021785 -1.4126613502
22
Image 59  Energy = -383.6062554288
C  -0.8451698747 -0.6223282780  0.4323854344
C   1.3559627507  0.0649939327 -0.0419735961
C  -1.1356975029  1.0902709234  0.7823034297
C   2.0136546950 -0.4242581630  1.2372298272
C   2.3097521801  0.4143353183 -1.1552554223
N   0.2888608131 -0.8389774079 -0.4534253756
N  -2.0520649394 -1.1716740006 -0.1897841863
O  -1.7564730310  1.5803891667 -0.3813641191
H  -2.3745681246  0.8689031630 -0.5958547767
H   0.0240709193 -0.6373565619 -1.4147525121
H  -0.6446535697 -1.2118820624  1.3382874318
H   0.8577933527  0.9866750945  0.2177414347
H  -2.4789260664 -1.9500312156  0.2987303847
H  -1.9446112623 -1.4553722843 -1.1588539383
H  -0.3688246355  1.8789551811  0.9820478246
H  -1.7835871664  1.1969810834  1.6650545832
H   2.7915023594  0.2791384158  1.5324229974
H   1.7469489882  0.7159647846 -2.0422967639
H   2.4483896546 -1.4175522588  1.1201683022
H   1.2895725841 -0.4626152292  2.0551442747
H   2.8938442429  1.2784815064 -0.8362891824
H   2.9841306497 -0.3994011069 -1.4132010506
22
Image 60  Energy = -383.6078444875
C  -0.8467739564 -0.6167077281  0.4336789482
C   1.3568697266  0.0657844579 -0.0419151425
C  -1.1378841130  1.0840035597  0.7811102799
C   2.0143518905 -0.4241642257  1.2371240478
C   2.3106018586  0.4138825945 -1.1557080796
N   0.2880290598 -0.8367577048 -0.4520614848
N  -2.0536453911 -1.1678687593 -0.1890901990
O  -1.7578372337  1.5787814638 -0.3814686938
H  -2.3772788221  0.8691078456 -0.5982209970
H   0.0238045214 -0.6361122222 -1.4137185588
H  -0.6460022471 -1.2069653423  1.3389667119
H   0.8613151348  0.9890272689  0.2170214944
H  -2.4771936509 -1.9478224374  0.2996948840
H  -1.9425132754 -1.4540401768 -1.1570422287
H  -0.3687513640  1.8690675901  0.9819890848
H  -1.7854200240  1.1925021994  1.6639620156
H   2.7923095346  0.2788909424  1.5327955275
H   1.7475337132  0.7156395076 -2.0425319919
H   2.4486728449 -1.4176093671  1.1197605972
H   1.2900935032 -0.4628375122  2.0548657578
H   2.8950094072  1.2779453364 -0.8370079723
H   2.9846158993 -0.4001072851 -1.4137390003
22
Image 61  Energy = -383.6093840796
C  -0.8483658210 -0.6113285198  0.4349031592
C   1.3577630956  0.0665891787 -0.0418458092
C  -1.1400576027  1.0779465213  0.7799377299
C   2.0150470066 -0.4240654810  1.2370207136
C   2.3114454987  0.4134254609 -1.1561597035
N   0.2872001431 -0.8345209644 -0.4507143272
N  -2.0552068710 -1.1641652701 -0.1884143504
O  -1.7591759114  1.5771962006 -0.3815969309
H  -2.3799628372  0.8693256218 -0.6005542369
H   0.0235295209 -0.6348481496 -1.4126901022
H  -0.6473580391 -1.2020738839  1.3396862164
H   0.8648151752  0.9913924452  0.2163296956
H  -2.4754970914 -1.9456413784  0.3006640948
H  -1.9404462161 -1.4527129388 -1.1552503274
H  -0.3686681116  1.8593055516  0.9819479962
H  -1.7872493240  1.1879999873  1.6628732111
H   2.7931222732  0.2786410453  1.5331708327
H   1.7481220604  0.7153117190 -2.0427710703
H   2.4489555808 -1.4176606402  1.1193467331
H   1.2906171369 -0.4630555333  2.0545923490
H   2.8961817150  1.2773997024 -0.8377362118
H   2.9850956367 -0.4008206725 -1.4142746611
22
Image 62  Energy = -383.6108717519
C  -0.8499420830 -0.6061955056  0.4360579435
C   1.3586418650  0.0674072288 -0.0417660520
C  -1.1422188580  1.0721078622  0.7787876510
C   2.0157394663 -0.4239620934  1.2369198132
C   2.3122826586  0.4129641544 -1.1566097546
N   0.2863768002 -0.8322728774 -0.4493866891
N  -2.0567457422 -1.1605686322 -0.1877574089
O  -1.7604898178  1.5756381065 -0.3817478505
H  -2.3826169256  0.8695564818 -0.6028521010
H   0.0232464616 -0.6335649716 -1.4116688082
H  -0.6487186290 -1.1972172979  1.3404457594
H   0.8682908810  0.9937681157  0.2156660761
H  -2.4738391504 -1.9434915933  0.3016369825
H  -1.9384125385 -1.4513935794 -1.1534816978
H  -0.3685738113  1.8496825056  0.9819258266
H  -1.7890779032  1.1834835110  1.6617910102
H   2.7939400542  0.2783887709  1.5335485676
H   1.7487137353  0.7149814791 -2.0430140378
H   2.4492376596 -1.4177060167  1.1189266800
H   1.2911431841 -0.4632692292  2.0543241110
H   2.8973606319  1.2768446725 -0.8384735833
H   2.9855690801 -0.4015410902 -1.4148074380
22
Image 63  Energy = -383.6123055901
C  -0.8514995462 -0.6013114875  0.4371435159
C   1.3595052346  0.0682376092 -0.0416762476
C  -1.1443684713  1.0664936257  0.7776616996
C   2.0164288358 -0.4238541495  1.2368211795
C   2.3131125530  0.4124990341 -1.1570578741
N   0.2855616476 -0.8300190016 -0.4480812609
N  -2.0582585414 -1.1570833542 -0.1871200694
O  -1.7617797641  1.5741117029 -0.3819203830
H  -2.3852380871  0.8698003889 -0.6051124195
H   0.0229559245 -0.6322633897 -1.4106561438
H  -0.6500816816 -1.1924049176  1.3412449828
H   0.8717397280  0.9961518046  0.2150305800
H  -2.4722224049 -1.9413764966  0.3026123853
H  -1.9364145722 -1.4500851333 -1.1517395547
H  -0.3684676441  1.8402111264  0.9819237524
H  -1.7909084757  1.1789617666  1.6607181365
H   2.7947623263  0.2781341491  1.5339283589
H   1.7493085702  0.7146488038 -2.0432607732
H   2.4495188868 -1.4177454585  1.1185004036
H   1.2916712188 -0.4634785497  2.0540612226
H   2.8985456945  1.2762804193 -0.8392197164
H   2.9860355861 -0.4022684940 -1.4153367758
22
Image 64  Energy = -383.6136842206
C  -0.8530352240 -0.5966773186  0.4381608580
C   1.3603526188  0.0690793420 -0.0415769515
C  -1.1465067388  1.0611080131  0.7765613756
C   2.0171145317 -0.4237418341  1.2367247219
C   2.3139346263  0.4120303500 -1.1575035700
N   0.2847572229 -0.8277646762 -0.4468004652
N  -2.0597421399 -1.1537133356 -0.1865027017
O  -1.7630466612  1.5726211098 -0.3821133449
H  -2.3878234879  0.8700573820 -0.6073332299
H   0.0226584901 -0.6309441458 -1.4096535320
H  -0.6514449156 -1.1876455747  1.3420831052
H   0.8751593345  0.9985409625  0.2144230297
H  -2.4706491850 -1.9392992696  0.3035890438
H  -1.9344544534 -1.4487906817 -1.1500271462
H  -0.3683491890  1.8309030797  0.9819427996
H  -1.7927434786  1.1744435474  1.6596570096
H   2.7955885892  0.2778772741  1.5343098641
H   1.7499063153  0.7143137381 -2.0435112270
H   2.4497990495 -1.4177788999  1.1180678862
H   1.2922009465 -0.4636834581  2.0538037849
H   2.8997363913  1.2757070933 -0.8399742388
H   2.9864943760 -0.4030027010 -1.4158620729
22
Image 65  Energy = -383.6150068265
C  -0.8545463220 -0.5922917955  0.4391114179
C   1.3611834174  0.0699313554 -0.0414686717
C  -1.1486337536  1.0559530840  0.7754878956
C   2.0177960963 -0.4236252020  1.2366303328
C   2.3147484271  0.4115584892 -1.1579463521
N   0.2839658281 -0.8255149876 -0.4455463631
N  -2.0611936056 -1.1504617944 -0.1859057676
O  -1.7642914049  1.5711701173 -0.3823254697
H  -2.3903705409  0.8703274817 -0.6095127897
H   0.0223547525 -0.6296079996 -1.4086623043
H  -0.6528060992 -1.1829475655  1.3429590769
H   0.8785474208  1.0009330764  0.2138431755
H  -2.4691216331 -1.9372629882  0.3045656984
H  -1.9325341733 -1.4475132402 -1.1483473979
H  -0.3682182545  1.8217691000  0.9819838744
H  -1.7945851093  1.1699373757  1.6586098491
H   2.7964182811  0.2776182017  1.5346927045
H   1.7505066977  0.7139763301 -2.0437653677
H   2.4500779608 -1.4178063621  1.1176291191
H   1.2927320497 -0.4638839283  2.0535518951
H   2.9009322256  1.2751248507 -0.8407367852
H   2.9869447578 -0.4037436013 -1.4163827713
22
Image 66  Energy = -383.6162730573
C  -0.8560304423 -0.5881517836  0.4399972423
C   1.3619973418  0.0707926431 -0.0413519913
C  -1.1507491853  1.0510290288  0.7744423320
C   2.0184731278 -0.4235043827  1.2365379506
C   2.3155533908  0.4110838055 -1.1583858556
N   0.2831895954 -0.8232747463 -0.4443207148
N  -2.0626102812 -1.1473313070 -0.1853296273
O  -1.7655148201  1.5697621593 -0.3825553662
H  -2.3928769795  0.8706106411 -0.6116496308
H   0.0220452952 -0.6282557398 -1.4076837628
H  -0.6541630874 -1.1783185054  1.3438715028
H   0.8819018603  1.0033256278  0.2132906497
H  -2.4676416456 -1.9352705130  0.3055410597
H  -1.9306555210 -1.4462557397 -1.1467029874
H  -0.3680751122  1.8128186906  0.9820477110
H  -1.7964352520  1.1654514170  1.6575785561
H   2.7972508246  0.2773569782  1.5350764860
H   1.7511095066  0.7136366097 -2.0440230557
H   2.4503554144 -1.4178278011  1.1171840944
H   1.2932642175 -0.4640799405  2.0533056533
H   2.9021327376  1.2745339277 -0.8415069505
H   2.9873860321 -0.4044910742 -1.4168982962
22
Image 67  Energy = -383.6174831321
C  -0.8574854279 -0.5842522216  0.4408206995
C   1.3627940808  0.0716621943 -0.0412273897
C  -1.1528525038  1.0463340310  0.7734254858
C   2.0191451549 -0.4233795425  1.2364473966
C   2.3163492464  0.4106066052 -1.1588217217
N   0.2824303792 -0.8210483240 -0.4431250627
N  -2.0639897924 -1.1443237120 -0.1847744967
O  -1.7667176976  1.5684002165 -0.3828015438
H  -2.3953407792  0.8709068209 -0.6137425138
H   0.0217307443 -0.6268882100 -1.4067189122
H  -0.6555138337 -1.1737653368  1.3448187462
H   0.8852206840  1.0057160905  0.2127650022
H  -2.4662108695 -1.9333245176  0.3065138410
H  -1.9288200792 -1.4450210336 -1.1450963719
H  -0.3679202648  1.8040602397  0.9821349148
H  -1.7982954877  1.1609934124  1.6565647299
H   2.7980856969  0.2770937175  1.5354608303
H   1.7517144650  0.7132946223 -2.0442841935
H   2.4506311950 -1.4178431828  1.1167328393
H   1.2937971826 -0.4642714988  2.0530651437
H   2.9033374530  1.2739345436 -0.8422843404
H   2.9878174698 -0.4052449186 -1.4174080833
22
Image 68  Energy = -383.6186376400
C  -0.8589096179 -0.5805864026  0.4415846642
C   1.3635737040  0.0725389543 -0.0410955585
C  -1.1549427006  1.0418647336  0.7724380149
C   2.0198117555 -0.4232507565  1.2363585777
C   2.3171355532  0.4101272631 -1.1592535619
N   0.2816898006 -0.8188397244 -0.4419605404
N  -2.0653301619 -1.1414403071 -0.1842402909
O  -1.7679008950  1.5670866605 -0.3830624951
H  -2.3977600870  0.8712160830 -0.6157904165
H   0.0214116960 -0.6255062460 -1.4057687455
H  -0.6568563961 -1.1692942029  1.3457988266
H   0.8885020368  1.0081020560  0.2122657224
H  -2.4648306165 -1.9314272952  0.3074826935
H  -1.9270291772 -1.4438118692 -1.1435298625
H  -0.3677547087  1.7955007417  0.9822459206
H  -1.8001670493  1.1565705894  1.6555696457
H   2.7989223684  0.2768285087  1.5358453652
H   1.7523213324  0.7129504061 -2.0445486577
H   2.4509051273 -1.4178525421  1.1162753738
H   1.2943306884 -0.4644586142  2.0528304543
H   2.9045459396  1.2733269646 -0.8430685369
H   2.9882384254 -0.4060050065 -1.4179115942
22
Image 69  Energy = -383.6197375645
C  -0.8603015628 -0.5771461393  0.4422924115
C   1.3643360231  0.0734219142 -0.0409570677
C  -1.1570188152  1.0376160121  0.7714803548
C   2.0204725993 -0.4231181774  1.2362714617
C   2.3179120105  0.4096462179 -1.1596810684
N   0.2809693355 -0.8166524814 -0.4408279800
N  -2.0666296035 -1.1386815976 -0.1837271846
O  -1.7690649866  1.5658235806 -0.3833365597
H  -2.4001334515  0.8715383034 -0.6177925773
H   0.0210887417 -0.6241106998 -1.4048341065
H  -0.6581889957 -1.1649104009  1.3468094690
H   0.8917442948  1.0104811202  0.2117921999
H  -2.4635020109 -1.9295810879  0.3084464149
H  -1.9252839649 -1.4426307842 -1.1420052713
H  -0.3675796014  1.7871460825  0.9823810286
H  -1.8020507765  1.1521896513  1.6545942164
H   2.7997603025  0.2765614614  1.5362297085
H   1.7529298443  0.7126040103 -2.0448163295
H   2.4511770117 -1.4178558988  1.1158117326
H   1.2948645143 -0.4646413036  2.0526016110
H   2.9057577755  1.2727114567 -0.8438591298
H   2.9886483332 -0.4067712435 -1.4184083342
22
Image 70  Energy = -383.6207841697
C  -0.8616602002 -0.5739219900  0.4429473529
C   1.3650812066  0.0743101508 -0.0408125443
C  -1.1590795582  1.0335815558  0.7705528272
C   2.0211275844 -0.4229819935  1.2361858223
C   2.3186783539  0.4091637481 -1.1601039569
N   0.2802700711 -0.8144897148 -0.4397279418
N  -2.0678867930 -1.1360475966 -0.1832349158
O  -1.7702105091  1.5646125354 -0.3836220532
H  -2.4024596678  0.8718733758 -0.6197484727
H   0.0207624799 -0.6227024345 -1.4039156491
H  -0.6595099656 -1.1606184553  1.3478482200
H   0.8949459841  1.0128509611  0.2113437531
H  -2.4622258138 -1.9277876909  0.3094037190
H  -1.9235853111 -1.4414801925 -1.1405242970
H  -0.3673964726  1.7790007697  0.9825403791
H  -1.8039471849  1.1478567065  1.6536390415
H   2.8005989494  0.2762926679  1.5366134947
H   1.7535397503  0.7122554737 -2.0450870753
H   2.4514466118 -1.4178531993  1.1153419942
H   1.2953983525 -0.4648196047  2.0523787689
H   2.9069725882  1.2720883568 -0.8446556728
H   2.9890465619 -0.4075434340 -1.4188977948
22
Image 71  Energy = -383.6217790018
C  -0.8629847928 -0.5709036567  0.4435531281
C   1.3658095483  0.0752026183 -0.0406626277
C  -1.1611234392  1.0297539366  0.7696556800
C   2.0217761581 -0.4228422871  1.2361016676
C   2.3194344642  0.4086803396 -1.1605220145
N   0.2795928705 -0.8123540620 -0.4386605963
N  -2.0691006852 -1.1335377337 -0.1827632401
O  -1.7713380000  1.5634545637 -0.3839173280
H  -2.4047377290  0.8722212292 -0.6216577740
H   0.0204334905 -0.6212823023 -1.4030139536
H  -0.6608178098 -1.1564220290  1.3489123815
H   0.8981057481  1.0152094454  0.2109197061
H  -2.4610025005 -1.9260486257  0.3103533826
H  -1.9219338696 -1.4403622843 -1.1390882461
H  -0.3672071012  1.7710681049  0.9827239811
H  -1.8058564666  1.1435772821  1.6527044133
H   2.8014378868  0.2760222932  1.5369963813
H   1.7541508068  0.7119048454 -2.0453607238
H   2.4517138121 -1.4178445713  1.1148662006
H   1.2959321046 -0.4649935494  2.0521618717
H   2.9081899293  1.2714578936 -0.8454577733
H   2.9894325928 -0.4083214547 -1.4193795177
22
Image 72  Energy = -383.6227238110
C  -0.8642748705 -0.5680802580  0.4441134953
C   1.3665213012  0.0760984954 -0.0405078766
C  -1.1631490469  1.0261249924  0.7687888893
C   2.0224182711 -0.4226991531  1.2360188578
C   2.3201802374  0.4081962288 -1.1609350296
N   0.2789383313 -0.8102477325 -0.4376260195
N  -2.0702705038 -1.1311508159 -0.1823119436
O  -1.7724477704  1.5623502905 -0.3842206012
H  -2.4069669068  0.8725817207 -0.6235203589
H   0.0201023606 -0.6198511784 -1.4021293240
H  -0.6621111602 -1.1523239782  1.3499990814
H   0.9012224610  1.0175544567  0.2105192835
H  -2.4598323156 -1.9243652347  0.3112943052
H  -1.9203300669 -1.4392790164 -1.1376980750
H  -0.3670134444  1.7633502124  0.9829317140
H  -1.8077784913  1.1393562921  1.6517903717
H   2.8022765654  0.2757504079  1.5373779970
H   1.7547627639  0.7115521827 -2.0456371249
H   2.4519784279 -1.4178300604  1.1143844484
H   1.2964655407 -0.4651631879  2.0519509650
H   2.9094094553  1.2708204366 -0.8462649987
H   2.9898058791 -0.4091051085 -1.4198530573
22
Image 73  Energy = -383.6236204921
C  -0.8655303464 -0.5654405482  0.4446321404
C   1.3672168738  0.0769968696 -0.0403488277
C  -1.1651548457  1.0226859566  0.7679524091
C   2.0230537474 -0.4225528219  1.2359371705
C   2.3209155459  0.4077118132 -1.1613427713
N   0.2783068691 -0.8081724718 -0.4366239482
N  -2.0713957115 -1.1288850813 -0.1818804925
O  -1.7735401107  1.5612998951 -0.3845301520
H  -2.4091466876  0.8729547100 -0.6253362930
H   0.0197696248 -0.6184099051 -1.4012620057
H  -0.6633888024 -1.1483264265  1.3511053550
H   0.9042951328  1.0198840519  0.2101416883
H  -2.4587152301 -1.9227385532  0.3122254175
H  -1.9187740903 -1.4382321962 -1.1363546007
H  -0.3668176161  1.7558481301  0.9831633512
H  -1.8097128607  1.1351980518  1.6508966902
H   2.8031145896  0.2754772005  1.5377580449
H   1.7553753478  0.7111975482 -2.0459161897
H   2.4522402751 -1.4178096820  1.1138968466
H   1.2969984534 -0.4653285746  2.0517461154
H   2.9106308414  1.2701763131 -0.8470769204
H   2.9901660192 -0.4098942888 -1.4203180286
22
Image 74  Energy = -383.6244710077
C  -0.8667511703 -0.5629731341  0.4451127004
C   1.3678966769  0.0778969615 -0.0401861286
C  -1.1671394056  1.0194277551  0.7671461468
C   2.0236824288 -0.4224033898  1.2358566664
C   2.3216402819  0.4072274836 -1.1617451654
N   0.2776986615 -0.8061296402 -0.4356538272
N  -2.0724762192 -1.1267385646 -0.1814685316
O  -1.7746152012  1.5603031741 -0.3848442818
H  -2.4112767620  0.8733400307 -0.6271058016
H   0.0194358128 -0.6169592984 -1.4004121585
H  -0.6646496598 -1.1444307835  1.3522281974
H   0.9073229459  1.0221963906  0.2097861200
H  -2.4576509194 -1.9211692498  0.3131456844
H  -1.9172659274 -1.4372233117 -1.1350581382
H  -0.3666218470  1.7485618688  0.9834185580
H  -1.8116589069  1.1311062949  1.6500229313
H   2.8039515004  0.2752027854  1.5381361843
H   1.7559883609  0.7108409898 -2.0461976998
H   2.4524992189 -1.4177835535  1.1134034931
H   1.2975307369 -0.4654897731  2.0515472600
H   2.9118537519  1.2695258572 -0.8478931254
H   2.9905126612 -0.4106888999 -1.4207740842
22
Image 75  Energy = -383.6252773949
C  -0.8679376361 -0.5606668628  0.4455586918
C   1.3685611886  0.0787979948 -0.0400202374
C  -1.1691013300  1.0163411635  0.7663698171
C   2.0243041258 -0.4222509713  1.2357771738
C   2.3223544517  0.4067434755 -1.1621421344
N   0.2771137087 -0.8041201976 -0.4347150747
N  -2.0735120391 -1.1247086521 -0.1810754718
O  -1.7756731229  1.5593596330 -0.3851613052
H  -2.4133570572  0.8737374468 -0.6288292782
H   0.0191014329 -0.6155001859 -1.3995797078
H  -0.6658927789 -1.1406378077  1.3533645490
H   0.9103052314  1.0244898027  0.2094517375
H  -2.4566388581 -1.9196578224  0.3140541828
H  -1.9158053569 -1.4362537040 -1.1338088863
H  -0.3664283665  1.7414905554  0.9836969242
H  -1.8136158194  1.1270841940  1.6491685501
H   2.8047869364  0.2749273300  1.5385121372
H   1.7566015812  0.7104825630 -2.0464814887
H   2.4527551552 -1.4177518127  1.1129045156
H   1.2980622661 -0.4656468448  2.0513543695
H   2.9130779002  1.2688694419 -0.8487131885
H   2.9908454054 -0.4114887457 -1.4212208754
22
Image 76  Energy = -383.6260417237
C  -0.8690901601 -0.5585107935  0.4459734656
C   1.3692109774  0.0796992252 -0.0398517241
C  -1.1710394106  1.0134170227  0.7656232584
C   2.0249188058 -0.4220957650  1.2356986170
C   2.3230581223  0.4062600924 -1.1625335345
N   0.2765518177 -0.8021448338 -0.4338069128
N  -2.0745033974 -1.1227924903 -0.1807008535
O  -1.7767138712  1.5584684693 -0.3854796406
H  -2.4153876932  0.8741466971 -0.6305072581
H   0.0187669700 -0.6140333538 -1.3987645411
H  -0.6671173507 -1.1369476730  1.3545113688
H   0.9132414342  1.0267628100  0.2091377362
H  -2.4556783173 -1.9182045253  0.3149500983
H  -1.9143919958 -1.4353244337 -1.1326066664
H  -0.3662394346  1.7346324924  0.9839979681
H  -1.8155825442  1.1231343939  1.6483328040
H   2.8056205196  0.2746509856  1.5388856187
H   1.7572147419  0.7101223494 -2.0467674466
H   2.4530079365 -1.4177145187  1.1124000510
H   1.2985929152 -0.4657998592  2.0511674095
H   2.9143029908  1.2682073895 -0.8495367129
H   2.9911639622 -0.4122936884 -1.4216581049
22
Image 77  Energy = -383.6267660683
C  -0.8702092308 -0.5564943826  0.4463601332
C   1.3698464424  0.0806000259 -0.0396809397
C  -1.1729524761  1.0106463148  0.7649060779
C   2.0255264702 -0.4219378752  1.2356208815
C   2.3237514718  0.4057776775 -1.1629194405
N   0.2760127152 -0.8002038422 -0.4329283805
N  -2.0754509425 -1.1209871085 -0.1803440023
O  -1.7777374705  1.5576285772 -0.3857977718
H  -2.4173688649  0.8745675543 -0.6321403472
H   0.0184328415 -0.6125595613 -1.3979664797
H  -0.6683226608 -1.1333600857  1.3556657286
H   0.9161311745  1.0290139738  0.2088432754
H  -2.4547682992 -1.9168092025  0.3158325739
H  -1.9130252583 -1.4344363681 -1.1314511326
H  -0.3660572789  1.7279852819  0.9843211542
H  -1.8175579432  1.1192590229  1.6475149001
H   2.8064518921  0.2743738916  1.5392563693
H   1.7578276578  0.7097604036 -2.0470553547
H   2.4532574643 -1.4176718151  1.1118902471
H   1.2991225607 -0.4659488869  2.0509863391
H   2.9155286863  1.2675399840 -0.8503633191
H   2.9914680666 -0.4131035856 -1.4220855134
22
Image 78  Energy = -383.6274524659
C  -0.8712954921 -0.5546076070  0.4467216001
C   1.3704681858  0.0814997852 -0.0395083295
C  -1.1748396392  1.0080202254  0.7642178906
C   2.0261270864 -0.4217774555  1.2355438613
C   2.3244344946  0.4052964391 -1.1632997167
N   0.2754959426 -0.7982973386 -0.4320786266
N  -2.0763553152 -1.1192890947 -0.1800042991
O  -1.7787438441  1.5568386462 -0.3861142552
H  -2.4193009469  0.8749997433 -0.6337292670
H   0.0180994921 -0.6110795669 -1.3971851415
H  -0.6695081174 -1.1298742887  1.3568247616
H   0.9189741757  1.0312421077  0.2085675490
H  -2.4539077092 -1.9154716460  0.3167009353
H  -1.9117044301 -1.4335901831 -1.1303417462
H  -0.3658839822  1.7215459784  0.9846659003
H  -1.8195408012  1.1154597811  1.6467140093
H   2.8072807495  0.2740962087  1.5396241451
H   1.7584400833  0.7093968178 -2.0473451393
H   2.4535036494 -1.4176238341  1.1113752653
H   1.2996511027 -0.4660940047  2.0508110994
H   2.9167547778  1.2668676183 -0.8511926021
H   2.9917575570 -0.4139183375 -1.4225028954
22
Image 79  Energy = -383.6281029186
C  -0.8723496853 -0.5528409884  0.4470604914
C   1.3710767462  0.0823979398 -0.0393343362
C  -1.1767000388  1.0055302789  0.7635582339
C   2.0267207223 -0.4216146358  1.2354675555
C   2.3251072838  0.4048165836 -1.1636744298
N   0.2750009934 -0.7964251773 -0.4312565203
N  -2.0772173574 -1.1176949571 -0.1796811284
O  -1.7797329127  1.5560972683 -0.3864278056
H  -2.4211844618  0.8754429338 -0.6352748322
H   0.0177672768 -0.6095940579 -1.3964202382
H  -0.6706732087 -1.1264891871  1.3579857722
H   0.9217702715  1.0334461298  0.2083097595
H  -2.4530952715 -1.9141913746  0.3175545555
H  -1.9104286685 -1.4327863323 -1.1292777253
H  -0.3657215829  1.7153110750  0.9850316066
H  -1.8215298377  1.1117379267  1.6459292913
H   2.8081067589  0.2738180612  1.5399887053
H   1.7590518488  0.7090316480 -2.0476365798
H   2.4537464034 -1.4175707099  1.1108552645
H   1.3001784741 -0.4662352840  2.0506415805
H   2.9179810199  1.2661906256 -0.8520241841
H   2.9920322437 -0.4147377708 -1.4229100388
22
Image 80  Energy = -383.6287194152
C  -0.8733725875 -0.5511856651  0.4473791665
C   1.3716726024  0.0832940085 -0.0391592117
C  -1.1785330310  1.0031684225  0.7629267195
C   2.0273073128 -0.4214495352  1.2353918456
C   2.3257699692  0.4043384034 -1.1640435335
N   0.2745272230 -0.7945870580 -0.4304611327
N  -2.0780379592 -1.1162009488 -0.1793739100
O  -1.7807045666  1.5554028478 -0.3867372186
H  -2.4230200445  0.8758967918 -0.6367779322
H   0.0174365709 -0.6081037401 -1.3956712476
H  -0.6718175119 -1.1232033465  1.3591461978
H   0.9245194263  1.0356250994  0.2080691315
H  -2.4523296452 -1.9129678311  0.3183929407
H  -1.9091970179 -1.4320250961 -1.1282581472
H  -0.3655719679  1.7092766486  0.9854176215
H  -1.8235237321  1.1080943395  1.6451598527
H   2.8089297099  0.2735396360  1.5403498522
H   1.7596627406  0.7086649890 -2.0479295807
H   2.4539856988 -1.4175126482  1.1103304143
H   1.3007045953 -0.4663728022  2.0504776969
H   2.9192071619  1.2655093036 -0.8528577145
H   2.9922920699 -0.4155618219 -1.4233068130
22
Image 81  Energy = -383.6293037870
C  -0.8743650727 -0.5496333477  0.4476798522
C   1.3722562108  0.0841875366 -0.0389832714
C  -1.1803380705  1.0009269015  0.7623227735
C   2.0278870287 -0.4212822861  1.2353166937
C   2.3264228081  0.4038620264 -1.1644071182
N   0.2740740410 -0.7927824979 -0.4296913003
N  -2.0788182670 -1.1148034458 -0.1790819568
O  -1.7816587274  1.5547537371 -0.3870414498
H  -2.4248083966  0.8763609656 -0.6382394901
H   0.0171076723 -0.6066092404 -1.3949378048
H  -0.6729406882 -1.1200150970  1.3603036075
H   0.9272216697  1.0377782040  0.2078449093
H  -2.4516092892 -1.9118001114  0.3192155652
H  -1.9080084169 -1.4313065866 -1.1272819601
H  -0.3654368628  1.7034384752  0.9858233130
H  -1.8255211962  1.1045295573  1.6444048991
H   2.8097492923  0.2732610340  1.5407073807
H   1.7602725729  0.7082969155 -2.0482239674
H   2.4542214625 -1.4174497831  1.1098008925
H   1.3012294028 -0.4665066247  2.0503193276
H   2.9204329539  1.2648239555 -0.8536928386
H   2.9925368902 -0.4163902920 -1.4236930597
22
Image 82  Energy = -383.6298579001
C  -0.8753279795 -0.5481763377  0.4479643860
C   1.3728281832  0.0850781384 -0.0388067479
C  -1.1821149206  0.9987984374  0.7617458399
C   2.0284598104 -0.4211130824  1.2352420189
C   2.3270658044  0.4033877170 -1.1647652021
N   0.2736406904 -0.7910109210 -0.4289460718
N  -2.0795594498 -1.1134986860 -0.1788046654
O  -1.7825952896  1.5541481486 -0.3873395324
H  -2.4265502932  0.8768351071 -0.6396604760
H   0.0167808789 -0.6051111979 -1.3942193396
H  -0.6740424603 -1.1169225862  1.3614558168
H   0.9298771206  1.0399047780  0.2076363695
H  -2.4509326324 -1.9106872536  0.3200220232
H  -1.9068617368 -1.4306307472 -1.1263479562
H  -0.3653177893  1.6977920736  0.9862480432
H  -1.8275209197  1.1010438101  1.6436636284
H   2.8105653551  0.2729824573  1.5410611297
H   1.7608811875  0.7079275100 -2.0485195748
H   2.4544536519 -1.4173822596  1.1092668846
H   1.3017528687 -0.4666368348  2.0501663502
H   2.9216581779  1.2641348586 -0.8545292258
H   2.9927667597 -0.4172231348 -1.4240687017
22
Image 83  Energy = -383.6303834763
C  -0.8762622231 -0.5468074860  0.4482345626
C   1.3733888951  0.0859654315 -0.0386298659
C  -1.1838633498  0.9967760874  0.7611954043
C   2.0290258414 -0.4209420191  1.2351676914
C   2.3276991939  0.4029155045 -1.1651178447
N   0.2732265324 -0.7892716515 -0.4282243983
N  -2.0802627101 -1.1122828216 -0.1785415255
O  -1.7835141940  1.5535843337 -0.3876306783
H  -2.4282466054  0.8773188252 -0.6410419038
H   0.0164564406 -0.6036101892 -1.3935153835
H  -0.6751226215 -1.1139237754  1.3626007684
H   0.9324859957  1.0420042920  0.2074428112
H  -2.4502980716 -1.9096282459  0.3208120260
H  -1.9057557905 -1.4299973882 -1.1254548417
H  -0.3652161251  1.6923327664  0.9866911593
H  -1.8295216322  1.0976370303  1.6429352551
H   2.8113776807  0.2727040322  1.5414109314
H   1.7614884094  0.7075568535 -2.0488162883
H   2.4546822485 -1.4173102807  1.1087285823
H   1.3022748717 -0.4667635142  2.0500187103
H   2.9228826481  1.2634423400 -0.8553665366
H   2.9929815836 -0.4180601300 -1.4244336398
22
Image 84  Energy = -383.6308821760
C  -0.8771686725 -0.5455202647  0.4484918755
C   1.3739387979  0.0868490307 -0.0384528669
C  -1.1855832983  0.9948533807  0.7606707585
C   2.0295851608 -0.4207691838  1.2350937537
C   2.3283230665  0.4024455916 -1.1654650577
N   0.2728308325 -0.7875639151 -0.4275251962
N  -2.0809293758 -1.1111521265 -0.1782918100
O  -1.7844153122  1.5530605300 -0.3879141238
H  -2.4298982801  0.8778116812 -0.6423848181
H   0.0161345653 -0.6021067546 -1.3928254931
H  -0.6761810337 -1.1110165005  1.3637365780
H   0.9350485304  1.0440763327  0.2072635867
H  -2.4497038988 -1.9086218298  0.3215852648
H  -1.9046893072 -1.4294062128 -1.1246013487
H  -0.3651330798  1.6870557092  0.9871520204
H  -1.8315221599  1.0943089374  1.6422191370
H   2.8121860901  0.2724258789  1.5417566465
H   1.7620940591  0.7071850362 -2.0491139919
H   2.4549072481 -1.4172340364  1.1081861686
H   1.3027954344 -0.4668867327  2.0498762148
H   2.9241061793  1.2627466629 -0.8562044570
H   2.9931814704 -0.4189012216 -1.4247878445
22
Image 85  Energy = -383.6313556068
C  -0.8780482157 -0.5443086522  0.4487376532
C   1.3744783052  0.0877287257 -0.0382759246
C  -1.1872747774  0.9930242799  0.7601713317
C   2.0301378549 -0.4205947980  1.2350201414
C   2.3289375648  0.4019781269 -1.1658069302
N   0.2724527826 -0.7858869388 -0.4268475373
N  -2.0815607324 -1.1101028094 -0.1780550082
O  -1.7852986484  1.5525749126 -0.3881893257
H  -2.4315062390  0.8783133115 -0.6436902502
H   0.0158154752 -0.6006014230 -1.3921491099
H  -0.6772175949 -1.1081985307  1.3648615586
H   0.9375650835  1.0461205602  0.2070980513
H  -2.4491484261 -1.9076667780  0.3223415657
H  -1.9036610037 -1.4288567913 -1.1237860630
H  -0.3650697362  1.6819559381  0.9876299740
H  -1.8335213286  1.0910590093  1.6415146184
H   2.8129904690  0.2721481667  1.5420981466
H   1.7626980231  0.7068121301 -2.0494125017
H   2.4551286358 -1.4171536648  1.1076398377
H   1.3033144984 -0.4670065659  2.0497387528
H   2.9253285563  1.2620480808 -0.8570426940
H   2.9933664699 -0.4197462946 -1.4251312896
22
Image 86  Energy = -383.6318052408
C  -0.8789017859 -0.5431670329  0.4489731227
C   1.3750078025  0.0886042397 -0.0380990952
C  -1.1889380233  0.9912830218  0.7596964905
C   2.0306841130 -0.4204189129  1.2349467501
C   2.3295429565  0.4015131674 -1.1661435421
N   0.2720916874 -0.7842399123 -0.4261905009
N  -2.0821580603 -1.1091312308 -0.1778306523
O  -1.7861641772  1.5521257094 -0.3884557916
H  -2.4330714873  0.8788232931 -0.6449592670
H   0.0154993214 -0.5990946791 -1.3914857877
H  -0.6782322684 -1.1054675679  1.3659741877
H   0.9400360259  1.0481367474  0.2069456066
H  -2.4486299340 -1.9067617325  0.3230807911
H  -1.9026695855 -1.4283485654 -1.1230074839
H  -0.3650269298  1.6770284901  0.9881244190
H  -1.8355180141  1.0878865477  1.6408210798
H   2.8137906269  0.2718709919  1.5424352960
H   1.7633001222  0.7064382314 -2.0497117230
H   2.4553464061 -1.4170693590  1.1070897798
H   1.3038319966 -0.4671230926  2.0496062297
H   2.9265495832  1.2613468315 -0.8578809532
H   2.9935366407 -0.4205951908 -1.4254639587
22
Image 87  Energy = -383.6322325368
C  -0.8797302886 -0.5420903072  0.4491992468
C   1.3755276895  0.0894753920 -0.0379225910
C  -1.1905732490  0.9896243065  0.7592455632
C   2.0312239407 -0.4202416614  1.2348736448
C   2.3301393537  0.4010507789 -1.1664748598
N   0.2717468139 -0.7826219620 -0.4255532134
N  -2.0827227398 -1.1082337135 -0.1776180694
O  -1.7870119556  1.5517111390 -0.3887131754
H  -2.4345950100  0.8793412456 -0.6461929162
H   0.0151862665 -0.5975869829 -1.3908350325
H  -0.6792250366 -1.1028213191  1.3670731933
H   0.9424617988  1.0501247397  0.2068056667
H  -2.4481467010 -1.9059052877  0.3238028538
H  -1.9017136858 -1.4278809659 -1.1222642983
H  -0.3650053830  1.6722683356  0.9886347346
H  -1.8375112023  1.0847906678  1.6401380159
H   2.8145864739  0.2715944926  1.5427679974
H   1.7639002219  0.7060634309 -2.0500115476
H   2.4555605937 -1.4169813217  1.1065361810
H   1.3043479656 -0.4672363782  2.0494784367
H   2.9277690727  1.2606431486 -0.8587189678
H   2.9936920786 -0.4214477833 -1.4257858659
22
Image 88  Energy = -383.6326388573
C  -0.8805345085 -0.5410738279  0.4494170007
C   1.3760382342  0.0903419320 -0.0377464456
C  -1.1921807499  0.9880431552  0.7588178424
C   2.0317574175 -0.4200631745  1.2348007257
C   2.3307268675  0.4005910897 -1.1668010826
N   0.2714174717 -0.7810322152 -0.4249348044
N  -2.0832561705 -1.1074067660 -0.1774167813
O  -1.7878419909  1.5513295257 -0.3889611668
H  -2.4360778662  0.8798667206 -0.6473922641
H   0.0148764225 -0.5960787654 -1.3901963836
H  -0.6801959399 -1.1002573880  1.3681573150
H   0.9448428807  1.0520844952  0.2066776999
H  -2.4476970079 -1.9050959842  0.3245077240
H  -1.9007919590 -1.4274533002 -1.1215550650
H  -0.3650056845  1.6676704515  0.9891603185
H  -1.8394999578  1.0817703814  1.6394649843
H   2.8153779315  0.2713187981  1.5430961660
H   1.7644982356  0.7056877897 -2.0503117781
H   2.4557712097 -1.4168897041  1.1059792468
H   1.3048623793 -0.4673465036  2.0493552473
H   2.9289868635  1.2599372541 -0.8595564653
H   2.9938329397 -0.4223039707 -1.4260970371
22
Image 89  Energy = -383.6330254419
C  -0.8813153773 -0.5401133028  0.4496271237
C   1.3765398598  0.0912037194 -0.0375708173
C  -1.1937609053  0.9865349813  0.7584126852
C   2.0322848365 -0.4198835085  1.2347279754
C   2.3313056711  0.4001341880 -1.1671220823
N   0.2711028968 -0.7794698400 -0.4243345177
N  -2.0837595098 -1.1066468481 -0.1772264375
O  -1.7886543087  1.5509792193 -0.3891995390
H  -2.4375211568  0.8803992661 -0.6485583926
H   0.0145698969 -0.5945704266 -1.3895693969
H  -0.6811450467 -1.0977734595  1.3692255594
H   0.9471797518  1.0540160570  0.2065611848
H  -2.4472792188 -1.9043324486  0.3251954794
H  -1.8999030930 -1.4270647902 -1.1208782439
H  -0.3650282901  1.6632298379  0.9897005835
H  -1.8414833692  1.0788245464  1.6388015326
H   2.8161648076  0.2710439592  1.5434196887
H   1.7650939926  0.7053114199 -2.0506123777
H   2.4559782669 -1.4167946933  1.1054191588
H   1.3053751747 -0.4674535378  2.0492365817
H   2.9302027534  1.2592293010 -0.8603932251
H   2.9939593851 -0.4231636453 -1.4263975268
22
Image 90  Energy = -383.6333934824
C  -0.8820737150 -0.5392046848  0.4498303325
C   1.3770327634  0.0920606009 -0.0373957278
C  -1.1953142176  0.9850953399  0.7580294561
C   2.0328062127 -0.4197028239  1.2346553061
C   2.3318759512  0.3996800044 -1.1674380754
N   0.2708025113 -0.7779339723 -0.4237515526
N  -2.0842341751 -1.1059507320 -0.1770464600
O  -1.7894490775  1.5506585611 -0.3894282182
H  -2.4389258736  0.8809385234 -0.6496923261
H   0.0142667580 -0.5930623351 -1.3889537087
H  -0.6820724527 -1.0953672137  1.3702770365
H   0.9494729751  1.0559194568  0.2064556286
H  -2.4468916204 -1.9036130770  0.3258661133
H  -1.8990457330 -1.4267146490 -1.1202324677
H  -0.3650734641  1.6589415971  0.9902549692
H  -1.8434606001  1.0759519415  1.6381472698
H   2.8169471117  0.2707701315  1.5437385136
H   1.7656874147  0.7049343817 -2.0509131760
H   2.4561818128 -1.4166964493  1.1048561105
H   1.3058863180 -0.4675575528  2.0491223143
H   2.9314166169  1.2585195561 -0.8612289724
H   2.9940715011 -0.4240266099 -1.4266873698
22
Image 91  Energy = -383.6337441309
C  -0.8828103015 -0.5383444473  0.4500272473
C   1.3775172780  0.0929124089 -0.0372212796
C  -1.1968411190  0.9837202485  0.7576673806
C   2.0333216348 -0.4195212357  1.2345828146
C   2.3324378364  0.3992286503 -1.1677490505
N   0.2705155927 -0.7764237695 -0.4231851935
N  -2.0846814238 -1.1053152080 -0.1768764273
O  -1.7902263701  1.5503660342 -0.3896470999
H  -2.4402931183  0.8814840352 -0.6507951064
H   0.0139670780 -0.5915548363 -1.3883489047
H  -0.6829782989 -1.0930363193  1.3713109525
H   0.9517230956  1.0577949047  0.2063605849
H  -2.4465325862 -1.9029363508  0.3265197353
H  -1.8982185493 -1.4264020087 -1.1196163115
H  -0.3651414148  1.6548008443  0.9908229189
H  -1.8454309331  1.0731512415  1.6375019009
H   2.8177247294  0.2704973888  1.5440525583
H   1.7662783743  0.7045567697 -2.0512140989
H   2.4563818580 -1.4165951153  1.1042902874
H   1.3063958827 -0.4676586167  2.0490122239
H   2.9326282732  1.2578081555 -0.8620634930
H   2.9941695006 -0.4248927799 -1.4269666435
22
Image 92  Energy = -383.6340784781
C  -0.8835258936 -0.5375292107  0.4502183512
C   1.3779936024  0.0937591429 -0.0370474399
C  -1.1983421406  0.9824059266  0.7573259159
C   2.0338312106 -0.4193388422  1.2345103499
C   2.3329915396  0.3987801700 -1.1680551201
N   0.2702414356 -0.7749384498 -0.4226348366
N  -2.0851024549 -1.1047371257 -0.1767159675
O  -1.7909863498  1.5501001665 -0.3898562563
H  -2.4416239634  0.8820353833 -0.6518677706
H   0.0136709224 -0.5900482617 -1.3877545752
H  -0.6838627347 -1.0907785161  1.3723266989
H   0.9539307392  1.0596424966  0.2062755859
H  -2.4462005518 -1.9023008071  0.3271565135
H  -1.8974202428 -1.4261259801 -1.1190283914
H  -0.3652322349  1.6508027803  0.9914039016
H  -1.8473936430  1.0704210631  1.6368651104
H   2.8184976617  0.2702258598  1.5443617855
H   1.7668667874  0.7041786528 -2.0515149965
H   2.4565784609 -1.4164908787  1.1037218804
H   1.3069037865 -0.4677568080  2.0489062575
H   2.9338375408  1.2570952436 -0.8628965782
H   2.9942535432 -0.4257620085 -1.4272354230
22
Image 93  Energy = -383.6343974880
C  -0.8842213072 -0.5367559239  0.4504041541
C   1.3784620041  0.0946006735 -0.0368743394
C  -1.1998178479  0.9811488685  0.7570042664
C   2.0343351333 -0.4191557113  1.2344379818
C   2.3335370407  0.3983346021 -1.1683562951
N   0.2699795012 -0.7734771844 -0.4220998731
N  -2.0854985080 -1.1042135185 -0.1765646152
O  -1.7917291828  1.5498594665 -0.3900556819
H  -2.4429194310  0.8825921871 -0.6529113050
H   0.0133783108 -0.5885429095 -1.3871703974
H  -0.6847259460 -1.0885915702  1.3733237284
H   0.9560965191  1.0614624982  0.2062002230
H  -2.4458939508 -1.9017048934  0.3277765988
H  -1.8966495062 -1.4258856489 -1.1184673870
H  -0.3653458999  1.6469427130  0.9919973927
H  -1.8493481313  1.0677599558  1.6362366628
H   2.8192657980  0.2699555780  1.5446661264
H   1.7674525916  0.7038000998 -2.0518157378
H   2.4567716486 -1.4163838747  1.1031510661
H   1.3074100415 -0.4678521897  2.0488042553
H   2.9350442796  1.2563809987 -0.8637280112
H   2.9943238635 -0.4266342187 -1.4274938177
22
Image 94  Energy = -383.6347020893
C  -0.8848972464 -0.5360217583  0.4505850100
C   1.3789227134  0.0954368795 -0.0367019684
C  -1.2012687874  0.9799458013  0.7567018320
C   2.0348333825 -0.4189719213  1.2343656479
C   2.3340745887  0.3978919250 -1.1686526631
N   0.2697292027 -0.7720392005 -0.4215796950
N  -2.0858707310 -1.1037414664 -0.1764220621
O  -1.7924550658  1.5496425773 -0.3902455051
H  -2.4441805591  0.8831540420 -0.6539266940
H   0.0130892654 -0.5870390514 -1.3865960547
H  -0.6855681222 -1.0864732994  1.3743016688
H   0.9582210480  1.0632552057  0.2061341066
H  -2.4456113193 -1.9011471746  0.3283802398
H  -1.8959050869 -1.4256800687 -1.1179319892
H  -0.3654823412  1.6432160231  0.9926028767
H  -1.8512938262  1.0651664389  1.6356163254
H   2.8200291362  0.2696866579  1.5449655507
H   1.7680356718  0.7034211989 -2.0521162554
H   2.4569614987 -1.4162743080  1.1025780149
H   1.3079146544 -0.4679448260  2.0487060983
H   2.9362483362  1.2556655517 -0.8645575941
H   2.9943806087 -0.4275092291 -1.4277418949
22
Image 95  Energy = -383.6349932018
C  -0.8855544039 -0.5353241260  0.4507613197
C   1.3793758901  0.0962677277 -0.0365303437
C  -1.2026955875  0.9787936136  0.7564179076
C   2.0353261076 -0.4187876413  1.2342932839
C   2.3346043615  0.3974521054 -1.1689442832
N   0.2694899582 -0.7706237593 -0.4210736402
N  -2.0862202456 -1.1033182238 -0.1762879388
O  -1.7931641766  1.5494482261 -0.3904258432
H  -2.4454084122  0.8837205266 -0.6549149163
H   0.0128037661 -0.5855369304 -1.3860313223
H  -0.6863894878 -1.0844215513  1.3752601228
H   0.9603049784  1.0650209026  0.2060768551
H  -2.4453512084 -1.9006261642  0.3289676684
H  -1.8951857381 -1.4255082759 -1.1174209300
H  -0.3656413334  1.6396182532  0.9932198723
H  -1.8532302228  1.0626389796  1.6350038996
H   2.8207876628  0.2694191866  1.5452600367
H   1.7686159349  0.7030420294 -2.0524164555
H   2.4571480236 -1.4161622564  1.1020029167
H   1.3084176072 -0.4680347870  2.0486116775
H   2.9374495753  1.2549490543 -0.8653851342
H   2.9944239714 -0.4283868935 -1.4279797578
22
Image 96  Energy = -383.6352716187
C  -0.8861934450 -0.5346606236  0.4509333613
C   1.3798217191  0.0970931855 -0.0363595031
C  -1.2040988555  0.9776895057  0.7561519367
C   2.0358135681 -0.4186028835  1.2342209206
C   2.3351263571  0.3970152559 -1.1692312121
N   0.2692612134 -0.7692301208 -0.4205812667
N  -2.0865481310 -1.1029411768 -0.1761619025
O  -1.7938568161  1.5492750906 -0.3905969159
H  -2.4466039406  0.8842913197 -0.6558768946
H   0.0125218256 -0.5840367897 -1.3854758724
H  -0.6871902786 -1.0824342498  1.3761988632
H   0.9623489656  1.0667599152  0.2060280985
H  -2.4451122202 -1.9001403864  0.3295391193
H  -1.8944902626 -1.4253692989 -1.1169329642
H  -0.3658226538  1.6361449895  0.9938479001
H  -1.8551568367  1.0601760312  1.6343991711
H   2.8215412620  0.2691531682  1.5455495073
H   1.7691933479  0.7026626481 -2.0527161894
H   2.4573312631 -1.4160478727  1.1014259440
H   1.3089188570 -0.4681221488  2.0485208996
H   2.9386478419  1.2542315987 -0.8662104613
H   2.9944542389 -0.4292671588 -1.4282075449
22
Image 97  Energy = -383.6355381064
C  -0.8868150457 -0.5340290531  0.4511014505
C   1.3802604646  0.0979131822 -0.0361894928
C  -1.2054791335  0.9766308046  0.7559032351
C   2.0362956074 -0.4184177028  1.2341485794
C   2.3356406982  0.3965812871 -1.1695135084
N   0.2690424064 -0.7678575855 -0.4201021855
N  -2.0868554511 -1.1026078178 -0.1760436146
O  -1.7945331939  1.5491219995 -0.3907589058
H  -2.4477681614  0.8848660223 -0.6568135555
H   0.0122434502 -0.5825388609 -1.3849293689
H  -0.6879707511 -1.0805093425  1.3771177138
H   0.9643536761  1.0684726197  0.2059875106
H  -2.4448930087 -1.8996883922  0.3300948620
H  -1.8938174756 -1.4252621657 -1.1164669274
H  -0.3660260261  1.6327919612  0.9944864899
H  -1.8570732874  1.0577760206  1.6338020222
H   2.8222900039  0.2688887082  1.5458339714
H   1.7697678355  0.7022831292 -2.0530153786
H   2.4575113334 -1.4159313609  1.1008472377
H   1.3094184663 -0.4682069575  2.0484335940
H   2.9398430387  1.2535133557 -0.8670333870
H   2.9944715741 -0.4301498541 -1.4284253480
22
Image 98  Energy = -383.6357933748
C  -0.8874198735 -0.5334273369  0.4512657687
C   1.3806922308  0.0987276570 -0.0360203528
C  -1.2068370776  0.9756150160  0.7556711920
C   2.0367724890 -0.4182322509  1.2340761815
C   2.3361476135  0.3961501796 -1.1697911886
N   0.2688330666 -0.7665054736 -0.4196358494
N  -2.0871431380 -1.1023156766 -0.1759327379
O  -1.7951935426  1.5489878078 -0.3909119860
H  -2.4489020590  0.8854442621 -0.6577258028
H   0.0119686007 -0.5810433302 -1.3843916458
H  -0.6887311570 -1.0786448748  1.3780165990
H   0.9663197632  1.0701594071  0.2059547666
H  -2.4446923012 -1.8992688098  0.3306352187
H  -1.8931662281 -1.4251859079 -1.1160217236
H  -0.3662510851  1.6295550199  0.9951351954
H  -1.8589791975  1.0554373830  1.6332122686
H   2.8230338345  0.2686258618  1.5461134051
H   1.7703392978  0.7019035533 -2.0533139600
H   2.4576882222 -1.4158127766  1.1002669826
H   1.3099163869 -0.4682892872  2.0483496998
H   2.9410350043  1.2527944004 -0.8678537584
H   2.9944761706 -0.4310348263 -1.4286332799
22
Image 99  Energy = -383.6360381554
C  -0.8880084760 -0.5328536084  0.4514265508
C   1.3811171716  0.0995366774 -0.0358520687
C  -1.2081732551  0.9746398488  0.7554551870
C   2.0372442447 -0.4180465671  1.2340037729
C   2.3366471948  0.3957219665 -1.1700642674
N   0.2686327038 -0.7651731537 -0.4191818160
N  -2.0874121757 -1.1020624981 -0.1758290603
O  -1.7958381782  1.5488714061 -0.3910564286
H  -2.4500065477  0.8860257242 -0.6586144938
H   0.0116972363 -0.5795503769 -1.3838624975
H  -0.6894717721 -1.0768389028  1.3788954762
H   0.9682479334  1.0718206249  0.2059295391
H  -2.4445088728 -1.8988802726  0.3311605109
H  -1.8925354181 -1.4251395221 -1.1155962152
H  -0.3664974446  1.6264301165  0.9957935873
H  -1.8608742629  1.0531585326  1.6326298057
H   2.8237727415  0.2683646688  1.5463877754
H   1.7709076878  0.7015239910 -2.0536118663
H   2.4578620088 -1.4156922806  1.0996853308
H   1.3104126415 -0.4683692032  2.0482690863
H   2.9422235839  1.2520748014 -0.8686714271
H   2.9944682753 -0.4319219745 -1.4288314883
22
Image 100  Energy = -383.6362730527
C  -0.8885814475 -0.5323061030  0.4515840077
C   1.3815354305  0.1003401922 -0.0356846043
C  -1.2094882149  0.9737031064  0.7552546596
C   2.0377109292 -0.4178607022  1.2339312657
C   2.3371394377  0.3952966255 -1.1703328894
N   0.2684408540 -0.7638599882 -0.4187397744
N  -2.0876634790 -1.1018460506 -0.1757322184
O  -1.7964673122  1.5487718644 -0.3911924821
H  -2.4510826305  0.8866099951 -0.6594805049
H   0.0114293391 -0.5780601845 -1.3833416470
H  -0.6901928889 -1.0750895575  1.3797543531
H   0.9701388749  1.0734566932  0.2059115387
H  -2.4443415596 -1.8985214567  0.3316710679
H  -1.8919239448 -1.4251220636 -1.1151894336
H  -0.3667647046  1.6234133189  0.9964612220
H  -1.8627582008  1.0509378891  1.6320545139
H   2.8245067350  0.2681051749  1.5466570803
H   1.7714729812  0.7011444931 -2.0539089587
H   2.4580327643 -1.4155699986  1.0991024358
H   1.3109072033 -0.4684467610  2.0481916810
H   2.9434087126  1.2513547010 -0.8694862249
H   2.9944481404 -0.4328111899 -1.4290200949
22
Image 101  Energy = -383.6364986276
C  -0.8891393899 -0.5317832506  0.4517383305
C   1.3819471150  0.1011381623 -0.0355180388
C  -1.2107826149  0.9728027679  0.7550690575
C   2.0381727469 -0.4176747470  1.2338586926
C   2.3376246362  0.3948741158 -1.1705970718
N   0.2682571330 -0.7625653650 -0.4183092920
N  -2.0878978967 -1.1016642708 -0.1756419734
O  -1.7970813443  1.5486880772 -0.3913204442
H  -2.4521311024  0.8871968553 -0.6603246142
H   0.0111648508 -0.5765728918 -1.3828289535
H  -0.6908947999 -1.0733949984  1.3805932677
H   0.9719932490  1.0750680344  0.2059004823
H  -2.4441892175 -1.8981910274  0.3321672024
H  -1.8913307876 -1.4251325628 -1.1148003369
H  -0.3670523486  1.6205008585  0.9971377030
H  -1.8646307714  1.0487738869  1.6314862696
H   2.8252357540  0.2678473963  1.5469212936
H   1.7720351078  0.7007651208 -2.0542051530
H   2.4582004987 -1.4154459982  1.0985184510
H   1.3114000805 -0.4685220220  2.0481173688
H   2.9445902109  1.2506341375 -0.8702980319
H   2.9944159107 -0.4337022822 -1.4291992168
22
Image 102  Energy = -383.6367154934
C  -0.8896827197 -0.5312834659  0.4518895933
C   1.3823523338  0.1019305985 -0.0353523492
C  -1.2120570313  0.9719368782  0.7548977878
C   2.0386296613 -0.4174887766  1.2337860150
C   2.3381028630  0.3944544595 -1.1708568614
N   0.2680810552 -0.7612887063 -0.4178899135
N  -2.0881162656 -1.1015151851 -0.1755580851
O  -1.7976804545  1.5486192516 -0.3914405445
H  -2.4531529628  0.8877858748 -0.6611476696
H   0.0109037166 -0.5750886309 -1.3823242651
H  -0.6915778062 -1.0717534986  1.3814123654
H   0.9738117568  1.0766550567  0.2058960892
H  -2.4440508000 -1.8978877427  0.3326492839
H  -1.8907549281 -1.4251700531 -1.1144279795
H  -0.3673598928  1.6176890499  0.9978226411
H  -1.8664917622  1.0466649756  1.6309249808
H   2.8259598578  0.2675914084  1.5471804336
H   1.7725940117  0.7003859546 -2.0545004155
H   2.4583652978 -1.4153204276  1.0979335136
H   1.3118912723 -0.4685950427  2.0480460772
H   2.9457679675  1.2499131889 -0.8711067104
H   2.9943718497 -0.4345951716 -1.4293689948
22
Image 103  Energy = -383.6369240880
C  -0.8902120240 -0.5308053751  0.4520379593
C   1.3827512593  0.1027175290 -0.0351875148
C  -1.2133119949  0.9711037373  0.7547403428
C   2.0390817352 -0.4173028387  1.2337132469
C   2.3385740676  0.3940375865 -1.1711123538
N   0.2679122234 -0.7600294888 -0.4174814688
N  -2.0883193503 -1.1013969253 -0.1754803116
O  -1.7982650132  1.5485644008 -0.3915530674
H  -2.4541489859  0.8883768287 -0.6619504114
H   0.0106459044 -0.5736075487 -1.3818273259
H  -0.6922422129 -1.0701633240  1.3822117786
H   0.9755950887  1.0782181884  0.2058980906
H  -2.4439252784 -1.8976103531  0.3331176498
H  -1.8901954046 -1.4252335959 -1.1140714457
H  -0.3676868615  1.6149742989  0.9985156356
H  -1.8683410148  1.0446096219  1.6303705544
H   2.8266790410  0.2673372432  1.5474344906
H   1.7731496923  0.7000070375 -2.0547946222
H   2.4585272058 -1.4151933935  1.0973477692
H   1.3123808054 -0.4686658853  2.0479776784
H   2.9469419341  1.2491920006 -0.8719121096
H   2.9943162034 -0.4354897472 -1.4295295719
22
Image 104  Energy = -383.6371249724
C  -0.8907277976 -0.5303477294  0.4521836038
C   1.3831440428  0.1034989493 -0.0350236313
C  -1.2145480175  0.9703016540  0.7545961530
C   2.0395291276 -0.4171169902  1.2336403507
C   2.3390383609  0.3936234964 -1.1713635410
N   0.2677502549 -0.7587871217 -0.4170835905
N  -2.0885078854 -1.1013076843 -0.1754084422
O  -1.7988353604  1.5485227131 -0.3916583113
H  -2.4551199788  0.8889694387 -0.6627335768
H   0.0103913458 -0.5721297590 -1.3813379837
H  -0.6928883335 -1.0686227994  1.3829916405
H   0.9773439102  1.0797578631  0.2059062435
H  -2.4438116965 -1.8973576859  0.3335726602
H  -1.8896512889 -1.4253222597 -1.1137298397
H  -0.3680327381  1.6123531553  0.9992163105
H  -1.8701783863  1.0426062886  1.6298229019
H   2.8273932832  0.2670849025  1.5476834611
H   1.7737020939  0.6996284247 -2.0550877059
H   2.4586862674 -1.4150649692  1.0967613544
H   1.3128686379 -0.4687346055  2.0479121331
H   2.9481119805  1.2484706012 -0.8727141126
H   2.9942491974 -0.4363858852 -1.4296810846
22
Image 105  Energy = -383.6373185407
C  -0.8912304989 -0.5299092336  0.4523265674
C   1.3835306929  0.1042748391 -0.0348606379
C  -1.2157657621  0.9695290288  0.7544647377
C   2.0399719364 -0.4169312787  1.2335673351
C   2.3394960660  0.3932121441 -1.1716105111
N   0.2675947786 -0.7575611539 -0.4166959804
N  -2.0886825763 -1.1012457734 -0.1753421844
O  -1.7993917164  1.5484934437 -0.3917565029
H  -2.4560667990  0.8895633684 -0.6634979018
H   0.0101399769 -0.5706553629 -1.3808561113
H  -0.6935164839 -1.0671303509  1.3837522030
H   0.9790588987  1.0812745535  0.2059203184
H  -2.4437091342 -1.8971285703  0.3340146749
H  -1.8891216585 -1.4254351460 -1.1134023976
H  -0.3683969555  1.6098223027  0.9999243023
H  -1.8720037238  1.0406534923  1.6292819007
H   2.8281025800  0.2668344096  1.5479273357
H   1.7742511618  0.6992501904 -2.0553796237
H   2.4588425273 -1.4149352519  1.0961743963
H   1.3133547656 -0.4688012640  2.0478493597
H   2.9492779534  1.2477490194 -0.8735126278
H   2.9941709902 -0.4372834096 -1.4298236592
22
Image 106  Energy = -383.6375052223
C  -0.8917205446 -0.5294887629  0.4524669921
C   1.3839113595  0.1050452173 -0.0346985410
C  -1.2169656798  0.9687843893  0.7543456215
C   2.0404101111 -0.4167457582  1.2334941873
C   2.3399470646  0.3928034934 -1.1718533408
N   0.2674454503 -0.7563510358 -0.4163183488
N  -2.0888441059 -1.1012095325 -0.1752813934
O  -1.7999344269  1.5484758530 -0.3918479533
H  -2.4569902254  0.8901583577 -0.6642440954
H   0.0098917343 -0.5691844641 -1.3803815494
H  -0.6941269755 -1.0656844108  1.3844936941
H   0.9807407322  1.0827686615  0.2059400686
H  -2.4436167482 -1.8969219537  0.3344440925
H  -1.8886056546 -1.4255713666 -1.1130883392
H  -0.3687789746  1.6073785118  1.0006392599
H  -1.8738169411  1.0387497485  1.6287474736
H   2.8288069738  0.2665858047  1.5481661445
H   1.7747968945  0.6988723696 -2.0556702863
H   2.4589960627 -1.4148043571  1.0955870185
H   1.3138392255 -0.4688659009  2.0477892439
H   2.9504398262  1.2470273809 -0.8743075049
H   2.9940818604 -0.4381822485 -1.4299574518
22
Image 107  Energy = -383.6376854466
C  -0.8921984123 -0.5290853451  0.4526049487
C   1.3842861226  0.1058101560 -0.0345374033
C  -1.2181482087  0.9680663916  0.7542382917
C   2.0408437336 -0.4165604955  1.2334209289
C   2.3403916999  0.3923975037 -1.1720919815
N   0.2673019564 -0.7551562917 -0.4159503640
N  -2.0889931174 -1.1011974812 -0.1752258546
O  -1.8004638436  1.5484691954 -0.3919329207
H  -2.4578909831  0.8907541799 -0.6649728192
H   0.0096465340 -0.5677171357 -1.3799141996
H  -0.6947201338 -1.0642834515  1.3852163514
H   0.9823900966  1.0842405922  0.2059652728
H  -2.4435336866 -1.8967367000  0.3348612322
H  -1.8881024471 -1.4257300358 -1.1127868593
H  -0.3691782691  1.6050186524  1.0013608431
H  -1.8756179833  1.0368936065  1.6282195359
H   2.8295064744  0.2663391080  1.5483998854
H   1.7753392079  0.6984950467 -2.0559597009
H   2.4591469087 -1.4146723553  1.0949993454
H   1.3143220190 -0.4689285812  2.0477317173
H   2.9515974093  1.2463056443 -0.8750986818
H   2.9939819404 -0.4390822073 -1.4300825761
22
Image 108  Energy = -383.6378595639
C  -0.8926644879 -0.5286979169  0.4527405151
C   1.3846550466  0.1065695978 -0.0343771559
C  -1.2193139051  0.9673737372  0.7541422873
C   2.0412729528 -0.4163755120  1.2333474269
C   2.3408298138  0.3919942009 -1.1723265675
N   0.2671639874 -0.7539764936 -0.4155918317
N  -2.0891301795 -1.1012081102 -0.1751754020
O  -1.8009802486  1.5484728161 -0.3920116819
H  -2.4587698088  0.8913505775 -0.6656847205
H   0.0094043226 -0.5662534641 -1.3794538938
H  -0.6952962685 -1.0629260361  1.3859204798
H   0.9840076534  1.0856908229  0.2059957113
H  -2.4434592135 -1.8965718403  0.3352665065
H  -1.8876112375 -1.4259103069 -1.1124972971
H  -0.3695942677  1.6027397163  1.0020887149
H  -1.8774067992  1.0350836478  1.6276980322
H   2.8302010611  0.2660943116  1.5486285628
H   1.7758781323  0.6981182436 -2.0562477323
H   2.4592951050 -1.4145393135  1.0944115087
H   1.3148030881 -0.4689893600  2.0476767666
H   2.9527507089  1.2455839535 -0.8758860267
H   2.9938715633 -0.4399832752 -1.4301992110
22
Image 109  Energy = -383.6380279072
C  -0.8931191350 -0.5283255947  0.4528737396
C   1.3850183538  0.1073236033 -0.0342178742
C  -1.2204633084  0.9667052007  0.7540572238
C   2.0416977631 -0.4161908305  1.2332738162
C   2.3412615321  0.3915935264 -1.1725571206
N   0.2670311779 -0.7528112170 -0.4152424852
N  -2.0892559177 -1.1012401174 -0.1751297604
O  -1.8014839196  1.5484861308 -0.3920844706
H  -2.4596274432  0.8919472812 -0.6663804464
H   0.0091650201 -0.5647935133 -1.3790005287
H  -0.6958557102 -1.0616107422  1.3866063474
H   0.9855940387  1.0871197876  0.2060311837
H  -2.4433925639 -1.8964263033  0.3356602267
H  -1.8871312431 -1.4261113518 -1.1122189943
H  -0.3700264100  1.6005387992  1.0028225541
H  -1.8791833122  1.0333184913  1.6271828118
H   2.8308907415  0.2658514199  1.5488521819
H   1.7764136444  0.6977420157 -2.0565343395
H   2.4594407230 -1.4144053413  1.0938235985
H   1.3152824844 -0.4690482748  2.0476242644
H   2.9538996014  1.2448623183 -0.8766694519
H   2.9937509020 -0.4408852927 -1.4303074840
22
Image 110  Energy = -383.6381908007
C  -0.8935627768 -0.5279674906  0.4530047668
C   1.3853759887  0.1080721766 -0.0340594786
C  -1.2215967841  0.9660596504  0.7539825753
C   2.0421181459 -0.4160065755  1.2331999971
C   2.3416870369  0.3911954350 -1.1727837398
N   0.2669033096 -0.7516600038 -0.4149021079
N  -2.0893708163 -1.1012921460 -0.1750888393
O  -1.8019752066  1.5485084745 -0.3921515392
H  -2.4604645183  0.8925441148 -0.6670605810
H   0.0089285551 -0.5633373524 -1.3785539646
H  -0.6963987795 -1.0603361872  1.3872742323
H   0.9871499325  1.0885278769  0.2060714799
H  -2.4433330726 -1.8962991871  0.3360427891
H  -1.8866617510 -1.4263323531 -1.1119512838
H  -0.3704741750  1.5984130778  1.0035620479
H  -1.8809475398  1.0315967615  1.6266738381
H   2.8315756081  0.2656105105  1.5490707884
H   1.7769457172  0.6973664133 -2.0568194723
H   2.4595837861 -1.4142704800  1.0932357424
H   1.3157602134 -0.4691053853  2.0475741407
H   2.9550440047  1.2441407881 -0.8774488723
H   2.9936201416 -0.4417881214 -1.4304075274
22
Image 111  Energy = -383.6383485687
C  -0.8939957112 -0.5276228389  0.4531336527
C   1.3857280561  0.1088153531 -0.0339020390
C  -1.2227148196  0.9654359938  0.7539180034
C   2.0425342963 -0.4158227237  1.2331260251
C   2.3421064624  0.3907998826 -1.1730064584
N   0.2667800611 -0.7505224519 -0.4145705089
N  -2.0894754569 -1.1013630329 -0.1750524199
O  -1.8024544375  1.5485393165 -0.3922131948
H  -2.4612816970  0.8931408616 -0.6677257101
H   0.0086948636 -0.5618850425 -1.3781140645
H  -0.6969258092 -1.0591010375  1.3879244479
H   0.9886759457  1.0899155467  0.2061164203
H  -2.4432800584 -1.8961895042  0.3364145112
H  -1.8862020418 -1.4265725241 -1.1116935773
H  -0.3709369713  1.5963598640  1.0043068975
H  -1.8826994706  1.0299171306  1.6261710248
H   2.8322555860  0.2653715122  1.5492843606
H   1.7774743251  0.6969914831 -2.0571030850
H   2.4597243553 -1.4141348118  1.0926480308
H   1.3162362358 -0.4691607298  2.0475263663
H   2.9561838200  1.2434193962 -0.8782242004
H   2.9934794850 -0.4426916456 -1.4304994908
22
Image 112  Energy = -383.6385014782
C  -0.8944183599 -0.5272908625  0.4532603575
C   1.3860747164  0.1095531371 -0.0337455478
C  -1.2238178621  0.9648331931  0.7538630649
C   2.0429461313 -0.4156393222  1.2330518306
C   2.3425196868  0.3904068783 -1.1732253371
N   0.2666612105 -0.7493981952 -0.4142473976
N  -2.0895702039 -1.1014514634 -0.1750204366
O  -1.8029218721  1.5485781537 -0.3922696280
H  -2.4620796189  0.8937372934 -0.6683763895
H   0.0084638507 -0.5604366185 -1.3776807777
H  -0.6974370892 -1.0579040482  1.3885573770
H   0.9901727295  1.0912832278  0.2061658136
H  -2.4432329694 -1.8960965021  0.3367758268
H  -1.8857514563 -1.4268310843 -1.1114452629
H  -0.3714142807  1.5943765495  1.0050567976
H  -1.8844391180  1.0282783140  1.6256742838
H   2.8329307472  0.2651344828  1.5494929437
H   1.7779994855  0.6966172604 -2.0573850985
H   2.4598624753 -1.4139984250  1.0920605736
H   1.3167105826 -0.4692143649  2.0474808703
H   2.9573190206  1.2426982130 -0.8789953419
H   2.9933292133 -0.4435958197 -1.4305835303
22
Image 113  Energy = -383.6386497660
C  -0.8948310453 -0.5269708855  0.4533850185
C   1.3864159905  0.1102856167 -0.0335900278
C  -1.2249063289  0.9642502977  0.7538174211
C   2.0433538267 -0.4154563830  1.2329774612
C   2.3429270047  0.3900163501 -1.1734403430
N   0.2665464903 -0.7482868685 -0.4139325782
N  -2.0896555681 -1.1015564348 -0.1749925892
O  -1.8033778092  1.5486244959 -0.3923210854
H  -2.4628589226  0.8943332037 -0.6690131732
H   0.0082354438 -0.5589921226 -1.3772539960
H  -0.6979329607 -1.0567439340  1.3891732729
H   0.9916409211  1.0926312929  0.2062194711
H  -2.4431911789 -1.8960192008  0.3371269976
H  -1.8853093417 -1.4271073119 -1.1112058535
H  -0.3719055564  1.5924606066  1.0058114712
H  -1.8861664804  1.0266790346  1.6251834979
H   2.8336010375  0.2648993713  1.5496965210
H   1.7785211351  0.6962438136 -2.0576655404
H   2.4599981874 -1.4138613747  1.0914734634
H   1.3171832305 -0.4692663296  2.0474375977
H   2.9584494837  1.2419772335 -0.8797622429
H   2.9931694600 -0.4445004742 -1.4306597726
22
Image 114  Energy = -383.6387936860
C  -0.8952340272 -0.5266622214  0.4535077118
C   1.3867518999  0.1110127935 -0.0334354049
C  -1.2259805992  0.9636864261  0.7537806222
C   2.0437573687 -0.4152739795  1.2329028565
C   2.3433284979  0.3896282678 -1.1736515981
N   0.2664356636 -0.7471880730 -0.4136259525
N  -2.0897320482 -1.1016769960 -0.1749688156
O  -1.8038225905  1.5486778051 -0.3923677861
H  -2.4636201369  0.8949284619 -0.6696365559
H   0.0080095825 -0.5575516117 -1.3768335369
H  -0.6984137319 -1.0556195017  1.3897724944
H   0.9930811447  1.0939601339  0.2062772198
H  -2.4431541303 -1.8959567459  0.3374683549
H  -1.8848750921 -1.4274004502 -1.1109747780
H  -0.3724102748  1.5906096059  1.0065706434
H  -1.8878816198  1.0251180590  1.6246986213
H   2.8342665400  0.2646662185  1.5498951461
H   1.7790392753  0.6958711791 -2.0579443506
H   2.4601315196 -1.4137236899  1.0908868010
H   1.3176541828 -0.4693166737  2.0473964887
H   2.9595751490  1.2412564973 -0.8805248241
H   2.9930004456 -0.4454055086 -1.4307283663
22
Image 115  Energy = -383.6389335231
C  -0.8956276253 -0.5263642302  0.4536284192
C   1.3870825725  0.1117346781 -0.0332817874
C  -1.2270410657  0.9631407046  0.7537523997
C   2.0441567694 -0.4150921242  1.2328280587
C   2.3437241325  0.3892426078 -1.1738591413
N   0.2663285178 -0.7461014702 -0.4133271901
N  -2.0898000225 -1.1018120355 -0.1749489681
O  -1.8042565091  1.5487376609 -0.3924099646
H  -2.4643638426  0.8955228812 -0.6702470480
H   0.0077861736 -0.5561150988 -1.3764193803
H  -0.6988797090 -1.0545296042  1.3903554000
H   0.9944939971  1.0952701901  0.2063388929
H  -2.4431213664 -1.8959084580  0.3378002954
H  -1.8844481086 -1.4277098168 -1.1107515945
H  -0.3729279125  1.5888212106  1.0073340415
H  -1.8895845411  1.0235941737  1.6242195058
H   2.8349272634  0.2644350239  1.5500888313
H   1.7795539127  0.6954993895 -2.0582214804
H   2.4602625380 -1.4135854778  1.0903006659
H   1.3181234483 -0.4693654393  2.0473574924
H   2.9606960014  1.2405360848 -0.8812830020
H   2.9928223946 -0.4463108538 -1.4307894543
22
Image 116  Energy = -383.6390694086
C  -0.8960121934 -0.5260763720  0.4537472200
C   1.3874081298  0.1124513272 -0.0331291700
C  -1.2280881596  0.9626122821  0.7537323242
C   2.0445521601 -0.4149108540  1.2327530830
C   2.3441139517  0.3888593204 -1.1740630307
N   0.2662248158 -0.7450267446 -0.4130362270
N  -2.0898597853 -1.1019605945 -0.1749328799
O  -1.8046797897  1.5488037188 -0.3924478138
H  -2.4650906348  0.8961162391 -0.6708451354
H   0.0075651541 -0.5546826233 -1.3760113713
H  -0.6993312025 -1.0534731071  1.3909223138
H   0.9958800805  1.0965618480  0.2064043258
H  -2.4430923977 -1.8958735539  0.3381231212
H  -1.8840278482 -1.4280347324 -1.1105358211
H  -0.3734579364  1.5870931754  1.0081014184
H  -1.8912753165  1.0221062251  1.6237461128
H   2.8355831747  0.2642057521  1.5502775758
H   1.7800650656  0.6951284784 -2.0584968467
H   2.4603912516 -1.4134467434  1.0897151487
H   1.3185910267 -0.4694126659  2.0473205398
H   2.9618119693  1.2398160123 -0.8820367233
H   2.9926355027 -0.4472163908 -1.4308431726
22
Image 117  Energy = -383.6392016361
C  -0.8963879637 -0.5257980572  0.4538641627
C   1.3877285703  0.1131627600 -0.0329774958
C  -1.2291221359  0.9621004499  0.7537201218
C   2.0449435466 -0.4147302587  1.2326778593
C   2.3444981619  0.3884784298 -1.1742632991
N   0.2661243937 -0.7439635654 -0.4127528237
N  -2.0899117972 -1.1021218588 -0.1749204681
O  -1.8050928168  1.5488754768 -0.3924815680
H  -2.4658009468  0.8967084705 -0.6714312527
H   0.0073464219 -0.5532542026 -1.3756094626
H  -0.6997685205 -1.0524489082  1.3914735695
H   0.9972399835  1.0978354902  0.2064733601
H  -2.4430667795 -1.8958513096  0.3384371661
H  -1.8836137651 -1.4283745239 -1.1103270145
H  -0.3739998942  1.5854232945  1.0088724996
H  -1.8929540072  1.0206530608  1.6232783367
H   2.8362343555  0.2639784443  1.5504614386
H   1.7805726939  0.6947584919 -2.0587704675
H   2.4605176880 -1.4133075145  1.0891303415
H   1.3190569071 -0.4694583976  2.0472855960
H   2.9629229530  1.2390962595 -0.8827859326
H   2.9924399706 -0.4481220346 -1.4308896768
22
Image 118  Energy = -383.6393303152
C  -0.8967552205 -0.5255287840  0.4539792782
C   1.3880440125  0.1138690331 -0.0328267963
C  -1.2301433794  0.9616044677  0.7537154540
C   2.0453308975 -0.4145502587  1.2326023831
C   2.3448769057  0.3880997925 -1.1744599744
N   0.2660270044 -0.7429116339 -0.4124768260
N  -2.0899563593 -1.1022949357 -0.1749115956
O  -1.8054957665  1.5489526718 -0.3925113951
H  -2.4664953930  0.8972993257 -0.6720058819
H   0.0071299254 -0.5518298566 -1.3752135243
H  -0.7001919606 -1.0514559707  1.3920095266
H   0.9985742823  1.0990914861  0.2065458514
H  -2.4430441047 -1.8958410558  0.3387427513
H  -1.8832053579 -1.4287285659 -1.1101247687
H  -0.3745532739  1.5838094864  1.0096470563
H  -1.8946206688  1.0192335707  1.6228160902
H   2.8368808230  0.2637530834  1.5506404386
H   1.7810767682  0.6943894927 -2.0590423591
H   2.4606419391 -1.4131679360  1.0885463047
H   1.3195210828 -0.4695026722  2.0472526298
H   2.9640289201  1.2383768934 -0.8835305697
H   2.9922359423 -0.4490276365 -1.4309290828
22
Image 119  Energy = -383.6394556647
C  -0.8971141896 -0.5252681181  0.4540926340
C   1.3883545252  0.1145701660 -0.0326770598
C  -1.2311522815  0.9611236497  0.7537179375
C   2.0457143079 -0.4143709005  1.2325267179
C   2.3452500210  0.3877234594 -1.1746532698
N   0.2659324939 -0.7418706217 -0.4122080797
N  -2.0899938429 -1.1024790899 -0.1749060966
O  -1.8058889298  1.5490348912 -0.3925374382
H  -2.4671744211  0.8978887018 -0.6725694374
H   0.0069155809 -0.5504096095 -1.3748234738
H  -0.7006018300 -1.0504932444  1.3925304924
H   0.9998835582  1.1003302115  0.2066216386
H  -2.4430239644 -1.8958420753  0.3390401438
H  -1.8828021394 -1.4290962427 -1.1099286920
H  -0.3751175607  1.5822497573  1.0104248733
H  -1.8962753830  1.0178466955  1.6223592890
H   2.8375225494  0.2635296350  1.5508145800
H   1.7815773864  0.6940214567 -2.0593123442
H   2.4607640133 -1.4130280136  1.0879631162
H   1.3199835742 -0.4695455277  2.0472215665
H   2.9651298750  1.2376579831 -0.8842705573
H   2.9920236752 -0.4499331665 -1.4309615500
22
Image 120  Energy = -383.6395778250
C  -0.8974651415 -0.5250155276  0.4542042245
C   1.3886601696  0.1152661735 -0.0325283043
C  -1.2321491362  0.9606573334  0.7537273477
C   2.0460938088 -0.4141922247  1.2324508168
C   2.3456178103  0.3873493934 -1.1748430205
N   0.2658406637 -0.7408402625 -0.4119464200
N  -2.0900245034 -1.1026735187 -0.1749038518
O  -1.8062726486  1.5491217813 -0.3925599614
H  -2.4678384336  0.8984765188 -0.6731222902
H   0.0067033151 -0.5489934668 -1.3744392069
H  -0.7009984172 -1.0495597845  1.3930368362
H   1.0011683542  1.1015520584  0.2067005898
H  -2.4430060227 -1.8958537837  0.3393296746
H  -1.8824036468 -1.4294769658 -1.1097384365
H  -0.3756923103  1.5807421426  1.0112056950
H  -1.8979182140  1.0164913712  1.6219078322
H   2.8381595936  0.2633081199  1.5509839063
H   1.7820744548  0.6936544752 -2.0595805567
H   2.4608839436 -1.4128877950  1.0873808541
H   1.3204443636 -0.4695870051  2.0471923643
H   2.9662256931  1.2369394639 -0.8850058872
H   2.9918033223 -0.4508384988 -1.4309872154
22
Image 121  Energy = -383.6396969976
C  -0.8978083021 -0.5247706071  0.4543141176
C   1.3889609954  0.1159570874 -0.0323805444
C  -1.2331342678  0.9602049238  0.7537434120
C   2.0464695818 -0.4140143023  1.2323745977
C   2.3459803365  0.3869775190 -1.1750293701
N   0.2657513906 -0.7398203024 -0.4116917192
N  -2.0900487225 -1.1028776080 -0.1749047629
O  -1.8066471152  1.5492130640 -0.3925790786
H  -2.4684879496  0.8990625933 -0.6736648717
H   0.0064930465 -0.5475814432 -1.3740606285
H  -0.7013820051 -1.0486545927  1.3935288631
H   1.0024292205  1.1027574048  0.2067825684
H  -2.4429899135 -1.8958755136  0.3396116007
H  -1.8820094422 -1.4298701488 -1.1095536242
H  -0.3762770568  1.5792847701  1.0119893118
H  -1.8995492420  1.0151665997  1.6214616177
H   2.8387919459  0.2630885125  1.5511484490
H   1.7825680044  0.6932885580 -2.0598468996
H   2.4610017276 -1.4127472592  1.0867995989
H   1.3209033902 -0.4696271415  2.0471650516
H   2.9673163570  1.2362214000 -0.8857364983
H   2.9915750389 -0.4517435167 -1.4310062014
22
Image 122  Energy = -383.6398132656
C  -0.8981439463 -0.5245329793  0.4544222995
C   1.3892570885  0.1166430190 -0.0322337371
C  -1.2341079580  0.9597658609  0.7537658305
C   2.0468413454 -0.4138370702  1.2322982068
C   2.3463375588  0.3866078645 -1.1752124052
N   0.2656645189 -0.7388104429 -0.4114437783
N  -2.0900666719 -1.1030906051 -0.1749087381
O  -1.8070126074  1.5493084251 -0.3925949578
H  -2.4691233827  0.8996468285 -0.6741975451
H   0.0062847023 -0.5461735392 -1.3736876836
H  -0.7017528776 -1.0477767695  1.3940069455
H   1.0036667317  1.1039465006  0.2068674203
H  -2.4429753430 -1.8959067357  0.3398862361
H  -1.8816191235 -1.4302752427 -1.1093739187
H  -0.3768713617  1.5778758287  1.0127755069
H  -1.9011685646  1.0138713905  1.6210205636
H   2.8394196982  0.2628708417  1.5513082390
H   1.7830580678  0.6929237358 -2.0601113424
H   2.4611174718 -1.4126065678  1.0862193885
H   1.3213607713 -0.4696659683  2.0471394602
H   2.9684018334  1.2355038223 -0.8864623371
H   2.9913390662 -0.4526481996 -1.4310186648
22
Image 123  Energy = -383.6399268263
C  -0.8984722619 -0.5243022639  0.4545288884
C   1.3895484929  0.1173239412 -0.0320879621
C  -1.2350704617  0.9593395570  0.7537943301
C   2.0472094342 -0.4136606207  1.2322215466
C   2.3466896084  0.3862403529 -1.1753921132
N   0.2655798745 -0.7378104354 -0.4112024791
N  -2.0900786424 -1.1033118661 -0.1749157332
O  -1.8073693694  1.5494076283 -0.3926077647
H  -2.4697451577  0.9002290945 -0.6747206735
H   0.0060782138 -0.5447697593 -1.3733202698
H  -0.7021113181 -1.0469253985  1.3944713794
H   1.0048813785  1.1051197864  0.2069550416
H  -2.4429620357 -1.8959469318  0.3401538778
H  -1.8812322948 -1.4306917075 -1.1091989908
H  -0.3774748118  1.5765135839  1.0135640714
H  -1.9027762639  1.0126047886  1.6205845786
H   2.8400427944  0.2626550527  1.5514632955
H   1.7835446104  0.6925600503 -2.0603739007
H   2.4612311405 -1.4124656504  1.0856403086
H   1.3218164040 -0.4697035246  2.0471156622
H   2.9694821046  1.2347867622 -0.8871833654
H   2.9910955787 -0.4535524426 -1.4310247393
22
Image 124  Energy = -383.6400377847
C  -0.8987934241 -0.5240780479  0.4546338232
C   1.3898352947  0.1179999128 -0.0319431799
C  -1.2360221409  0.9589254834  0.7538286621
C   2.0475737664 -0.4134849230  1.2321446362
C   2.3470365753  0.3858749608 -1.1755685502
N   0.2654973354 -0.7368200429 -0.4109676324
N  -2.0900849762 -1.1035409125 -0.1749255521
O  -1.8077176087  1.5495103885 -0.3926176114
H  -2.4703536881  0.9008092813 -0.6752346129
H   0.0058734985 -0.5433700959 -1.3729583225
H  -0.7024575937 -1.0460996344  1.3949225345
H   1.0060737051  1.1062775416  0.2070452814
H  -2.4429496744 -1.8959954658  0.3404147326
H  -1.8808485677 -1.4311190364 -1.1090285825
H  -0.3780869428  1.5751963877  1.0143548131
H  -1.9043724320  1.0113658772  1.6201535703
H   2.8406612732  0.2624411483  1.5516136578
H   1.7840276605  0.6921975244 -2.0606345454
H   2.4613427893 -1.4123246013  1.0850624131
H   1.3222703344 -0.4697398378  2.0470935620
H   2.9705571164  1.2340702168 -0.8878995590
H   2.9908447165 -0.4544561271 -1.4310245493
22
Image 125  Energy = -383.6401462373
C  -0.8991077126 -0.5238600431  0.4547371913
C   1.3901175604  0.1186709785 -0.0317993995
C  -1.2369632121  0.9585231476  0.7538686103
C   2.0479343170 -0.4133099996  1.2320675438
C   2.3473785211  0.3855116181 -1.1757418332
N   0.2654167531 -0.7358390213 -0.4107392190
N  -2.0900857933 -1.1037770977 -0.1749381265
O  -1.8080576412  1.5496164553 -0.3926247082
H  -2.4709493140  0.9013873252 -0.6757396693
H   0.0056705138 -0.5419745702 -1.3726016737
H  -0.7027919799 -1.0452986272  1.3953606959
H   1.0072442024  1.1074201262  0.2071380357
H  -2.4429380327 -1.8960518795  0.3406690820
H  -1.8804676050 -1.4315567314 -1.1088623779
H  -0.3787073797  1.5739225961  1.0151475408
H  -1.9059571521  1.0101537575  1.6197274342
H   2.8412751793  0.2622291247  1.5517593476
H   1.7845072337  0.6918361856 -2.0608932279
H   2.4614524573 -1.4121834634  1.0844857528
H   1.3227225847 -0.4697749448  2.0470730856
H   2.9716268572  1.2333542430 -0.8886108694
H   2.9905866594 -0.4553591815 -1.4310182273
22
Image 126  Energy = -383.6402523067
C  -0.8994152520 -0.5236479152  0.4548389801
C   1.3903953258  0.1193371395 -0.0316565798
C  -1.2378939676  0.9581320851  0.7539138383
C   2.0482912730 -0.4131358405  1.2319901452
C   2.3477155317  0.3851503612 -1.1759119898
N   0.2653380095 -0.7348671425 -0.4105170007
N  -2.0900813716 -1.1040198885 -0.1749533827
O  -1.8083896573  1.5497255855 -0.3926291240
H  -2.4715324190  0.9019631204 -0.6762361704
H   0.0054691576 -0.5405831632 -1.3722503264
H  -0.7031147393 -1.0445215748  1.3957862157
H   1.0083933802  1.1085478682  0.2072331784
H  -2.4429268862 -1.8961157124  0.3409171977
H  -1.8800890592 -1.4320043162 -1.1087001276
H  -0.3793356871  1.5726906748  1.0159420750
H  -1.9075305545  1.0089675628  1.6193061169
H   2.8418844832  0.2620189379  1.5519003998
H   1.7849833442  0.6914760503 -2.0611499449
H   2.4615601605 -1.4120422592  1.0839103885
H   1.3231730751 -0.4698088711  2.0470542853
H   2.9726912892  1.2326388287 -0.8893172767
H   2.9903215810 -0.4562615327 -1.4310059099
22
Image 127  Energy = -383.6403561287
C  -0.8997162469 -0.5234413919  0.4549392468
C   1.3906687086  0.1199985200 -0.0315147802
C  -1.2388146202  0.9577518311  0.7539642191
C   2.0486445251 -0.4129625775  1.2319125213
C   2.3480476173  0.3847911238 -1.1760789876
N   0.2652609524 -0.7339041795 -0.4103009510
N  -2.0900718795 -1.1042687574 -0.1749712221
O  -1.8087138721  1.5498376272 -0.3926310283
H  -2.4721033999  0.9025365460 -0.6767244452
H   0.0052693940 -0.5391958866 -1.3719041095
H  -0.7034261357 -1.0437676742  1.3961993836
H   1.0095217316  1.1096610361  0.2073305860
H  -2.4429160315 -1.8961865180  0.3411593295
H  -1.8797126212 -1.4324613394 -1.1085415975
H  -0.3799715036  1.5714991216  1.0167382269
H  -1.9090927232  1.0078064575  1.6188895110
H   2.8424892929  0.2618106343  1.5520368666
H   1.7854559798  0.6911171720 -2.0614047291
H   2.4616659157 -1.4119009763  1.0833363769
H   1.3236218659 -0.4698416486  2.0470370536
H   2.9737503923  1.2319240051 -0.8900187487
H   2.9900496755 -0.4571631272 -1.4309877338
22
Image 128  Energy = -383.6404577647
C  -0.9000108767 -0.5232401703  0.4550380381
C   1.3909376835  0.1206550719 -0.0313739822
C  -1.2397253989  0.9573819748  0.7540195006
C   2.0489941285 -0.4127901231  1.2318346359
C   2.3483748997  0.3844339504 -1.1762429434
N   0.2651855277 -0.7329499183 -0.4100908298
N  -2.0900575708 -1.1045232718 -0.1749915603
O  -1.8090305374  1.5499522991 -0.3926305193
H  -2.4726625562  0.9031075636 -0.6772047643
H   0.0050711334 -0.5378127127 -1.3715630186
H  -0.7037264211 -1.0430361698  1.3966004941
H   1.0106297362  1.1107599823  0.2074301642
H  -2.4429052582 -1.8962638263  0.3413956991
H  -1.8793379812 -1.4329273568 -1.1083865460
H  -0.3806144658  1.5703465059  1.0175358248
H  -1.9106437520  1.0066696204  1.6184775064
H   2.8430896049  0.2616041762  1.5521687772
H   1.7859251764  0.6907595559 -2.0616575216
H   2.4617697737 -1.4117597095  1.0827637599
H   1.3240689289 -0.4698733077  2.0470213831
H   2.9748041297  1.2312097629 -0.8907152741
H   2.9897711131 -0.4580638985 -1.4309638355
22
Image 129  Energy = -383.6405573460
C  -0.9002993500 -0.5230439853  0.4551353158
C   1.3912023569  0.1213068650 -0.0312341836
C  -1.2406265443  0.9570221060  0.7540794587
C   2.0493402218 -0.4126184925  1.2317564817
C   2.3486975347  0.3840787088 -1.1764038986
N   0.2651115822 -0.7320041604 -0.4098865525
N  -2.0900386051 -1.1047830082 -0.1750142707
O  -1.8093398693  1.5500694116 -0.3926277268
H  -2.4732102126  0.9036760994 -0.6776774106
H   0.0048743152 -0.5364336421 -1.3712269482
H  -0.7040158452 -1.0423263337  1.3969898784
H   1.0117178451  1.1118449972  0.2075318052
H  -2.4428943714 -1.8963471822  0.3416265123
H  -1.8789648543 -1.4334019393 -1.1082347390
H  -0.3812641998  1.5692314349  1.0183347055
H  -1.9121837591  1.0055562651  1.6180700486
H   2.8436853930  0.2613995226  1.5522961531
H   1.7863909153  0.6904032442 -2.0619083551
H   2.4618717329 -1.4116184573  1.0821925870
H   1.3245142414 -0.4699038796  2.0470072680
H   2.9758524854  1.2304961397 -0.8914068187
H   2.9894860057 -0.4589637161 -1.4309343226
22
Image 130  Energy = -383.6406549078
C  -0.9005818108 -0.5228525303  0.4552311543
C   1.3914628221  0.1219539681 -0.0310953818
C  -1.2415183208  0.9566717967  0.7541439197
C   2.0496826465 -0.4124477142  1.2316781203
C   2.3490154947  0.3837253910 -1.1765619015
N   0.2650390494 -0.7310667063 -0.4096879962
N  -2.0900152075 -1.1050475534 -0.1750393284
O  -1.8096420419  1.5501888226 -0.3926227424
H  -2.4737467091  0.9042420523 -0.6781426596
H   0.0046788700 -0.5350586650 -1.3708958335
H  -0.7042946464 -1.0416374655  1.3973678368
H   1.0127865451  1.1129163478  0.2076353974
H  -2.4428832052 -1.8964361981  0.3418519947
H  -1.8785929766 -1.4338846787 -1.1080859423
H  -0.3819203519  1.5681525853  1.0191346961
H  -1.9137128183  1.0044656274  1.6176670047
H   2.8442767435  0.2611966997  1.5524190394
H   1.7868532279  0.6900482545 -2.0621572028
H   2.4619718487 -1.4114772788  1.0816228986
H   1.3249578653 -0.4699333853  2.0469946027
H   2.9768954569  1.2297831649 -0.8920933587
H   2.9891945371 -0.4598625372 -1.4308993298
22
Image 131  Energy = -383.6407505945
C  -0.9008583850 -0.5226655970  0.4553255947
C   1.3917191694  0.1225964022 -0.0309575844
C  -1.2424008822  0.9563307064  0.7542126989
C   2.0500215896 -0.4122778271  1.2315994657
C   2.3493288328  0.3833739918 -1.1767169939
N   0.2649677658 -0.7301373679 -0.4094951023
N  -2.0899875332 -1.1053165219 -0.1750666846
O  -1.8099373137  1.5503103367 -0.3926157072
H  -2.4742723156  0.9048053874 -0.6786007546
H   0.0044847558 -0.5336877799 -1.3705695339
H  -0.7045630720 -1.0409688608  1.3977346352
H   1.0138362582  1.1139743554  0.2077408424
H  -2.4428716151 -1.8965304962  0.3420723566
H  -1.8782221129 -1.4343751771 -1.1079399329
H  -0.3825826104  1.5671086520  1.0199356449
H  -1.9152310473  1.0033969743  1.6172683028
H   2.8448636528  0.2609956729  1.5525374746
H   1.7873121479  0.6896945975 -2.0624040316
H   2.4620701066 -1.4113361426  1.0810547501
H   1.3253997347 -0.4699618564  2.0469834142
H   2.9779330256  1.2290708437 -0.8927748823
H   2.9888968669 -0.4607602963 -1.4308589844
22
Image 132  Energy = -383.6408444589
C  -0.9011292919 -0.5224829852  0.4554186069
C   1.3919713472  0.1232341726 -0.0308207940
C  -1.2432745109  0.9559984997  0.7542855668
C   2.0503570303 -0.4121087778  1.2315206028
C   2.3496376991  0.3830244823 -1.1768692223
N   0.2648977126 -0.7292159577 -0.4093077101
N  -2.0899557067 -1.1055894692 -0.1750961798
O  -1.8102258091  1.5504338007 -0.3926066519
H  -2.4747873765  0.9053660037 -0.6790519706
H   0.0042918981 -0.5323209617 -1.3702480060
H  -0.7048213562 -1.0403198564  1.3980905769
H   1.0148674260  1.1150193039  0.2078480586
H  -2.4428594749 -1.8966297333  0.3422878235
H  -1.8778519959 -1.4348730785 -1.1077965888
H  -0.3832505973  1.5660984231  1.0207374088
H  -1.9167385604  1.0023495897  1.6168738612
H   2.8454461402  0.2607964212  1.5526514918
H   1.7877676573  0.6893423129 -2.0626488831
H   2.4621665592 -1.4111951390  1.0804881619
H   1.3258398782 -0.4699893125  2.0469736385
H   2.9789651868  1.2283591862 -0.8934513828
H   2.9885931637 -0.4616569270 -1.4308134201
22
Image 133  Energy = -383.6409365708
C  -0.9013946808 -0.5223044760  0.4555103047
C   1.3922194702  0.1238673763 -0.0306849813
C  -1.2441393157  0.9556747959  0.7543623367
C   2.0506889996 -0.4119406154  1.2314414299
C   2.3499420151  0.3826768727 -1.1770186608
N   0.2648288004 -0.7283022932 -0.4091256794
N  -2.0899198461 -1.1058659858 -0.1751278139
O  -1.8105078117  1.5505590615 -0.3925957522
H  -2.4752921126  0.9059238877 -0.6794965169
H   0.0041002363 -0.5309581934 -1.3699312191
H  -0.7050697289 -1.0396898027  1.3984359283
H   1.0158805074  1.1160514108  0.2079569189
H  -2.4428466671 -1.8967336078  0.3424986295
H  -1.8774824161 -1.4353780231 -1.1076557238
H  -0.3839240259  1.5651206831  1.0215398384
H  -1.9182354824  1.0013227840  1.6164836275
H   2.8460242427  0.2605989447  1.5527611382
H   1.7882198282  0.6889913977 -2.0628916886
H   2.4622612061 -1.4110542584  1.0799231949
H   1.3262782753 -0.4700157879  2.0469652733
H   2.9799919325  1.2276482236 -0.8941228347
H   2.9882835916 -0.4625523977 -1.4307627606
22
Image 134  Energy = -383.6410270137
C  -0.9016546711 -0.5221298622  0.4556006250
C   1.3924636441  0.1244960192 -0.0305502148
C  -1.2449955884  0.9553593206  0.7544428554
C   2.0510176141 -0.4117733606  1.2313620511
C   2.3502420009  0.3823310498 -1.1771653604
N   0.2647608973 -0.7273961976 -0.4089489694
N  -2.0898802329 -1.1061459739 -0.1751614405
O  -1.8107834233  1.5506859987 -0.3925830248
H  -2.4757868435  0.9064789415 -0.6799346415
H   0.0039097131 -0.5295994754 -1.3696190208
H  -0.7053084108 -1.0390781004  1.3987709896
H   1.0168758790  1.1170710082  0.2080673608
H  -2.4428330072 -1.8968416114  0.3427048488
H  -1.8771131497 -1.4358896395 -1.1075171096
H  -0.3846025882  1.5641743067  1.0223428018
H  -1.9197218563  1.0003158891  1.6160974536
H   2.8465979618  0.2604032116  1.5528664328
H   1.7886686386  0.6886418864 -2.0631324826
H   2.4623540650 -1.4109135153  1.0793598733
H   1.3267149036 -0.4700413005  2.0469582881
H   2.9810132468  1.2269379695 -0.8947892285
H   2.9879682258 -0.4634465691 -1.4307070986
22
Image 135  Energy = -383.6411158094
C  -0.9019093606 -0.5219589367  0.4556896221
C   1.3927038566  0.1251201542 -0.0304164632
C  -1.2458434282  0.9550517011  0.7545269832
C   2.0513428010 -0.4116069905  1.2312824061
C   2.3505376841  0.3819870446 -1.1773093065
N   0.2646939454 -0.7264975096 -0.4087774528
N  -2.0898369338 -1.1064289051 -0.1751970744
O  -1.8110528656  1.5508144838 -0.3925686091
H  -2.4762718273  0.9070311258 -0.6803665665
H   0.0037202787 -0.5282447895 -1.3693113444
H  -0.7055376282 -1.0384841228  1.3990960138
H   1.0178539689  1.1180783335  0.2081792925
H  -2.4428184774 -1.8969536091  0.3429067755
H  -1.8767440031 -1.4364076187 -1.1073806347
H  -0.3852859793  1.5632581884  1.0231461479
H  -1.9211978553  0.9993282673  1.6157153139
H   2.8471673617  0.2602092283  1.5529674473
H   1.7891140970  0.6882938077 -2.0633712832
H   2.4624451807 -1.4107729743  1.0787982302
H   1.3271497889 -0.4700658694  2.0469526480
H   2.9820291293  1.2262284285 -0.8954505677
H   2.9876472858 -0.4643394425 -1.4306465889
22
Image 136  Energy = -383.6412030805
C  -0.9021589557 -0.5217914978  0.4557773212
C   1.3929401872  0.1257398295 -0.0302837300
C  -1.2466830892  0.9547516949  0.7546145154
C   2.0516645642 -0.4114415311  1.2312025645
C   2.3508290390  0.3816448283 -1.1774505853
N   0.2646279080 -0.7256060630 -0.4086110048
N  -2.0897900762 -1.1067145505 -0.1752346649
O  -1.8113162788  1.5509443644 -0.3925525190
H  -2.4767473226  0.9075803878 -0.6807925050
H   0.0035318688 -0.5268941126 -1.3690081478
H  -0.7057575877 -1.0379073045  1.3994112768
H   1.0188151924  1.1190736158  0.2082926186
H  -2.4428029589 -1.8970692586  0.3431045753
H  -1.8763747903 -1.4369316255 -1.1072461170
H  -0.3859738996  1.5623712694  1.0239497694
H  -1.9226635355  0.9983592814  1.6153370765
H   2.8477324853  0.2600169901  1.5530642105
H   1.7895562430  0.6879471699 -2.0636080763
H   2.4625345632 -1.4106326465  1.0782383002
H   1.3275829458 -0.4700895223  2.0469482758
H   2.9830396049  1.2255196460 -0.8961068246
H   2.9873209122 -0.4652309698 -1.4305813391
22
Image 137  Energy = -383.6412888490
C  -0.9024035502 -0.5216274466  0.4558637241
C   1.3931727204  0.1263550762 -0.0301519693
C  -1.2475146836  0.9544590191  0.7547053266
C   2.0519830140 -0.4112769786  1.2311224113
C   2.3511162095  0.3813043559 -1.1775893120
N   0.2645626621 -0.7247217041 -0.4084495270
N  -2.0897397664 -1.1070025888 -0.1752740860
O  -1.8115738845  1.5510755149 -0.3925348797
H  -2.4772135490  0.9081267065 -0.6812126508
H   0.0033444388 -0.5255474333 -1.3687093206
H  -0.7059685095 -1.0373470567  1.3997170144
H   1.0197599358  1.1200571156  0.2084072571
H  -2.4427863665 -1.8971882618  0.3432983928
H  -1.8760053330 -1.4374613780 -1.1071134394
H  -0.3866660956  1.5615125103  1.0247535321
H  -1.9241190263  0.9974083395  1.6149626897
H   2.8482932962  0.2598264483  1.5531567496
H   1.7899951241  0.6876019812 -2.0638428068
H   2.4626222131 -1.4104925220  1.0776801195
H   1.3280143276 -0.4701122823  2.0469452297
H   2.9840446446  1.2248116166 -0.8967580133
H   2.9869891978 -0.4661210372 -1.4305114519
22
Image 138  Energy = -383.6413731805
C  -0.9026432712 -0.5214665780  0.4559488541
C   1.3934014585  0.1269658893 -0.0300212203
C  -1.2483383900  0.9541734036  0.7547992804
C   2.0522980624 -0.4111133898  1.2310420913
C   2.3513993713  0.3809655988 -1.1777253794
N   0.2644981702 -0.7238442702 -0.4082929420
N  -2.0896861921 -1.1072929141 -0.1753152656
O  -1.8118258673  1.5512078302 -0.3925157932
H  -2.4776707115  0.9086700622 -0.6816271839
H   0.0031579375 -0.5242047350 -1.3684147923
H  -0.7061705882 -1.0368028619  1.4000135168
H   1.0206885554  1.1210291067  0.2085231444
H  -2.4427685697 -1.8973102283  0.3434883280
H  -1.8756354764 -1.4379965652 -1.1069824292
H  -0.3873622951  1.5606809276  1.0255573063
H  -1.9255644405  0.9964748523  1.6145920868
H   2.8488498953  0.2596376207  1.5532451233
H   1.7904306769  0.6872582943 -2.0640756163
H   2.4627081728 -1.4103526283  1.0771237111
H   1.3284439998 -0.4701341511  2.0469433586
H   2.9850442368  1.2241043211 -0.8974041393
H   2.9866522846 -0.4670095901 -1.4304370511
22
Image 139  Energy = -383.6414561234
C  -0.9028782370 -0.5213087401  0.4560327507
C   1.3936264849  0.1275723945 -0.0298914596
C  -1.2491544590  0.9538945882  0.7548961918
C   2.0526099390 -0.4109506476  1.2309614782
C   2.3516784433  0.3806285886 -1.1778589022
N   0.2644343682 -0.7229736596 -0.4081411381
N  -2.0896294327 -1.1075851409 -0.1753581558
O  -1.8120722794  1.5513412555 -0.3924952386
H  -2.4781191228  0.9092103401 -0.6820363274
H   0.0029723020 -0.5228659961 -1.3681245130
H  -0.7063640298 -1.0362741787  1.4003009884
H   1.0216014674  1.1219897739  0.2086401812
H  -2.4427495635 -1.8974350225  0.3436746143
H  -1.8752650509 -1.4385369266 -1.1068530097
H  -0.3880622107  1.5598755900  1.0263609972
H  -1.9269998579  0.9955582681  1.6142251666
H   2.8494022047  0.2594504307  1.5533293525
H   1.7908629922  0.6869160918 -2.0643063836
H   2.4627924419 -1.4102130171  1.0765691062
H   1.3288718743 -0.4701551659  2.0469427539
H   2.9860383957  1.2233977918 -0.8980452002
H   2.9863103497 -0.4678966238 -1.4303582644
22
Image 140  Energy = -383.6415377388
C  -0.9031085918 -0.5211537869  0.4561153983
C   1.3938479314  0.1281745548 -0.0297627227
C  -1.2499629216  0.9536223320  0.7549959667
C   2.0529184829 -0.4107888593  1.2308806440
C   2.3519534959  0.3802933187 -1.1779899350
N   0.2643711837 -0.7221097031 -0.4079940405
N  -2.0895695734 -1.1078790268 -0.1754027812
O  -1.8123134202  1.5514756023 -0.3924733650
H  -2.4785588843  0.9097476100 -0.6824402115
H   0.0027874972 -0.5215312043 -1.3678383778
H  -0.7065490293 -1.0357605052  1.4005797059
H   1.0224989926  1.1229394188  0.2087583161
H  -2.4427293000 -1.8975624151  0.3438574251
H  -1.8748939232 -1.4390821697 -1.1067249996
H  -0.3887656499  1.5590955504  1.0271644718
H  -1.9284254081  0.9946580404  1.6138618674
H   2.8499503607  0.2592649303  1.5534094975
H   1.7912920825  0.6865754009 -2.0645351385
H   2.4628750544 -1.4100736879  1.0760163284
H   1.3292979939 -0.4701753419  2.0469433336
H   2.9870271155  1.2226920319 -0.8986811959
H   2.9859635316 -0.4687820967 -1.4302751991
22
Image 141  Energy = -383.6416180706
C  -0.9033344568 -0.5210015549  0.4561968646
C   1.3940657430  0.1287725059 -0.0296349803
C  -1.2507640228  0.9533563913  0.7550984768
C   2.0532238476 -0.4106280180  1.2307995933
C   2.3522246318  0.3799596207 -1.1781185412
N   0.2643085643 -0.7212522748 -0.4078515873
N  -2.0895067108 -1.1081743845 -0.1754490253
O  -1.8125493271  1.5516108547 -0.3924501654
H  -2.4789903058  0.9102817547 -0.6828390546
H   0.0026034753 -0.5202003407 -1.3675563132
H  -0.7067257800 -1.0352613419  1.4008498894
H   1.0233815258  1.1238781705  0.2088774580
H  -2.4427077135 -1.8976921352  0.3440368793
H  -1.8745219550 -1.4396320576 -1.1065983331
H  -0.3894723323  1.5583399563  1.0279676422
H  -1.9298411487  0.9937736374  1.6135020691
H   2.8504943339  0.2590810780  1.5534855970
H   1.7917179579  0.6862362363 -2.0647619100
H   2.4629559917 -1.4099346395  1.0754654118
H   1.3297223519 -0.4701947016  2.0469450737
H   2.9880104524  1.2219871125 -0.8993121075
H   2.9856118972 -0.4696658757 -1.4301879489
22
Image 142  Energy = -383.6416971277
C  -0.9035558742 -0.5208519683  0.4562771607
C   1.3942800193  0.1293661893 -0.0295082721
C  -1.2515578418  0.9530965393  0.7552035325
C   2.0535259864 -0.4104680976  1.2307183044
C   2.3524919346  0.3796276167 -1.1782446915
N   0.2642464840 -0.7204012172 -0.4077135927
N  -2.0894410409 -1.1084710806 -0.1754968458
O  -1.8127802193  1.5517468998 -0.3924257450
H  -2.4794135200  0.9108128008 -0.6832329885
H   0.0024201782 -0.5188733787 -1.3672782693
H  -0.7068944723 -1.0347762037  1.4011117408
H   1.0242493908  1.1248063248  0.2089975530
H  -2.4426847320 -1.8978239015  0.3442130873
H  -1.8741490116 -1.4401863258 -1.1064728563
H  -0.3901820408  1.5576079515  1.0287703915
H  -1.9312472423  0.9929045528  1.6131457784
H   2.8510341683  0.2588988510  1.5535576871
H   1.7921406263  0.6858986233 -2.0649867163
H   2.4630353104 -1.4097959193  1.0749163659
H   1.3301449292 -0.4702132556  2.0469479772
H   2.9889883613  1.2212829773 -0.8999379734
H   2.9852556268 -0.4705479847 -1.4300966400
22
Image 143  Energy = -383.6417750106
C  -0.9037730080 -0.5207048594  0.4563562811
C   1.3944907997  0.1299556856 -0.0293825581
C  -1.2523445358  0.9528425756  0.7553110676
C   2.0538249775 -0.4103091243  1.2306368034
C   2.3527554184  0.3792971755 -1.1783685462
N   0.2641848834 -0.7195564179 -0.4075799731
N  -2.0893725679 -1.1087688736 -0.1755462123
O  -1.8130061974  1.5518836646 -0.3924001363
H  -2.4798287561  0.9113406942 -0.6836221847
H   0.0022375589 -0.5175502920 -1.3670042129
H  -0.7070552852 -1.0343046398  1.4013655138
H   1.0251029268  1.1257240570  0.2091185252
H  -2.4426603439 -1.8979575470  0.3443862073
H  -1.8737749975 -1.4407447497 -1.1063484745
H  -0.3908945667  1.5568987099  1.0295726231
H  -1.9326437620  0.9920503037  1.6127928819
H   2.8515698787  0.2587182393  1.5536258187
H   1.7925601568  0.6855625559 -2.0652094981
H   2.4631129931 -1.4096575213  1.0743692242
H   1.3305657514 -0.4702310193  2.0469519727
H   2.9899608906  1.2205797000 -0.9005587711
H   2.9848948051 -0.4714283231 -1.4300013631
22
Image 144  Energy = -383.6418517326
C  -0.9039859565 -0.5205600991  0.4564342567
C   1.3946981429  0.1305410452 -0.0292577898
C  -1.2531242756  0.9525942952  0.7554209487
C   2.0541208459 -0.4101510964  1.2305550177
C   2.3530151570  0.3789683977 -1.1784900553
N   0.2641237070 -0.7187177648 -0.4074507557
N  -2.0893014100 -1.1090675616 -0.1755970610
O  -1.8132274635  1.5520210021 -0.3923733970
H  -2.4802361516  0.9118654661 -0.6840067805
H   0.0020555939 -0.5162310808 -1.3667339968
H  -0.7072083971 -1.0338462176  1.4016114501
H   1.0259424822  1.1266315700  0.2092403091
H  -2.4426345150 -1.8980928653  0.3445563680
H  -1.8733997879 -1.4413071120 -1.1062251103
H  -0.3916096695  1.5562114591  1.0303742584
H  -1.9340307974  0.9912104136  1.6124432962
H   2.8521015107  0.2585392311  1.5536900360
H   1.7929765348  0.6852280611 -2.0654303250
H   2.4631890554 -1.4095194515  1.0738240108
H   1.3309847727 -0.4702480185  2.0469570863
H   2.9909280257  1.2198772286 -0.9011745309
H   2.9845296157 -0.4723069086 -1.4299022474
22
Image 145  Energy = -383.6419273112
C  -0.9041948028 -0.5204176552  0.4565111540
C   1.3949021586  0.1311222942 -0.0291340245
C  -1.2538971307  0.9523515067  0.7555330985
C   2.0544135620 -0.4099939804  1.2304730207
C   2.3532711151  0.3786411795 -1.1786093166
N   0.2640628906 -0.7178851250 -0.4073257817
N  -2.0892276721 -1.1093669762 -0.1756493307
O  -1.8134440776  1.5521589560 -0.3923455707
H  -2.4806359669  0.9123870158 -0.6843869528
H   0.0018742326 -0.5149157169 -1.3664675771
H  -0.7073539862 -1.0334004607  1.4018496894
H   1.0267683805  1.1275290848  0.2093628397
H  -2.4426072199 -1.8982296622  0.3447236952
H  -1.8730232785 -1.4418732056 -1.1061026897
H  -0.3923271810  1.5555454255  1.0311751871
H  -1.9354084549  0.9903844197  1.6120969552
H   2.8526290823  0.2583618049  1.5537503755
H   1.7933898345  0.6848951342 -2.0656491400
H   2.4632635363 -1.4093817694  1.0732807324
H   1.3314020277 -0.4702642613  2.0469632617
H   2.9918898221  1.2191756431 -0.9017852494
H   2.9841601478 -0.4731836589 -1.4297993871
22
Image 146  Energy = -383.6420018077
C  -0.9043996484 -0.5202773506  0.4565868926
C   1.3951028438  0.1316994534 -0.0290112682
C  -1.2546632603  0.9521139981  0.7556473831
C   2.0547031115 -0.4098377934  1.2303908487
C   2.3535235365  0.3783155260 -1.1787262624
N   0.2640024326 -0.7170583749 -0.4072049829
N  -2.0891514066 -1.1096669346 -0.1757029846
O  -1.8136562090  1.5522973994 -0.3923167141
H  -2.4810283338  0.9129053692 -0.6847628275
H   0.0016934303 -0.5136041852 -1.3662048777
H  -0.7074922181 -1.0329669941  1.4020805070
H   1.0275809205  1.1284168009  0.2094860721
H  -2.4425784482 -1.8983677700  0.3448883195
H  -1.8726453750 -1.4424428185 -1.1059811086
H  -0.3930468793  1.5548998845  1.0319753356
H  -1.9367768451  0.9895718973  1.6117538172
H   2.8531526384  0.2581859481  1.5538068850
H   1.7937999980  0.6845638178 -2.0658660540
H   2.4633364528 -1.4092444803  1.0727394077
H   1.3318175444 -0.4702797570  2.0469704329
H   2.9928462326  1.2184748867 -0.9023909494
H   2.9837865028 -0.4740585308 -1.4296928828
22
Image 147  Energy = -383.6420752441
C  -0.9046005664 -0.5201391077  0.4566615501
C   1.3953002439  0.1322725946 -0.0288895157
C  -1.2554228935  0.9518815774  0.7557636902
C   2.0549897325 -0.4096826069  1.2303084416
C   2.3537723628  0.3779913946 -1.1788410554
N   0.2639422509 -0.7162374234 -0.4070882505
N  -2.0890727203 -1.1099673361 -0.1757579888
O  -1.8138639430  1.5524362997 -0.3922868353
H  -2.4814134299  0.9134204867 -0.6851345327
H   0.0015131520 -0.5122964545 -1.3659458542
H  -0.7076232583 -1.0325453996  1.4023040749
H   1.0283804112  1.1292949142  0.2096099298
H  -2.4425481688 -1.8985069764  0.3450503330
H  -1.8722659971 -1.4430157468 -1.1058602671
H  -0.3937685445  1.5542741532  1.0327746133
H  -1.9381360285  0.9887724053  1.6114137692
H   2.8536721655  0.2580116326  1.5538596078
H   1.7942071189  0.6842341003 -2.0660809845
H   2.4634077624 -1.4091075281  1.0722000725
H   1.3322312447 -0.4702945303  2.0469786610
H   2.9937973176  1.2177750273 -0.9029916333
H   2.9834088081 -0.4749314841 -1.4295828363
22
Image 148  Energy = -383.6421476510
C  -0.9047976811 -0.5200028181  0.4567351198
C   1.3954944385  0.1328417090 -0.0287687651
C  -1.2561759646  0.9516541276  0.7558818992
C   2.0552731756 -0.4095283210  1.2302258706
C   2.3540175859  0.3776688315 -1.1789536965
N   0.2638823659 -0.7154221419 -0.4069755120
N  -2.0889917022 -1.1102680521 -0.1758143122
O  -1.8140674791  1.5525755201 -0.3922560143
H  -2.4817913764  0.9139324134 -0.6855021955
H   0.0013333545 -0.5109925068 -1.3656904340
H  -0.7077472742 -1.0321352899  1.4025206078
H   1.0291671601  1.1301636169  0.2097343745
H  -2.4425163859 -1.8986471315  0.3452098525
H  -1.8718850621 -1.4435918054 -1.1057400870
H  -0.3944920418  1.5536675303  1.0335729446
H  -1.9394861665  0.9879855334  1.6110768234
H   2.8541877631  0.2578388696  1.5539085967
H   1.7946112187  0.6839059894 -2.0662939389
H   2.4634775523 -1.4089710330  1.0716627153
H   1.3326432087 -0.4703085835  2.0469878255
H   2.9947431012  1.2170760595 -0.9035873202
H   2.9830272297 -0.4758025265 -1.4294693645
22
Image 149  Energy = -383.6422190809
C  -0.9049910518 -0.5198684077  0.4568076545
C   1.3956854177  0.1334068904 -0.0286489506
C  -1.2569227349  0.9514314113  0.7560019721
C   2.0555536517 -0.4093749898  1.2301430522
C   2.3542594790  0.3773477512 -1.1790642629
N   0.2638226835 -0.7146124342 -0.4068667582
N  -2.0889083756 -1.1105689240 -0.1758719389
O  -1.8142668708  1.5527151098 -0.3922242812
H  -2.4821623879  0.9144410680 -0.6858659523
H   0.0011540190 -0.5096923340 -1.3654385011
H  -0.7078644287 -1.0317362783  1.4027302666
H   1.0299414669  1.1310230589  0.2098593394
H  -2.4424830954 -1.8987880812  0.3453669954
H  -1.8715025047 -1.4441708022 -1.1056204712
H  -0.3952171574  1.5530793728  1.0343702506
H  -1.9408272971  0.9872108918  1.6107428476
H   2.8546994234  0.2576676263  1.5539538976
H   1.7950122958  0.6835795105 -2.0665049687
H   2.4635457885 -1.4088349367  1.0711273736
H   1.3330533657 -0.4703219406  2.0469979896
H   2.9956835467  1.2163779559 -0.9041780301
H   2.9826417856 -0.4766715274 -1.4293525346
22
Image 150  Energy = -383.6422895602
C  -0.9051808015 -0.5197357860  0.4568791714
C   1.3958733104  0.1339681596 -0.0285301278
C  -1.2576632617  0.9512132957  0.7561238017
C   2.0558311842 -0.4092225784  1.2300600542
C   2.3544978932  0.3770281520 -1.1791726990
N   0.2637632257 -0.7138082198 -0.4067618396
N  -2.0888228178 -1.1108697993 -0.1759308102
O  -1.8144622951  1.5528549371 -0.3921916909
H  -2.4825265455  0.9149465064 -0.6862258971
H   0.0009750829 -0.5083958995 -1.3651900871
H  -0.7079748692 -1.0313480005  1.4029332580
H   1.0307036179  1.1318734354  0.2099847692
H  -2.4424482936 -1.8989296857  0.3455218625
H  -1.8711182559 -1.4447525876 -1.1055013804
H  -0.3959437464  1.5525090445  1.0351664473
H  -1.9421595446  0.9864480970  1.6104118142
H   2.8552071425  0.2574978699  1.5539955324
H   1.7954103852  0.6832546686 -2.0667140861
H   2.4636124858 -1.4086992722  1.0705940467
H   1.3334617338 -0.4703346086  2.0470090894
H   2.9966187349  1.2156807790 -0.9047637707
H   2.9822526517 -0.4775385162 -1.4292324683
22
Image 151  Energy = -383.6423590625
C  -0.9053669806 -0.5196048742  0.4569496167
C   1.3960581085  0.1345255529 -0.0284123087
C  -1.2583976640  0.9509996384  0.7562473037
C   2.0561058396 -0.4090711002  1.2299768257
C   2.3547329849  0.3767100573 -1.1792790596
N   0.2637039335 -0.7130093563 -0.4066607055
N  -2.0887351559 -1.1111706253 -0.1759907968
O  -1.8146538174  1.5529949944 -0.3921582605
H  -2.4828840501  0.9154486750 -0.6865821668
H   0.0007965323 -0.5071031950 -1.3649450435
H  -0.7080787486 -1.0309701204  1.4031297690
H   1.0314538944  1.1327149173  0.2101106125
H  -2.4424119688 -1.8990717450  0.3456745065
H  -1.8707322312 -1.4453370083 -1.1053827764
H  -0.3966716334  1.5519559502  1.0359614763
H  -1.9434829848  0.9856967727  1.6100836508
H   2.8557109603  0.2573295899  1.5540335565
H   1.7958055087  0.6829314754 -2.0669212894
H   2.4636776543 -1.4085640471  1.0700627587
H   1.3338682783 -0.4703466041  2.0470211486
H   2.9975486381  1.2149844933 -0.9053445754
H   2.9818599185 -0.4784034504 -1.4291092544
22
Image 152  Energy = -383.6424276800
C  -0.9055496995 -0.5194756529  0.4570190541
C   1.3962399380  0.1350790741 -0.0282954678
C  -1.2591260444  0.9507903360  0.7563723819
C   2.0563774503 -0.4089205764  1.2298934606
C   2.3549647845  0.3763933569 -1.1793834453
N   0.2636447621 -0.7122157724 -0.4065632791
N  -2.0886453490 -1.1114711685 -0.1760519956
O  -1.8148415456  1.5531352092 -0.3921239743
H  -2.4832350357  0.9159475755 -0.6869348763
H   0.0006183336 -0.5058141962 -1.3647033282
H  -0.7081762145 -1.0306022692  1.4033199476
H   1.0321925394  1.1335477227  0.2102368437
H  -2.4423741743 -1.8992142416  0.3458251051
H  -1.8703444010 -1.4459238953 -1.1052645558
H  -0.3974006810  1.5514194898  1.0367552652
H  -1.9447977071  0.9849565680  1.6097582739
H   2.8562109631  0.2571628068  1.5540680274
H   1.7961977025  0.6826099372 -2.0671265960
H   2.4637413252 -1.4084292889  1.0695335132
H   1.3342730872 -0.4703579325  2.0470340534
H   2.9984733191  1.2142891671 -0.9059204398
H   2.9814636638 -0.4792662594 -1.4289829807
22
Image 153  Energy = -383.6424954212
C  -0.9057289995 -0.5193479495  0.4570875196
C   1.3964187292  0.1356287860 -0.0281795716
C  -1.2598485148  0.9505851471  0.7564989021
C   2.0566462174 -0.4087709625  1.2298098735
C   2.3551934064  0.3760781304 -1.1794859078
N   0.2635857270 -0.7114273737 -0.4064694444
N  -2.0885535828 -1.1117715062 -0.1761142625
O  -1.8150256181  1.5532755574 -0.3920889243
H  -2.4835796129  0.9164432211 -0.6872841167
H   0.0004404360 -0.5045288706 -1.3644649327
H  -0.7082674077 -1.0302441467  1.4035040001
H   1.0329198464  1.1343719678  0.2103633959
H  -2.4423348512 -1.8993568884  0.3459736486
H  -1.8699546973 -1.4465131034 -1.1051466848
H  -0.3981306984  1.5508991252  1.0375477603
H  -1.9461038294  0.9842271333  1.6094356869
H   2.8567071300  0.2569974594  1.5540989829
H   1.7965869960  0.6822900585 -2.0673299883
H   2.4638035057 -1.4082950061  1.0690063295
H   1.3346760749 -0.4703686036  2.0470478570
H   2.9993927520  1.2135947383 -0.9064914030
H   2.9810640064 -0.4801269245 -1.4288537337
22
Image 154  Energy = -383.6425623170
C  -0.9059049614 -0.5192217498  0.4571550533
C   1.3965946533  0.1361747749 -0.0280646890
C  -1.2605651644  0.9503840292  0.7566268550
C   2.0569121566 -0.4086223323  1.2297260919
C   2.3554187894  0.3757643221 -1.1795863586
N   0.2635267527 -0.7106440745 -0.4063791856
N  -2.0884598584 -1.1120714370 -0.1761776700
O  -1.8152061108  1.5534159821 -0.3920531098
H  -2.4839179401  0.9169355929 -0.6876300015
H   0.0002628293 -0.5032472095 -1.3642297478
H  -0.7083524748 -1.0298954116  1.4036820611
H   1.0336360753  1.1351877961  0.2104902122
H  -2.4422940625 -1.8994996760  0.3461202942
H  -1.8695630822 -1.4471044894 -1.1050290877
H  -0.3988615765  1.5503942904  1.0383388918
H  -1.9474014112  0.9835081327  1.6091157859
H   2.8571994930  0.2568335517  1.5541264661
H   1.7969734015  0.6819718532 -2.0675315226
H   2.4638641744 -1.4081611589  1.0684812207
H   1.3350772617 -0.4703786319  2.0470625273
H   3.0003070083  1.2129012768 -0.9070574795
H   2.9806610615 -0.4809854425 -1.4287216209
22
Image 155  Energy = -383.6426283540
C  -0.9060776891 -0.5190969853  0.4572215725
C   1.3967676986  0.1367170118 -0.0279507405
C  -1.2612760980  0.9501868011  0.7567561922
C   2.0571751581 -0.4084746178  1.2296421726
C   2.3556410430  0.3754519025 -1.1796849712
N   0.2634678285 -0.7098657765 -0.4062924804
N  -2.0883642230 -1.1123708892 -0.1762421459
O  -1.8153830930  1.5535564911 -0.3920165676
H  -2.4842501726  0.9174246583 -0.6879726415
H   0.0000854853 -0.5019692049 -1.3639976589
H  -0.7084315453 -1.0295557636  1.4038543286
H   1.0343414713  1.1359954070  0.2106172700
H  -2.4422518027 -1.8996424495  0.3462651014
H  -1.8691695138 -1.4476979117 -1.1049116934
H  -0.3995931706  1.5499044689  1.0391285950
H  -1.9486905436  0.9827992529  1.6087985245
H   2.8576881249  0.2566710836  1.5541505290
H   1.7973569717  0.6816553211 -2.0677311594
H   2.4639233813 -1.4080278217  1.0679581835
H   1.3354766909 -0.4703880251  2.0470779856
H   3.0012161008  1.2122087851 -0.9076186867
H   2.9802549113 -0.4818417495 -1.4285867221
22
Image 156  Energy = -383.6426935763
C  -0.9062472283 -0.5189735890  0.4572872084
C   1.3969379056  0.1372555418 -0.0278377859
C  -1.2619813757  0.9499933367  0.7568867758
C   2.0574353948 -0.4083277760  1.2295580431
C   2.3558601409  0.3751408872 -1.1797817160
N   0.2634089882 -0.7090923910 -0.4062092271
N  -2.0882667753 -1.1126697925 -0.1763076214
O  -1.8155567123  1.5536970131 -0.3919793320
H  -2.4845763840  0.9179104597 -0.6883121098
H  -0.0000916186 -0.5006948211 -1.3637686674
H  -0.7085047679 -1.0292248927  1.4040209284
H   1.0350362835  1.1367949338  0.2107445252
H  -2.4422080830 -1.8997850821  0.3464081410
H  -1.8687739415 -1.4482932593 -1.1047945049
H  -0.4003253582  1.5494291508  1.0399168156
H  -1.9499713466  0.9821001876  1.6084838875
H   2.8581729916  0.2565100023  1.5541712066
H   1.7977377222  0.6813404747 -2.0679289337
H   2.4639811232 -1.4078950079  1.0674372283
H   1.3358742942 -0.4703967995  2.0470943041
H   3.0021200695  1.2115172834 -0.9081750434
H   2.9798456928 -0.4826958715 -1.4284491352
22
Image 157  Energy = -383.6427580144
C  -0.9064136699 -0.5188514940  0.4573518278
C   1.3971053341  0.1377904429 -0.0277257775
C  -1.2626811468  0.9498035404  0.7570185634
C   2.0576927492 -0.4081819098  1.2294737643
C   2.3560762242  0.3748312371 -1.1798766629
N   0.2633501512 -0.7083238710 -0.4061292739
N  -2.0881674535 -1.1129679516 -0.1763741327
O  -1.8157270703  1.5538374685 -0.3919414207
H  -2.4848966686  0.9183930238 -0.6886484831
H  -0.0002685377 -0.4994240295 -1.3635427545
H  -0.7085722554 -1.0289025379  1.4041820660
H   1.0357207541  1.1375865283  0.2108719315
H  -2.4421629791 -1.8999275780  0.3465495519
H  -1.8683763482 -1.4488904060 -1.1046774471
H  -0.4010579935  1.5489678517  1.0407034941
H  -1.9512438870  0.9814106293  1.6081717985
H   2.8586542041  0.2563503419  1.5541885615
H   1.7981156761  0.6810273168 -2.0681248532
H   2.4640374145 -1.4077626914  1.0669183721
H   1.3362701318 -0.4704049549  2.0471113741
H   3.0030189224  1.2108267502 -0.9087265788
H   2.9794334635 -0.4835477182 -1.4283089337
22
Image 158  Energy = -383.6428216989
C  -0.9065770193 -0.5187306329  0.4574155781
C   1.3972699920  0.1383216874 -0.0276147163
C  -1.2633755019  0.9496172490  0.7571514773
C   2.0579474892 -0.4080369399  1.2293892795
C   2.3562894036  0.3745229283 -1.1799697613
N   0.2632913090 -0.7075601016 -0.4060526692
N  -2.0880664854 -1.1132655501 -0.1764415715
O  -1.8158941844  1.5539779369 -0.3919028385
H  -2.4852112322  0.9188722672 -0.6889818913
H  -0.0004452694 -0.4981568316 -1.3633197802
H  -0.7086341508 -1.0285883982  1.4043378292
H   1.0363951201  1.1383703561  0.2109994540
H  -2.4421164208 -1.9000696347  0.3466892788
H  -1.8679766884 -1.4494892150 -1.1045604476
H  -0.4017909337  1.5485201241  1.0414885964
H  -1.9525082412  0.9807302906  1.6078622020
H   2.8591316691  0.2561920080  1.5542026046
H   1.7984908241  0.6807158754 -2.0683189975
H   2.4640922320 -1.4076308579  1.0664016216
H   1.3366641270 -0.4704125063  2.0471292646
H   3.0039126786  1.2101371973 -0.9092733264
H   2.9790182985 -0.4843972629 -1.4281661993
22
Image 159  Energy = -383.6428846169
C  -0.9067374683 -0.5186110047  0.4574784214
C   1.3974319741  0.1388493841 -0.0275046081
C  -1.2640644712  0.9494343950  0.7572854880
C   2.0581994579 -0.4078929323  1.2293045835
C   2.3564996375  0.3742159914 -1.1800610979
N   0.2632324736 -0.7068010046 -0.4059792512
N  -2.0879637472 -1.1135622808 -0.1765100172
O  -1.8160582570  1.5541182784 -0.3918636621
H  -2.4855200945  0.9193482890 -0.6893123847
H  -0.0006218633 -0.4968931831 -1.3630997764
H  -0.7086905680 -1.0282822096  1.4044883993
H   1.0370596133  1.1391465019  0.2111270416
H  -2.4420685137 -1.9002113478  0.3468275133
H  -1.8675749597 -1.4500895929 -1.1044434694
H  -0.4025240813  1.5480854970  1.0422720741
H  -1.9537644932  0.9800588865  1.6075550458
H   2.8596055354  0.2560350683  1.5542134256
H   1.7988632384  0.6804061343 -2.0685113087
H   2.4641456049 -1.4074995362  1.0658869867
H   1.3370563152 -0.4704194598  2.0471479180
H   3.0048013583  1.2094486238 -0.9098153069
H   2.9786003237 -0.4852445083 -1.4280210283
22
Image 160  Energy = -383.6429468163
C  -0.9068949628 -0.5184925146  0.4575404047
C   1.3975913107  0.1393734876 -0.0273954605
C  -1.2647482204  0.9492548614  0.7574204936
C   2.0584487078 -0.4077498024  1.2292198515
C   2.3567069756  0.3739103759 -1.1801507258
N   0.2631735768 -0.7060465232 -0.4059090788
N  -2.0878593924 -1.1138582175 -0.1765793485
O  -1.8162192764  1.5542585225 -0.3918238450
H  -2.4858234074  0.9198210365 -0.6896400549
H  -0.0007983088 -0.4956330857 -1.3628825948
H  -0.7087416380 -1.0279837086  1.4046339072
H   1.0377144358  1.1399151910  0.2112546800
H  -2.4420192382 -1.9003525169  0.3469642510
H  -1.8671711204 -1.4506914383 -1.1043265117
H  -0.4032573139  1.5476635461  1.0430538626
H  -1.9550127324  0.9793961557  1.6072502919
H   2.8600757429  0.2558794293  1.5542210242
H   1.7992329364  0.6800981075 -2.0687018271
H   2.4641975539 -1.4073687532  1.0653744591
H   1.3374467566 -0.4704258158  2.0471672341
H   3.0056850172  1.2087610766 -0.9103525342
H   2.9781796125 -0.4860894244 -1.4278734917
22
Image 161  Energy = -383.6430082754
C  -0.9070495822 -0.5183751181  0.4576015028
C   1.3977480472  0.1398940766 -0.0272872235
C  -1.2654267458  0.9490785450  0.7575564688
C   2.0586952176 -0.4076076266  1.2291349306
C   2.3569115106  0.3736061021 -1.1802386949
N   0.2631146462 -0.7052965569 -0.4058420054
N  -2.0877534688 -1.1141532575 -0.1766495531
O  -1.8163773424  1.5543986781 -0.3917834395
H  -2.4861213055  0.9202904946 -0.6899649937
H  -0.0009746531 -0.4943765117 -1.3626682274
H  -0.7087874715 -1.0276926585  1.4047745215
H   1.0383598158  1.1406765095  0.2113823257
H  -2.4419686359 -1.9004930888  0.3470995683
H  -1.8667651481 -1.4512946555 -1.1042095338
H  -0.4039905584  1.5472538213  1.0438339254
H  -1.9562530354  0.9787418407  1.6069478862
H   2.8605423902  0.2557251377  1.5542254705
H   1.7995999616  0.6797917908 -2.0688905348
H   2.4642480795 -1.4072384877  1.0648640538
H   1.3378353970 -0.4704315879  2.0471872701
H   3.0065636443  1.2080745126 -0.9108850527
H   2.9777562532 -0.4869319706 -1.4277236781
22
Image 162  Energy = -383.6430690248
C  -0.9072013940 -0.5182588032  0.4576617482
C   1.3979022237  0.1404111796 -0.0271799301
C  -1.2661001443  0.9489053641  0.7576933575
C   2.0589390273 -0.4074663474  1.2290498331
C   2.3571132274  0.3733031105 -1.1803250064
N   0.2630556447 -0.7045510534 -0.4057779640
N  -2.0876459914 -1.1144473598 -0.1767206531
O  -1.8165325909  1.5545386385 -0.3917424792
H  -2.4864138090  0.9207567444 -0.6902872439
H  -0.0011509211 -0.4931234372 -1.3624566339
H  -0.7088281899 -1.0274087936  1.4049103358
H   1.0389959684  1.1414306051  0.2115099463
H  -2.4419167392 -1.9006329862  0.3472335365
H  -1.8663570411 -1.4518991333 -1.1040924607
H  -0.4047237104  1.5468559277  1.0446122032
H  -1.9574854855  0.9780956815  1.6066477944
H   2.8610055179  0.2555721793  1.5542268262
H   1.7999643243  0.6794871955 -2.0690774649
H   2.4642972035 -1.4071087964  1.0643557750
H   1.3382222361 -0.4704367859  2.0472080007
H   3.0074373195  1.2073889970 -0.9114128711
H   2.9773303393 -0.4877721381 -1.4275716626
22
Image 163  Energy = -383.6431291346
C  -0.9073504735 -0.5181435054  0.4577211490
C   1.3980538721  0.1409248779 -0.0270735863
C  -1.2667685441  0.9487352033  0.7578311075
C   2.0591803525 -0.4073259342  1.2289646173
C   2.3573121990  0.3730013742 -1.1804096926
N   0.2629965353 -0.7038099446 -0.4057169763
N  -2.0875369726 -1.1147404433 -0.1767926388
O  -1.8166850200  1.5546784593 -0.3917009458
H  -2.4867011096  0.9212197110 -0.6906069210
H  -0.0013271129 -0.4918738585 -1.3622477085
H  -0.7088639038 -1.0271318886  1.4050414872
H   1.0396231139  1.1421775685  0.2116375001
H  -2.4418635922 -1.9007721671  0.3473662357
H  -1.8659467857 -1.4525047801 -1.1039752558
H  -0.4054566218  1.5464694927  1.0453886824
H  -1.9587101574  0.9774574439  1.6063499600
H   2.8614650384  0.2554204583  1.5542250830
H   1.8003260589  0.6791843262 -2.0692626323
H   2.4643449039 -1.4069796404  1.0638496298
H   1.3386072435 -0.4704414199  2.0472294312
H   3.0083060625  1.2067045369 -0.9119360220
H   2.9769019279 -0.4886098823 -1.4274175159
22
Image 164  Energy = -383.6431885654
C  -0.9074968842 -0.5180291983  0.4577796731
C   1.3982030761  0.1414350891 -0.0269681953
C  -1.2674320115  0.9485679546  0.7579696401
C   2.0594190096 -0.4071864793  1.2288792623
C   2.3575084169  0.3727009979 -1.1804927973
N   0.2629373711 -0.7030731567 -0.4056588187
N  -2.0874264978 -1.1150324860 -0.1768653693
O  -1.8168347700  1.5548180512 -0.3916588832
H  -2.4869832391  0.9216794637 -0.6909240680
H  -0.0015032838 -0.4906277234 -1.3620415083
H  -0.7088947219 -1.0268617180  1.4051681082
H   1.0402414119  1.1429176061  0.2117649748
H  -2.4418092005 -1.9009104935  0.3474976682
H  -1.8655343558 -1.4531115367 -1.1038579393
H  -0.4061891867  1.5460941523  1.0461633267
H  -1.9599271479  0.9768268942  1.6060543684
H   2.8619210916  0.2552700433  1.5542203332
H   1.8006852068  0.6788831767 -2.0694460245
H   2.4643911984 -1.4068510181  1.0633456198
H   1.3389904771 -0.4704454843  2.0472514928
H   3.0091698883  1.2060211055 -0.9124545414
H   2.9764711654 -0.4894452521 -1.4272613348
22
Image 165  Energy = -383.6432473302
C  -0.9076406599 -0.5179157814  0.4578373924
C   1.3983498312  0.1419419311 -0.0268637149
C  -1.2680906163  0.9484035648  0.7581089251
C   2.0596550899 -0.4070478878  1.2287937122
C   2.3577019868  0.3724018560 -1.1805743189
N   0.2628781341 -0.7023406132 -0.4056036360
N  -2.0873146268 -1.1153234750 -0.1769389204
O  -1.8169818916  1.5549574197 -0.3916162890
H  -2.4872602897  0.9221359977 -0.6912387467
H  -0.0016794153 -0.4893850474 -1.3618378558
H  -0.7089207528 -1.0265980869  1.4052903577
H   1.0408510996  1.1436507691  0.2118923251
H  -2.4417536045 -1.9010479233  0.3476279218
H  -1.8651197533 -1.4537192989 -1.1037404467
H  -0.4069213738  1.5457295038  1.0469360770
H  -1.9611365037  0.9762038066  1.6057609451
H   2.8623736819  0.2551208881  1.5542126103
H   1.8010417672  0.6785837655 -2.0696277021
H   2.4644361158 -1.4067229794  1.0628437464
H   1.3393718807 -0.4704489946  2.0472742292
H   3.0100288377  1.2053387280 -0.9129684492
H   2.9760380764 -0.4902781553 -1.4271031747
22
Image 166  Energy = -383.6433054336
C  -0.9077818733 -0.5178032819  0.4578943332
C   1.3984942008  0.1424454501 -0.0267601770
C  -1.2687443817  0.9482418976  0.7582488707
C   2.0598885335 -0.4069102087  1.2287080428
C   2.3578929435  0.3721040057 -1.1806542935
N   0.2628187556 -0.7016122580 -0.4055512647
N  -2.0872013326 -1.1156133063 -0.1770132496
O  -1.8171264254  1.5550965903 -0.3915731734
H  -2.4875323980  0.9225892849 -0.6915510413
H  -0.0018555356 -0.4881457980 -1.3616367475
H  -0.7089421065 -1.0263407412  1.4054082907
H   1.0414523561  1.1443771960  0.2120195268
H  -2.4416968503 -1.9011844158  0.3477570591
H  -1.8647029742 -1.4543280040 -1.1036227717
H  -0.4076530688  1.5453752221  1.0477069080
H  -1.9623383405  0.9755879608  1.6054696940
H   2.8628228700  0.2549730013  1.5542019651
H   1.8013957910  0.6782860954 -2.0698076496
H   2.4644796726 -1.4065955303  1.0623440100
H   1.3397515007 -0.4704519485  2.0472975699
H   3.0108829113  1.2046573878 -0.9134777930
H   2.9756027670 -0.4911086117 -1.4269431210
22
Image 167  Energy = -383.6433629674
C  -0.9079205827 -0.5176916752  0.4579504573
C   1.3986362273  0.1429456623 -0.0266575288
C  -1.2693934284  0.9480829060  0.7583894903
C   2.0601194796 -0.4067734038  1.2286222460
C   2.3580813855  0.3718073387 -1.1807327861
N   0.2627592156 -0.7008880357 -0.4055016783
N  -2.0870866554 -1.1159019642 -0.1770883048
O  -1.8172685005  1.5552354753 -0.3915295769
H  -2.4877996035  0.9230393906 -0.6918610023
H  -0.0020316655 -0.4869099573 -1.3614381442
H  -0.7089588849 -1.0260894893  1.4055220567
H   1.0420453665  1.1450970053  0.2121465464
H  -2.4416389572 -1.9013198753  0.3478851013
H  -1.8642840125 -1.4549375727 -1.1035048690
H  -0.4083841771  1.5450309559  1.0484757907
H  -1.9635327021  0.9749791442  1.6051805394
H   2.8632686298  0.2548263285  1.5541884234
H   1.8017472828  0.6779901658 -2.0699859050
H   2.4645218494 -1.4064686487  1.0618464209
H   1.3401293176 -0.4704543608  2.0473215149
H   3.0117321766  1.2039771282 -0.9139825806
H   2.9751652551 -0.4919365311 -1.4267812230
22
Image 168  Energy = -383.6434198792
C  -0.9080568213 -0.5175808842  0.4580058228
C   1.3987759028  0.1434425835 -0.0265557876
C  -1.2700377891  0.9479264937  0.7585306970
C   2.0603479696 -0.4066374281  1.2285363752
C   2.3582673755  0.3715119198 -1.1808097693
N   0.2626995711 -0.7001678676 -0.4054548585
N  -2.0869706635 -1.1161894195 -0.1771641402
O  -1.8174081389  1.5553741135 -0.3914854972
H  -2.4880620185  0.9234862890 -0.6921686973
H  -0.0022078132 -0.4856775130 -1.3612419705
H  -0.7089711955 -1.0258441387  1.4056317748
H   1.0426303202  1.1458103076  0.2122733652
H  -2.4415799883 -1.9014542956  0.3480121313
H  -1.8638628738 -1.4555479278 -1.1033866975
H  -0.4091146315  1.5446963854  1.0492426876
H  -1.9647196954  0.9743771609  1.6048934879
H   2.8637109550  0.2546808366  1.5541720127
H   1.8020962428  0.6776959979 -2.0701625213
H   2.4645626604 -1.4063423695  1.0613509684
H   1.3405053393 -0.4704562300  2.0473460274
H   3.0125766433  1.2032979289 -0.9144828535
H   2.9747256648 -0.4927619556 -1.4266175680
22
Image 169  Energy = -383.6434761776
C  -0.9081906457 -0.5174709015  0.4580604310
C   1.3989133327  0.1439362535 -0.0264549854
C  -1.2706775583  0.9477725829  0.7586725021
C   2.0605738642 -0.4065024015  1.2284503790
C   2.3584508404  0.3712177413 -1.1808853362
N   0.2626397770 -0.6994517083 -0.4054106693
N  -2.0868534222 -1.1164757231 -0.1772406643
O  -1.8175453835  1.5555125032 -0.3914409291
H  -2.4883197538  0.9239299709 -0.6924741971
H  -0.0023840059 -0.4844484338 -1.3610482196
H  -0.7089791193 -1.0256044901  1.4057375379
H   1.0432073923  1.1465172234  0.2123999560
H  -2.4415199287 -1.9015875165  0.3481381357
H  -1.8634395494 -1.4561590041 -1.1032682525
H  -0.4098443624  1.5443711940  1.0500075668
H  -1.9658993454  0.9737818105  1.6046084405
H   2.8641499935  0.2545365891  1.5541528230
H   1.8024427611  0.6774035672 -2.0703374232
H   2.4646021168 -1.4062166591  1.0608576676
H   1.3408795910 -0.4704575609  2.0473710828
H   3.0134163585  1.2026198109 -0.9149786413
H   2.9742840631 -0.4935848600 -1.4264522152
22
Image 170  Energy = -383.6435319197
C  -0.9083220626 -0.5173616928  0.4581142340
C   1.3990485157  0.1444267028 -0.0263550811
C  -1.2713128388  0.9476211315  0.7588148676
C   2.0607973825 -0.4063682174  1.2283642542
C   2.3586317580  0.3709247943 -1.1809595054
N   0.2625798459 -0.6987395013 -0.4053691088
N  -2.0867348892 -1.1167607170 -0.1773179063
O  -1.8176803221  1.5556505902 -0.3913958973
H  -2.4885728669  0.9243704734 -0.6927775493
H  -0.0025602528 -0.4832227081 -1.3608568146
H  -0.7089827686 -1.0253703645  1.4058394599
H   1.0437767655  1.1472178485  0.2125262834
H  -2.4414588752 -1.9017196042  0.3482632163
H  -1.8630140537 -1.4567707430 -1.1031494892
H  -0.4105732754  1.5440550628  1.0507704057
H  -1.9670717435  0.9731929119  1.6043253829
H   2.8645856527  0.2543934854  1.5541308557
H   1.8027868685  0.6771128697 -2.0705106248
H   2.4646402127 -1.4060915274  1.0603665148
H   1.3412520293 -0.4704583592  2.0473967060
H   3.0142513824  1.2019428165 -0.9154699617
H   2.9738405513 -0.4944052629 -1.4262852519
22
Image 171  Energy = -383.6435870528
C  -0.9084511685 -0.5172532264  0.4581673351
C   1.3991815250  0.1449139596 -0.0262560977
C  -1.2719436114  0.9474720453  0.7589576943
C   2.0610183964 -0.4062349033  1.2282780247
C   2.3588103105  0.3706330379 -1.1810322741
N   0.2625197705 -0.6980311831 -0.4053301048
N  -2.0866151787 -1.1170444826 -0.1773958406
O  -1.8178130716  1.5557883422 -0.3913504356
H  -2.4888213778  0.9248078495 -0.6930787795
H  -0.0027365799 -0.4820003128 -1.3606677557
H  -0.7089822246 -1.0251415881  1.4059376564
H   1.0443385854  1.1479123180  0.2126523462
H  -2.4413968223 -1.9018504295  0.3483873736
H  -1.8625863833 -1.4573830831 -1.1030303945
H  -0.4113013235  1.5437477125  1.0515311762
H  -1.9682369709  0.9726102703  1.6040442990
H   2.8650180646  0.2542515751  1.5541061884
H   1.8031285511  0.6768239366 -2.0706822051
H   2.4646769898 -1.4059670203  1.0598775006
H   1.3416226683 -0.4704586293  2.0474228684
H   3.0150817012  1.2012669061 -0.9159568580
H   2.9733951661 -0.4952231051 -1.4261167288
22
Image 172  Energy = -383.6436416515
C  -0.9085780299 -0.5171454792  0.4582196556
C   1.3993124027  0.1453980363 -0.0261580199
C  -1.2725700237  0.9473252361  0.7591009496
C   2.0612370808 -0.4061024787  1.2281916946
C   2.3589865099  0.3703424689 -1.1811036217
N   0.2624595141 -0.6973266810 -0.4052936837
N  -2.0864942300 -1.1173269201 -0.1774744487
O  -1.8179436084  1.5559257873 -0.3913044992
H  -2.4890654406  0.9252420522 -0.6933779803
H  -0.0029129714 -0.4807812508 -1.3604809019
H  -0.7089775809 -1.0249179922  1.4060322276
H   1.0448930085  1.1486007484  0.2127781120
H  -2.4413338371 -1.9019799991  0.3485106795
H  -1.8621565533 -1.4579959661 -1.1029109344
H  -0.4120283825  1.5434488844  1.0522898653
H  -1.9693951033  0.9720337184  1.6037651522
H   2.8654471719  0.2541108024  1.5540788314
H   1.8034678224  0.6765367679 -2.0708522038
H   2.4647124011 -1.4058430788  1.0593906449
H   1.3419915056 -0.4704583804  2.0474495498
H   3.0159073713  1.2005920970 -0.9164393604
H   2.9729479888 -0.4960383828 -1.4259467194
22
Image 173  Energy = -383.6436956894
C  -0.9087026413 -0.5170384307  0.4582712731
C   1.3994411163  0.1458789812 -0.0260608010
C  -1.2731920651  0.9471806627  0.7592446535
C   2.0614533719 -0.4059708764  1.2281052447
C   2.3591604438  0.3700530865 -1.1811737039
N   0.2623991146 -0.6966259731 -0.4052597142
N  -2.0863721402 -1.1176080209 -0.1775536518
O  -1.8180720797  1.5560628912 -0.3912581914
H  -2.4893050566  0.9256731507 -0.6936751653
H  -0.0030894675 -0.4795654792 -1.3602963119
H  -0.7089689366 -1.0246993940  1.4061232625
H   1.0454402213  1.1492832039  0.2129035604
H  -2.4412699511 -1.9021082489  0.3486331610
H  -1.8617245525 -1.4586093614 -1.1027911659
H  -0.4127544620  1.5431582492  1.0530464359
H  -1.9705461948  0.9714630864  1.6034879168
H   2.8658730423  0.2539711617  1.5540488484
H   1.8038047476  0.6762513458 -2.0710205597
H   2.4647464990 -1.4057197719  1.0589059328
H   1.3423585399 -0.4704576089  2.0474767370
H   3.0167284105  1.1999184021 -0.9169174983
H   2.9724990559 -0.4968510653 -1.4257752743
22
Image 174  Energy = -383.6437492148
C  -0.9088250845 -0.5169320532  0.4583222108
C   1.3995677366  0.1463568562 -0.0259644583
C  -1.2738098750  0.9470382515  0.7593887438
C   2.0616673053 -0.4058401285  1.2280187335
C   2.3593321286  0.3697649131 -1.1812424865
N   0.2623385463 -0.6959290107 -0.4052282161
N  -2.0862489016 -1.1178877754 -0.1776335122
O  -1.8181984355  1.5561996788 -0.3912114216
H  -2.4895403686  0.9261010975 -0.6939704128
H  -0.0032660669 -0.4783529958 -1.3601138796
H  -0.7089563719 -1.0244856237  1.4062108380
H   1.0459803827  1.1499597836  0.2130286671
H  -2.4412052019 -1.9022351539  0.3487548622
H  -1.8612904109 -1.4592232044 -1.1026710083
H  -0.4134794528  1.5428755843  1.0538008658
H  -1.9716903038  0.9708982097  1.6032125284
H   2.8662956935  0.2538326316  1.5540162621
H   1.8041393443  0.6759676807 -2.0711873108
H   2.4647792828 -1.4055970718  1.0584233597
H   1.3427237780 -0.4704563169  2.0475044014
H   3.0175448341  1.1992457949 -0.9173913145
H   2.9720484570 -0.4976611555 -1.4256024637
22
Image 175  Energy = -383.6438021750
C  -0.9089453189 -0.5168262945  0.4583724554
C   1.3996922816  0.1468317083 -0.0258689877
C  -1.2744234224  0.9468979509  0.7595331835
C   2.0618788482 -0.4057102764  1.2279321165
C   2.3595015893  0.3694778685 -1.1813099568
N   0.2622777600 -0.6952357309 -0.4051990785
N  -2.0861246181 -1.1181662796 -0.1777140099
O  -1.8183227837  1.5563361207 -0.3911642491
H  -2.4897714199  0.9265259352 -0.6942637611
H  -0.0034427785 -0.4771437746 -1.3599336033
H  -0.7089399731 -1.0242765522  1.4062950764
H   1.0465136564  1.1506305483  0.2131534060
H  -2.4411395994 -1.9023605977  0.3488757738
H  -1.8608541334 -1.4598374279 -1.1025504182
H  -0.4142033276  1.5426006152  1.0545531327
H  -1.9728275242  0.9703389272  1.6029389964
H   2.8667152037  0.2536952432  1.5539811485
H   1.8044716129  0.6756857826 -2.0713525154
H   2.4648107362 -1.4054749635  1.0579429414
H   1.3430872491 -0.4704545168  2.0475325151
H   3.0183567256  1.1985743384 -0.9178608248
H   2.9715962513 -0.4984686318 -1.4254283527
22
Image 176  Energy = -383.6438546183
C  -0.9090635065 -0.5167212038  0.4584219257
C   1.3998148311  0.1473034837 -0.0257744195
C  -1.2750328307  0.9467597175  0.7596779582
C   2.0620880202 -0.4055812486  1.2278454477
C   2.3596688234  0.3691920010 -1.1813761824
N   0.2622168056 -0.6945460581 -0.4051723139
N  -2.0859991976 -1.1184433309 -0.1777950923
O  -1.8184451505  1.5564722061 -0.3911166476
H  -2.4899982931  0.9269476635 -0.6945552681
H  -0.0036196109 -0.4759378152 -1.3597553716
H  -0.7089198171 -1.0240720205  1.4063760764
H   1.0470401665  1.1512956656  0.2132777714
H  -2.4410732262 -1.9024846479  0.3489959880
H  -1.8604157291 -1.4604520114 -1.1024294115
H  -0.4149260121  1.5423330965  1.0553032203
H  -1.9739579004  0.9697850900  1.6026672638
H   2.8671315706  0.2535589437  1.5539435262
H   1.8048016150  0.6754056483 -2.0715161394
H   2.4648409001 -1.4053534909  1.0574646600
H   1.3434489456 -0.4704522065  2.0475610696
H   3.0191640932  1.1979040117 -0.9183260764
H   2.9711425182 -0.4992735012 -1.4252529963
22
Image 177  Energy = -383.6439065972
C  -0.9091796057 -0.5166166934  0.4584707663
C   1.3999354238  0.1477722731 -0.0256807252
C  -1.2756380995  0.9466233997  0.7598229941
C   2.0622949841 -0.4054530871  1.2277586322
C   2.3598339095  0.3689072744 -1.1814411499
N   0.2621556482 -0.6938599790 -0.4051477901
N  -2.0858727434 -1.1187190014 -0.1778767112
O  -1.8185656430  1.5566079463 -0.3910686895
H  -2.4902210164  0.9273663263 -0.6948449531
H  -0.0037965974 -0.4747350752 -1.3595792492
H  -0.7088959978 -1.0238718788  1.4064538811
H   1.0475600563  1.1519552045  0.2134017384
H  -2.4410061056 -1.9026072185  0.3491155070
H  -1.8599752037 -1.4610669255 -1.1023080229
H  -0.4156474418  1.5420728072  1.0560511118
H  -1.9750815260  0.9692365453  1.6023973421
H   2.8675448075  0.2534237222  1.5539034388
H   1.8051293575  0.6751272757 -2.0716782213
H   2.4648697471 -1.4052326152  1.0569885330
H   1.3438088041 -0.4704493927  2.0475901020
H   3.0199669637  1.1972348169 -0.9187870933
H   2.9706872953 -0.5000757328 -1.4250764526
22
Image 178  Energy = -383.6439580372
C  -0.9092936791 -0.5165127718  0.4585189293
C   1.4000541336  0.1482380394 -0.0255879079
C  -1.2762393564  0.9464890281  0.7599683557
C   2.0624996678 -0.4053257012  1.2276717632
C   2.3599968289  0.3686236983 -1.1815049340
N   0.2620943288 -0.6931774124 -0.4051255435
N  -2.0857453070 -1.1189933479 -0.1779589560
O  -1.8186842931  1.5567432944 -0.3910203428
H  -2.4904396585  0.9277819390 -0.6951328652
H  -0.0039737303 -0.4735355560 -1.3594051313
H  -0.7088685859 -1.0236759838  1.4065286160
H   1.0480734570  1.1526092755  0.2135253010
H  -2.4409382610 -1.9027282529  0.3492343575
H  -1.8595325890 -1.4616820859 -1.1021861326
H  -0.4163675776  1.5418194972  1.0567967864
H  -1.9761984133  0.9686931558  1.6021291256
H   2.8679549118  0.2532895317  1.5538609104
H   1.8054548892  0.6748506583 -2.0718387544
H   2.4648973094 -1.4051123785  1.0565145426
H   1.3441668920 -0.4704460787  2.0476195589
H   3.0207653889  1.1965667720 -0.9192439067
H   2.9702306616 -0.5008753273 -1.4248987831
22
Image 179  Energy = -383.6440089823
C  -0.9094058105 -0.5164094471  0.4585664271
C   1.4001709006  0.1487009025 -0.0254959458
C  -1.2768365996  0.9463565491  0.7601139266
C   2.0627020625 -0.4051991365  1.2275848416
C   2.3601576314  0.3683412661 -1.1815675696
N   0.2620328128 -0.6924983505 -0.4051055788
N  -2.0856168176 -1.1192662220 -0.1780417532
O  -1.8188010886  1.5568782987 -0.3909715846
H  -2.4906543435  0.9281944639 -0.6954190741
H  -0.0041510069 -0.4723392495 -1.3592329428
H  -0.7088376563 -1.0234842020  1.4066003383
H   1.0485805456  1.1532579262  0.2136484320
H  -2.4408697655 -1.9028477970  0.3493526017
H  -1.8590878935 -1.4622974950 -1.1020637963
H  -0.4170863697  1.5415729584  1.0575402337
H  -1.9773086779  0.9681547855  1.6018626630
H   2.8683619658  0.2531563980  1.5538160045
H   1.8057782408  0.6745757921 -2.0719977216
H   2.4649235951 -1.4049927879  1.0560426921
H   1.3445232150 -0.4704422632  2.0476493969
H   3.0215593993  1.1958998818 -0.9196965558
H   2.9697726788 -0.5016722778 -1.4247200464
22
Image 180  Energy = -383.6440594629
C  -0.9095159718 -0.5163066459  0.4586132966
C   1.4002857930  0.1491608201 -0.0254048521
C  -1.2774298361  0.9462258778  0.7602596823
C   2.0629022126 -0.4050734147  1.2274978117
C   2.3603163927  0.3680599321 -1.1816290145
N   0.2619710975 -0.6918227215 -0.4050877058
N  -2.0854873892 -1.1195377307 -0.1781250653
O  -1.8189161426  1.5570129115 -0.3909224722
H  -2.4908650777  0.9286039690 -0.6957035933
H  -0.0043284541 -0.4711461099 -1.3590627521
H  -0.7088032894 -1.0232964096  1.4066691420
H   1.0490814271  1.1539012684  0.2137711273
H  -2.4408006186 -1.9029657344  0.3494702152
H  -1.8586411279 -1.4629131111 -1.1019409983
H  -0.4178037861  1.5413329598  1.0582814335
H  -1.9784123812  0.9676212871  1.6015979275
H   2.8687660043  0.2530243140  1.5537687663
H   1.8060993899  0.6743027053 -2.0721552316
H   2.4649485965 -1.4048738144  1.0555729800
H   1.3448777406 -0.4704379523  2.0476796495
H   3.0223490386  1.1952341661 -0.9201450645
H   2.9693133997 -0.5024665744 -1.4245402942
22
Image 181  Energy = -383.6441094880
C  -0.9096241858 -0.5162043722  0.4586595448
C   1.4003987514  0.1496178802 -0.0253146203
C  -1.2780192572  0.9460969539  0.7604056368
C   2.0631002352 -0.4049485109  1.2274107899
C   2.3604732346  0.3677797586 -1.1816893321
N   0.2619091855 -0.6911504842 -0.4050720029
N  -2.0853570555 -1.1198078885 -0.1782089260
O  -1.8190294327  1.5571471642 -0.3908729622
H  -2.4910719635  0.9290104284 -0.6959864814
H  -0.0045060612 -0.4699561459 -1.3588944136
H  -0.7087655602 -1.0231124695  1.4067350856
H   1.0495762586  1.1545393570  0.2138933486
H  -2.4407308670 -1.9030820454  0.3495872443
H  -1.8581923137 -1.4635288797 -1.1018176979
H  -0.4185197319  1.5410993331  1.0590203761
H  -1.9795095410  0.9670925430  1.6013348440
H   2.8691669838  0.2528932121  1.5537192014
H   1.8064183855  0.6740313823 -2.0723112464
H   2.4649723208 -1.4047554628  1.0551054034
H   1.3452304905 -0.4704331410  2.0477102602
H   3.0231342851  1.1945695658 -0.9205894921
H   2.9688528565 -0.5032581850 -1.4243595725
22
Image 182  Energy = -383.6441590355
C  -0.9097305583 -0.5161026464  0.4587051342
C   1.4005099826  0.1500720357 -0.0252252119
C  -1.2786047994  0.9459697966  0.7605517653
C   2.0632960105 -0.4048244165  1.2273236220
C   2.3606280398  0.3675006531 -1.1817485636
N   0.2618470696 -0.6904815878 -0.4050584304
N  -2.0852257618 -1.1200765772 -0.1782933025
O  -1.8191411073  1.5572809795 -0.3908231211
H  -2.4912749695  0.9294139323 -0.6962677297
H  -0.0046838469 -0.4687693414 -1.3587279270
H  -0.7087245410 -1.0229322699  1.4067982826
H   1.0500651314  1.1551723151  0.2140151051
H  -2.4406605775 -1.9031967727  0.3497037482
H  -1.8577414671 -1.4641447908 -1.1016939112
H  -0.4192342388  1.5408718215  1.0597570429
H  -1.9806002445  0.9665684307  1.6010734148
H   2.8695650217  0.2527631453  1.5536673938
H   1.8067352576  0.6737618205 -2.0724657841
H   2.4649947891 -1.4046377572  1.0546399596
H   1.3455814467 -0.4704278382  2.0477412734
H   3.0239152563  1.1939061792 -0.9210298348
H   2.9683911253 -0.5040471181 -1.4241779377
22
Image 183  Energy = -383.6442081143
C  -0.9098350971 -0.5160013736  0.4587501026
C   1.4006194534  0.1505233802 -0.0251366915
C  -1.2791865668  0.9458442695  0.7606980107
C   2.0634896392 -0.4047011454  1.2272364390
C   2.3607808087  0.3672226434 -1.1818067445
N   0.2617847681 -0.6898160125 -0.4050468862
N  -2.0850935588 -1.1203438656 -0.1783781950
O  -1.8192511503  1.5574143773 -0.3907729162
H  -2.4914742055  0.9298144567 -0.6965474023
H  -0.0048618248 -0.4675856675 -1.3585632894
H  -0.7086802981 -1.0227556909  1.4068587830
H   1.0505481989  1.1558001948  0.2141363685
H  -2.4405897707 -1.9033098414  0.3498197110
H  -1.8572886173 -1.4647608067 -1.1015695924
H  -0.4199471985  1.5406502778  1.0604914289
H  -1.9816845620  0.9660488287  1.6008136285
H   2.8699600936  0.2526340615  1.5536133526
H   1.8070500701  0.6734940063 -2.0726188171
H   2.4650159881 -1.4045206732  1.0541766458
H   1.3459306314 -0.4704220485  2.0477726316
H   3.0246919590  1.1932439909 -0.9214661336
H   2.9679282574 -0.5048333690 -1.4239954448
22
Image 184  Energy = -383.6442567375
C  -0.9099378068 -0.5159006133  0.4587944836
C   1.4007270777  0.1509719210 -0.0250489690
C  -1.2797645019  0.9457203965  0.7608444171
C   2.0636811232 -0.4045786180  1.2271492285
C   2.3609318142  0.3669457459 -1.1818637540
N   0.2617222717 -0.6891536960 -0.4050373751
N  -2.0849604804 -1.1206096654 -0.1784635801
O  -1.8193595871  1.5575474187 -0.3907223657
H  -2.4916697820  0.9302119788 -0.6968255678
H  -0.0050399831 -0.4664051199 -1.3584004294
H  -0.7086329111 -1.0225826052  1.4069166479
H   1.0510255960  1.1564230704  0.2142571304
H  -2.4405185088 -1.9034212915  0.3499352034
H  -1.8568337651 -1.4653769198 -1.1014447912
H  -0.4206586407  1.5404344664  1.0612235094
H  -1.9827625490  0.9655336174  1.6005554477
H   2.8703522190  0.2525059360  1.5535571176
H   1.8073627394  0.6732279907 -2.0727705047
H   2.4650359494 -1.4044042649  1.0537154495
H   1.3462780584 -0.4704157628  2.0478042939
H   3.0254643768  1.1925829355 -0.9218984528
H   2.9674643085 -0.5056169277 -1.4238121499
22
Image 185  Energy = -383.6443049532
C  -0.9100387366 -0.5158003568  0.4588382375
C   1.4008330597  0.1514177006 -0.0249620947
C  -1.2803388000  0.9455981070  0.7609909182
C   2.0638705368 -0.4044568861  1.2270619597
C   2.3610807713  0.3666699402 -1.1819198284
N   0.2616595494 -0.6884946177 -0.4050298177
N  -2.0848265351 -1.1208740994 -0.1785494977
O  -1.8194665051  1.5576800099 -0.3906714774
H  -2.4918616525  0.9306065883 -0.6971022010
H  -0.0052183423 -0.4652276736 -1.3582393413
H  -0.7085824380 -1.0224129050  1.4069719547
H   1.0514974137  1.1570410254  0.2143773734
H  -2.4404467892 -1.9035310148  0.3500502043
H  -1.8563769538 -1.4659930579 -1.1013193959
H  -0.4213684759  1.5402242474  1.0619532883
H  -1.9838342440  0.9650226964  1.6002988457
H   2.8707414095  0.2523787499  1.5534987190
H   1.8076734239  0.6729637061 -2.0729206662
H   2.4650546554 -1.4042884796  1.0532563808
H   1.3466236940 -0.4704089926  2.0478363059
H   3.0262326271  1.1919231112 -0.9223267844
H   2.9669993494 -0.5063978055 -1.4236280950
22
Image 186  Energy = -383.6443527221
C  -0.9101379410 -0.5157005594  0.4588813918
C   1.4009373665  0.1518607086 -0.0248760646
C  -1.2809094923  0.9454773299  0.7611374765
C   2.0640578525 -0.4043359794  1.2269746367
C   2.3612279424  0.3663952424 -1.1819747938
N   0.2615966230 -0.6878387089 -0.4050242226
N  -2.0846917639 -1.1211370990 -0.1786358453
O  -1.8195718226  1.5578122599 -0.3906201853
H  -2.4920500036  0.9309981890 -0.6973774019
H  -0.0053968969 -0.4640533262 -1.3580799573
H  -0.7085289478 -1.0222464989  1.4070247776
H   1.0519637730  1.1576541582  0.2144970915
H  -2.4403746694 -1.9036390254  0.3501647460
H  -1.8559181822 -1.4666092395 -1.1011934879
H  -0.4220766522  1.5400194607  1.0626807627
H  -1.9848996979  0.9645159480  1.6000437812
H   2.8711277448  0.2522525270  1.5534382184
H   1.8079820518  0.6727012029 -2.0730694755
H   2.4650721117 -1.4041733177  1.0527994327
H   1.3469675549 -0.4704017375  2.0478686358
H   3.0269966623  1.1912644436 -0.9227511952
H   2.9665334040 -0.5071759843 -1.4234433338
22
Image 187  Energy = -383.6444000573
C  -0.9102354577 -0.5156012307  0.4589239644
C   1.4010399700  0.1523009960 -0.0247907998
C  -1.2814764944  0.9453580999  0.7612840783
C   2.0642430733 -0.4042158563  1.2268872678
C   2.3613733081  0.3661215623 -1.1820288556
N   0.2615334910 -0.6871859556 -0.4050205458
N  -2.0845561460 -1.1213986418 -0.1787226312
O  -1.8196756888  1.5579440791 -0.3905685533
H  -2.4922347904  0.9313868875 -0.6976511570
H  -0.0055756596 -0.4628820574 -1.3579222789
H  -0.7084725041 -1.0220832838  1.4070751906
H   1.0524248066  1.1582625129  0.2146162665
H  -2.4403021898 -1.9037453134  0.3502788511
H  -1.8554574820 -1.4672254461 -1.1010670549
H  -0.4227832139  1.5398198792  1.0634058944
H  -1.9859590143  0.9640132685  1.5997902817
H   2.8715112396  0.2521272444  1.5533756489
H   1.8082886984  0.6724404456 -2.0732168436
H   2.4650883352 -1.4040588046  1.0523446022
H   1.3473096583 -0.4703939967  2.0479012510
H   3.0277565865  1.1906070169 -0.9231716920
H   2.9660664920 -0.5079514116 -1.4232578973
22
Image 188  Energy = -383.6444469807
C  -0.9103312982 -0.5155023379  0.4589659531
C   1.4011409636  0.1527385910 -0.0247064231
C  -1.2820399776  0.9452402824  0.7614307567
C   2.0644262226 -0.4040964893  1.2267998735
C   2.3615168924  0.3658490003 -1.1820818841
N   0.2614701664 -0.6865363038 -0.4050187479
N  -2.0844197189 -1.1216587359 -0.1788099199
O  -1.8197781412  1.5580754881 -0.3905166217
H  -2.4924160634  0.9317726955 -0.6979235001
H  -0.0057546248 -0.4617138542 -1.3577662230
H  -0.7084131649 -1.0219231511  1.4071232440
H   1.0528806092  1.1588661790  0.2147348967
H  -2.4402294046 -1.9038498926  0.3503925725
H  -1.8549948759 -1.4678416312 -1.1009400469
H  -0.4234880519  1.5396253986  1.0641287071
H  -1.9870121956  0.9635145547  1.5995382829
H   2.8718919147  0.2520028778  1.5533110393
H   1.8085933721  0.6721814495 -2.0733628392
H   2.4651033475 -1.4039449665  1.0518918793
H   1.3476499881 -0.4703857793  2.0479341748
H   3.0285123617  1.1899507424 -0.9235883390
H   2.9655986956 -0.5087241229 -1.4230718472
22
Image 189  Energy = -383.6444934835
C  -0.9104254819 -0.5154038334  0.4590073832
C   1.4012403648  0.1531735198 -0.0246228382
C  -1.2825998409  0.9451239073  0.7615774311
C   2.0646073376 -0.4039778923  1.2267124656
C   2.3616586996  0.3655774843 -1.1821339347
N   0.2614066402 -0.6858897317 -0.4050188048
N  -2.0842825667 -1.1219174667 -0.1788975791
O  -1.8198792523  1.5582064248 -0.3904643835
H  -2.4925938363  0.9321556669 -0.6981944431
H  -0.0059338022 -0.4605487029 -1.3576117967
H  -0.7083510025 -1.0217660139  1.4071690064
H   1.0533312902  1.1594652254  0.2148529654
H  -2.4401563139 -1.9039526556  0.3505058685
H  -1.8545303698 -1.4684577996 -1.1008125221
H  -0.4241912127  1.5394357989  1.0648491721
H  -1.9880593624  0.9630197156  1.5992878270
H   2.8722697745  0.2518794113  1.5532444290
H   1.8088960736  0.6719242252 -2.0735074900
H   2.4651171338 -1.4038317795  1.0514412591
H   1.3479885794 -0.4703770722  2.0479673448
H   3.0292640824  1.1892957031 -0.9240011406
H   2.9651300835 -0.5094941404 -1.4228852314
22
Image 190  Energy = -383.6445395921
C  -0.9105180641 -0.5153057969  0.4590482766
C   1.4013381936  0.1536057751 -0.0245400685
C  -1.2831563298  0.9450088831  0.7617241215
C   2.0647864562 -0.4038600594  1.2266250128
C   2.3617987426  0.3653070272 -1.1821851046
N   0.2613429000 -0.6852461938 -0.4050206686
N  -2.0841445836 -1.1221747399 -0.1789857584
O  -1.8199788991  1.5583370288 -0.3904117843
H  -2.4927682968  0.9325356920 -0.6984640721
H  -0.0061131932 -0.4593865868 -1.3574589618
H  -0.7082860805 -1.0216117597  1.4072125022
H   1.0537769448  1.1600597440  0.2149704817
H  -2.4400829896 -1.9040536809  0.3506188112
H  -1.8540640216 -1.4690738968 -1.1006843469
H  -0.4248925778  1.5392509989  1.0655673041
H  -1.9891004935  0.9625286476  1.5990388271
H   2.8726448648  0.2517568335  1.5531758542
H   1.8091968767  0.6716687425 -2.0736507505
H   2.4651297053 -1.4037192377  1.0509927438
H   1.3483253931 -0.4703678898  2.0480008013
H   3.0300117860  1.1886419014 -0.9244101374
H   2.9646606839 -0.5102614376 -1.4226980948
22
Image 191  Energy = -383.6445852976
C  -0.9106090290 -0.5152081253  0.4590886251
C   1.4014344397  0.1540353908 -0.0244580903
C  -1.2837093592  0.9448951996  0.7618708003
C   2.0649635710 -0.4037429713  1.2265375182
C   2.3619371962  0.3650376414 -1.1822353510
N   0.2612789885 -0.6846056479 -0.4050243099
N  -2.0840059353 -1.1224306574 -0.1790743306
O  -1.8200772440  1.5584671887 -0.3903588738
H  -2.4929393772  0.9329128902 -0.6987323688
H  -0.0062928045 -0.4582274922 -1.3573076759
H  -0.7082184449 -1.0214603160  1.4072538210
H   1.0542176778  1.1606497762  0.2150874197
H  -2.4400094289 -1.9041528675  0.3507313717
H  -1.8535958218 -1.4696899352 -1.1005556179
H  -0.4255921780  1.5390707996  1.0662830818
H  -1.9901356956  0.9620412719  1.5987913045
H   2.8730172215  0.2516351367  1.5531053594
H   1.8094957527  0.6714150267 -2.0737926875
H   2.4651410815 -1.4036073691  1.0505463268
H   1.3486604459 -0.4703582264  2.0480345119
H   3.0307554383  1.1879892778 -0.9248153776
H   2.9641905221 -0.5110259971 -1.4225104683
22
Image 192  Energy = -383.6446306132
C  -0.9106984206 -0.5151108843  0.4591283883
C   1.4015292069  0.1544624742 -0.0243769278
C  -1.2842589430  0.9447828598  0.7620174417
C   2.0651387329 -0.4036266559  1.2264500073
C   2.3620739192  0.3647692798 -1.1822846480
N   0.2612148536 -0.6839680710 -0.4050296531
N  -2.0838665511 -1.1226851228 -0.1791632732
O  -1.8201743268  1.5585968905 -0.3903056367
H  -2.4931071180  0.9332872835 -0.6989993551
H  -0.0064726398 -0.4570714009 -1.3571579442
H  -0.7081481588 -1.0213116005  1.4072930300
H   1.0546536198  1.1612353515  0.2152037649
H  -2.4399357033 -1.9042502660  0.3508435949
H  -1.8531257928 -1.4703059114 -1.1004263417
H  -0.4262900053  1.5388950584  1.0669964976
H  -1.9911650137  0.9615574996  1.5985452218
H   2.8733868326  0.2515142930  1.5530329569
H   1.8097927416  0.6711630763 -2.0739333302
H   2.4651512380 -1.4034961245  1.0501020062
H   1.3489937451 -0.4703480918  2.0480684767
H   3.0314951293  1.1873378855 -0.9252168804
H   2.9637196716 -0.5117878299 -1.4223224058
22
Image 193  Energy = -383.6446755302
C  -0.9107862916 -0.5150140484  0.4591676055
C   1.4016224763  0.1548869590 -0.0242965561
C  -1.2848052249  0.9446717544  0.7621640477
C   2.0653118696 -0.4035111142  1.2263625114
C   2.3622090180  0.3645019705 -1.1823331075
N   0.2611505091 -0.6833334321 -0.4050366936
N  -2.0837264112 -1.1229381404 -0.1792526963
O  -1.8202701090  1.5587262006 -0.3902520891
H  -2.4932716347  0.9336588353 -0.6992650948
H  -0.0066527034 -0.4559183020 -1.3570097283
H  -0.7080752752 -1.0211655149  1.4073301721
H   1.0550848445  1.1618165803  0.2153195181
H  -2.4398618567 -1.9043458884  0.3509555359
H  -1.8526539765 -1.4709217754 -1.1002964415
H  -0.4269859644  1.5387236791  1.0677075684
H  -1.9921884873  0.9610772406  1.5983005831
H   2.8737537835  0.2513943219  1.5529587087
H   1.8100878814  0.6709128655 -2.0740726340
H   2.4651601959 -1.4033855250  1.0496597759
H   1.3493253355 -0.4703374803  2.0481026241
H   3.0322308912  1.1866877294 -0.9256146803
H   2.9632481476 -0.5125469213 -1.4221339389
22
Image 194  Energy = -383.6447200792
C  -0.9108726761 -0.5149175730  0.4592063076
C   1.4017142953  0.1553088832 -0.0242169903
C  -1.2853481704  0.9445619061  0.7623105988
C   2.0654831425 -0.4033963045  1.2262749725
C   2.3623425031  0.3642356711 -1.1823806853
N   0.2610859662 -0.6827016727 -0.4050455000
N  -2.0835855895 -1.1231897514 -0.1793424825
O  -1.8203646719  1.5588550585 -0.3901982235
H  -2.4934329193  0.9340276039 -0.6995295842
H  -0.0068329715 -0.4547681975 -1.3568629198
H  -0.7079998548 -1.0210219967  1.4073653109
H   1.0555114408  1.1623935338  0.2154346729
H  -2.4397878991 -1.9044396687  0.3510671518
H  -1.8521803840 -1.4715375462 -1.1001659612
H  -0.4276800978  1.5385564811  1.0684162708
H  -1.9932061686  0.9606004111  1.5980573436
H   2.8741180428  0.2512751701  1.5528826343
H   1.8103811811  0.6706644154 -2.0742106638
H   2.4651679574 -1.4032755735  1.0492196318
H   1.3496551462 -0.4703263972  2.0481370265
H   3.0329627463  1.1860388114 -0.9260088099
H   2.9627759998 -0.5133032700 -1.4219451106
22
Image 195  Energy = -383.6447642470
C  -0.9109575482 -0.5148214947  0.4592444773
C   1.4018046711  0.1557283218 -0.0241381764
C  -1.2858878560  0.9444532839  0.7624571008
C   2.0656525495 -0.4032822137  1.2261873974
C   2.3624744349  0.3639704619 -1.1824274222
N   0.2610212364 -0.6820728004 -0.4050558816
N  -2.0834441247 -1.1234399852 -0.1794326524
O  -1.8204580216  1.5589834924 -0.3901440398
H  -2.4935910357  0.9343935890 -0.6997928613
H  -0.0070134860 -0.4536210456 -1.3567176254
H  -0.7079219523 -1.0208809545  1.4073984804
H   1.0559335262  1.1629662306  0.2155492138
H  -2.4397138617 -1.9045315907  0.3511784707
H  -1.8517050399 -1.4721531989 -1.1000348829
H  -0.4283723645  1.5383933520  1.0691226040
H  -1.9942181086  0.9601269372  1.5978154937
H   2.8744796235  0.2511568249  1.5528047592
H   1.8106726695  0.6704177139 -2.0743474073
H   2.4651745275 -1.4031662739  1.0487815695
H   1.3499831989 -0.4703148421  2.0481716579
H   3.0336906913  1.1853910840 -0.9263993153
H   2.9623032901 -0.5140568969 -1.4217559689
22
Image 196  Energy = -383.6448080249
C  -0.9110409897 -0.5147257934  0.4592821442
C   1.4018936204  0.1561451975 -0.0240601386
C  -1.2864242638  0.9443458020  0.7626035316
C   2.0658199495 -0.4031688458  1.2260998714
C   2.3626047895  0.3637062325 -1.1824733896
N   0.2609563455 -0.6814467319 -0.4050679079
N  -2.0833019880 -1.1236888028 -0.1795232346
O  -1.8205502031  1.5591115350 -0.3900895781
H  -2.4937460321  0.9347567988 -0.7000549491
H  -0.0071942328 -0.4524768569 -1.3565737396
H  -0.7078416107 -1.0207423146  1.4074297484
H   1.0563511638  1.1635347922  0.2156631451
H  -2.4396397933 -1.9046216776  0.3512895242
H  -1.8512279776 -1.4727687234 -1.0999031907
H  -0.4290627456  1.5382341701  1.0698265703
H  -1.9952243796  0.9596567451  1.5975750461
H   2.8748386322  0.2510393145  1.5527251464
H   1.8109623921  0.6701727517 -2.0744828533
H   2.4651799410 -1.4030576638  1.0483455727
H   1.3503095589 -0.4703028089  2.0482064261
H   3.0344148222  1.1847446379 -0.9267862120
H   2.9618300213 -0.5148077634 -1.4215665421
22
Image 197  Energy = -383.6448514656
C  -0.9111230075 -0.5146304412  0.4593193487
C   1.4019812021  0.1565596367 -0.0239829275
C  -1.2869574485  0.9442394566  0.7627498328
C   2.0659855301 -0.4030562194  1.2260123081
C   2.3627335904  0.3634430280 -1.1825184769
N   0.2608912174 -0.6808234761 -0.4050815388
N  -2.0831591940 -1.1239362655 -0.1796142045
O  -1.8206412237  1.5592391497 -0.3900347851
H  -2.4938979479  0.9351172554 -0.7003158728
H  -0.0073751936 -0.4513356103 -1.3564312227
H  -0.7077588993 -1.0206059967  1.4074591207
H   1.0567644607  1.1640992409  0.2157764538
H  -2.4395657190 -1.9047098910  0.3514003029
H  -1.8507492207 -1.4733840994 -1.0997708603
H  -0.4297512218  1.5380788163  1.0705281684
H  -1.9962250174  0.9591897469  1.5973359619
H   2.8751950348  0.2509225913  1.5526438085
H   1.8112503253  0.6699295435 -2.0746170828
H   2.4651841821 -1.4029496972  1.0479116435
H   1.3506341395 -0.4702903040  2.0482414345
H   3.0351351574  1.1840994448 -0.9271695378
H   2.9613562724 -0.5155559143 -1.4213768838
22
Image 198  Energy = -383.6448945557
C  -0.9112036367 -0.5145354516  0.4593560362
C   1.4020674158  0.1569716460 -0.0239064564
C  -1.2874874514  0.9441342386  0.7628960308
C   2.0661492756 -0.4029442789  1.2259247578
C   2.3628609214  0.3631808823 -1.1825627962
N   0.2608258832 -0.6802029735 -0.4050968043
N  -2.0830157735 -1.1241823410 -0.1797055559
O  -1.8207311353  1.5593663156 -0.3899796921
H  -2.4940468022  0.9354749981 -0.7005756435
H  -0.0075563704 -0.4501973116 -1.3562900082
H  -0.7076738545 -1.0204719420  1.4074866814
H   1.0571735079  1.1646596177  0.2158891309
H  -2.4394916892 -1.9047962511  0.3515108455
H  -1.8502687838 -1.4739993234 -1.0996379097
H  -0.4304377788  1.5379271712  1.0712273916
H  -1.9972200747  0.9587258782  1.5970982348
H   2.8755488399  0.2508066424  1.5525607786
H   1.8115365161  0.6696880773 -2.0747500605
H   2.4651872522 -1.4028424042  1.0474797737
H   1.3509569990 -0.4702773276  2.0482766093
H   3.0358516856  1.1834554628 -0.9275493328
H   2.9608820715 -0.5163013296 -1.4211870203
22
Image 199  Energy = -383.6449372560
C  -0.9112828743 -0.5144408348  0.4593921983
C   1.4021523314  0.1573812112 -0.0238307547
C  -1.2880143309  0.9440301298  0.7630421440
C   2.0663111806 -0.4028330893  1.2258372268
C   2.3629868400  0.3629196833 -1.1826063283
N   0.2607603593 -0.6795852233 -0.4051135249
N  -2.0828717620 -1.1244270294 -0.1797972058
O  -1.8208199416  1.5594930724 -0.3899243048
H  -2.4941926753  0.9358300143 -0.7008343029
H  -0.0077377903 -0.4490619139 -1.3561501928
H  -0.7075865267 -1.0203400936  1.4075124840
H   1.0575783732  1.1652160153  0.2160011796
H  -2.4394177159 -1.9048807172  0.3516211388
H  -1.8497866763 -1.4746144101 -1.0995043788
H  -0.4311223969  1.5377791091  1.0719242415
H  -1.9982095857  0.9582650668  1.5968618356
H   2.8759000870  0.2506914650  1.5524760848
H   1.8118209646  0.6694483645 -2.0748818518
H   2.4651891389 -1.4027357295  1.0470499671
H   1.3512781502 -0.4702638827  2.0483119270
H   3.0365644689  1.1828127391 -0.9279256223
H   2.9604073999 -0.5170439508 -1.4209969683
22
Image 200  Energy = -383.6449796364
C  -0.9113607425 -0.5143465633  0.4594278914
C   1.4022359221  0.1577883920 -0.0237558233
C  -1.2885382032  0.9439270591  0.7631881020
C   2.0664712460 -0.4027225891  1.2257496893
C   2.3631111866  0.3626594893 -1.1826491542
N   0.2606946431 -0.6789701812 -0.4051317715
N  -2.0827271201 -1.1246703172 -0.1798892946
O  -1.8209076709  1.5596193873 -0.3898685954
H  -2.4943355649  0.9361823441 -0.7010918494
H  -0.0079194406 -0.4479294262 -1.3560116789
H  -0.7074969655 -1.0202103723  1.4075365686
H   1.0579791619  1.1657684652  0.2161125854
H  -2.4393438585 -1.9049633457  0.3517312388
H  -1.8493029623 -1.4752293276 -1.0993701889
H  -0.4318050284  1.5376345570  1.0726187289
H  -1.9991935742  0.9578072461  1.5966267349
H   2.8762488364  0.2505770640  1.5523897793
H   1.8121037311  0.6692103760 -2.0750123945
H   2.4651898841 -1.4026297488  1.0466222050
H   1.3515975605 -0.4702499722  2.0483474257
H   3.0372736019  1.1821713221 -0.9282984203
H   2.9599323758 -0.5177838621 -1.4208067884
22
Image 201  Energy = -383.6450216883
C  -0.9114372920 -0.5142526243  0.4594631240
C   1.4023182378  0.1581931809 -0.0236816431
C  -1.2890589569  0.9438250313  0.7633339309
C   2.0666294380 -0.4026127976  1.2256621790
C   2.3632341179  0.3624003709 -1.1826912323
N   0.2606287454 -0.6783578232 -0.4051514884
N  -2.0825819133 -1.1249123035 -0.1799816769
O  -1.8209944077  1.5597452369 -0.3898126094
H  -2.4944754885  0.9365320314 -0.7013482987
H  -0.0081013192 -0.4467998278 -1.3558744606
H  -0.7074052264 -1.0200827069  1.4075589356
H   1.0583759430  1.1663170301  0.2162233424
H  -2.4392701136 -1.9050440332  0.3518410951
H  -1.8488176334 -1.4758440767 -1.0992353814
H  -0.4324857036  1.5374933639  1.0733108394
H  -2.0001721433  0.9573523555  1.5963929514
H   2.8765950992  0.2504634126  1.5523018922
H   1.8123848305  0.6689741240 -2.0751417255
H   2.4651894915 -1.4025244282  1.0461964887
H   1.3519152883 -0.4702355845  2.0483830360
H   3.0379790121  1.1815311188 -0.9286677967
H   2.9594570131 -0.5185210545 -1.4206165130
22
Image 202  Energy = -383.6450633678
C  -0.9115125624 -0.5141590167  0.4594978372
C   1.4023992651  0.1585955771 -0.0236082270
C  -1.2895766803  0.9437239938  0.7634796480
C   2.0667859525 -0.4025036895  1.2255746392
C   2.3633557274  0.3621421627 -1.1827325560
N   0.2605626949 -0.6777481080 -0.4051726625
N  -2.0824360805 -1.1251528774 -0.1800744141
O  -1.8210801176  1.5598706932 -0.3897563461
H  -2.4946125430  0.9368790364 -0.7016036968
H  -0.0082834309 -0.4456731115 -1.3557385091
H  -0.7073113442 -1.0199570579  1.4075796872
H   1.0587687699  1.1668618015  0.2163334705
H  -2.4391965550 -1.9051228703  0.3519507735
H  -1.8483307320 -1.4764586569 -1.0990999351
H  -0.4331643966  1.5373554432  1.0740005824
H  -2.0011453155  0.9569003397  1.5961604658
H   2.8769388511  0.2503504634  1.5522124316
H   1.8126642351  0.6687396235 -2.0752699211
H   2.4651879483 -1.4024197455  1.0457728161
H   1.3522312481 -0.4702207305  2.0484188319
H   3.0386807792  1.1808921916 -0.9290337599
H   2.9589813065 -0.5192554654 -1.4204261674
22
Image 203  Energy = -383.6451047275
C  -0.9115865132 -0.5140657378  0.4595321229
C   1.4024790314  0.1589956709 -0.0235355666
C  -1.2900913834  0.9436239484  0.7636251959
C   2.0669406391 -0.4023952565  1.2254871532
C   2.3634759606  0.3618849925 -1.1827731931
N   0.2604964509 -0.6771410072 -0.4051952654
N  -2.0822897471 -1.1253921681 -0.1801675320
O  -1.8211648181  1.5599957355 -0.3896997806
H  -2.4947467608  0.9372233860 -0.7018580605
H  -0.0084657608 -0.4445492656 -1.3556037788
H  -0.7072153616 -1.0198333541  1.4075988322
H   1.0591577662  1.1674027602  0.2164429371
H  -2.4391231785 -1.9051997797  0.3520602553
H  -1.8478422769 -1.4770730467 -1.0989638322
H  -0.4338411049  1.5372206973  1.0746879539
H  -2.0021131352  0.9564511191  1.5959292654
H   2.8772801641  0.2502382486  1.5521214452
H   1.8129420105  0.6685068490 -2.0753969278
H   2.4651852795 -1.4023157542  1.0453511719
H   1.3525455230 -0.4702054085  2.0484547289
H   3.0393789183  1.1802545151 -0.9293963526
H   2.9585053180 -0.5199871480 -1.4202357835
22
Image 204  Energy = -383.6451457499
C  -0.9116592038 -0.5139727901  0.4595659276
C   1.4025575770  0.1593934979 -0.0234636509
C  -1.2906031537  0.9435248467  0.7637705857
C   2.0670936603 -0.4022875553  1.2253997193
C   2.3635947488  0.3616287912 -1.1828131524
N   0.2604300298 -0.6765365109 -0.4052193290
N  -2.0821428388 -1.1256300625 -0.1802609652
O  -1.8212485432  1.5601203468 -0.3896429116
H  -2.4948781668  0.9375651075 -0.7021114058
H  -0.0086483152 -0.4434282866 -1.3554702416
H  -0.7071173376 -1.0197115385  1.4076164225
H   1.0595429914  1.1679399794  0.2165517325
H  -2.4390500464 -1.9052748178  0.3521695872
H  -1.8473522790 -1.4776872599 -1.0988271161
H  -0.4345157895  1.5370890267  1.0753729533
H  -2.0030756604  0.9560046563  1.5956993365
H   2.8776190065  0.2501267219  1.5520289469
H   1.8132181836  0.6682757899 -2.0755227598
H   2.4651814553 -1.4022123764  1.0449315633
H   1.3528580907 -0.4701896157  2.0484907395
H   3.0400735165  1.1796181424 -0.9297555867
H   2.9580290948 -0.5207160973 -1.4200454057
22
Image 205  Energy = -383.6451864481
C  -0.9117306535 -0.5138801670  0.4595992938
C   1.4026349561  0.1597889844 -0.0233924593
C  -1.2911119725  0.9434266720  0.7639157699
C   2.0672449214 -0.4021805053  1.2253122561
C   2.3637122663  0.3613736102 -1.1828524040
N   0.2603634316 -0.6759345720 -0.4052447184
N  -2.0819954199 -1.1258666654 -0.1803547025
O  -1.8213313424  1.5602445252 -0.3895857524
H  -2.4950067838  0.9379042314 -0.7023637458
H  -0.0088311117 -0.4423101445 -1.3553379285
H  -0.7070173036 -1.0195915633  1.4076324805
H   1.0599245004  1.1684735473  0.2166598742
H  -2.4389771606 -1.9053479188  0.3522787307
H  -1.8468607745 -1.4783012937 -1.0986897638
H  -0.4351884354  1.5369603542  1.0760555976
H  -2.0040329348  0.9555608754  1.5954706649
H   2.8779554579  0.2500158997  1.5519349937
H   1.8134927446  0.6680464706 -2.0756474769
H   2.4651765194 -1.4021096809  1.0445139724
H   1.3531689410 -0.4701733544  2.0485268817
H   3.0407645237  1.1789830033 -0.9301115218
H   2.9575526501 -0.5214423119 -1.4198550518
22
Image 206  Energy = -383.6452268177
C  -0.9118008918 -0.5137878676  0.4596321908
C   1.4027111933  0.1601822072 -0.0233220265
C  -1.2916179212  0.9433294013  0.7640608143
C   2.0673944161 -0.4020741490  1.2252248394
C   2.3638284488  0.3611193589 -1.1828910422
N   0.2602966482 -0.6753351768 -0.4052714851
N  -2.0818474659 -1.1261019408 -0.1804487626
O  -1.8214132221  1.5603682757 -0.3895283257
H  -2.4951326365  0.9382407720 -0.7026150832
H  -0.0090141197 -0.4411948396 -1.3552067694
H  -0.7069153038 -1.0194733705  1.4076470590
H   1.0603023711  1.1690034826  0.2167673617
H  -2.4389045607 -1.9054191044  0.3523877191
H  -1.8463677873 -1.4789151351 -1.0985517556
H  -0.4358590679  1.5368345662  1.0767358646
H  -2.0049849799  0.9551197298  1.5952432278
H   2.8782895525  0.2499057914  1.5518396101
H   1.8137657436  0.6678188660 -2.0757710398
H   2.4651704570 -1.4020076444  1.0440983902
H   1.3534781073 -0.4701566318  2.0485631195
H   3.0414520348  1.1783491764 -0.9304641628
H   2.9570760031 -0.5221657714 -1.4196647538
22
Image 207  Energy = -383.6452669026
C  -0.9118699189 -0.5136958877  0.4596646640
C   1.4027862486  0.1605731441 -0.0232523213
C  -1.2921210180  0.9432330242  0.7642056829
C   2.0675422157 -0.4019684558  1.2251374360
C   2.3639434027  0.3608660956 -1.1829290253
N   0.2602297083 -0.6747382909 -0.4052995380
N  -2.0816990044 -1.1263358883 -0.1805431551
O  -1.8214941931  1.5604916150 -0.3894706294
H  -2.4952557810  0.9385747323 -0.7028654542
H  -0.0091973587 -0.4400823497 -1.3550768046
H  -0.7068113847 -1.0193569100  1.4076601865
H   1.0606766735  1.1695298628  0.2168741850
H  -2.4388322934 -1.9054883996  0.3524965760
H  -1.8458733367 -1.4795287861 -1.0984130979
H  -0.4365276615  1.5367115825  1.0774137718
H  -2.0059318356  0.9546811551  1.5950170216
H   2.8786212870  0.2497963507  1.5517428201
H   1.8140371644  0.6675929849 -2.0758935066
H   2.4651632840 -1.4019062665  1.0436848184
H   1.3537855732 -0.4701394433  2.0485994575
H   3.0421360550  1.1777166174 -0.9308135576
H   2.9565991926 -0.5228864889 -1.4194745402
22
Image 208  Energy = -383.6453066501
C  -0.9119377345 -0.5136042116  0.4596967179
C   1.4028601513  0.1609619059 -0.0231833032
C  -1.2926211947  0.9431374929  0.7643503185
C   2.0676883664 -0.4018633906  1.2250500851
C   2.3640571067  0.3606138228 -1.1829663451
N   0.2601625895 -0.6741438919 -0.4053289034
N  -2.0815501075 -1.1265685858 -0.1806378366
O  -1.8215742779  1.5606145364 -0.3894126177
H  -2.4953762653  0.9389061234 -0.7031148854
H  -0.0093808224 -0.4389726756 -1.3549479546
H  -0.7067055869 -1.0192421202  1.4076718836
H   1.0610474905  1.1700526875  0.2169803323
H  -2.4387603569 -1.9055557369  0.3526052736
H  -1.8453774424 -1.4801422480 -1.0982738044
H  -0.4371942224  1.5365913172  1.0780893159
H  -2.0068736038  0.9542451163  1.5947920575
H   2.8789506483  0.2496875469  1.5516446367
H   1.8143070409  0.6673688212 -2.0760148908
H   2.4651550131 -1.4018055690  1.0432732458
H   1.3540913491 -0.4701217817  2.0486358620
H   3.0428166069  1.1770853239 -0.9311597370
H   2.9561222708 -0.5236044859 -1.4192844608
22
Image 209  Energy = -383.6453460998
C  -0.9120044348 -0.5135128788  0.4597283339
C   1.4029329605  0.1613484584 -0.0231150128
C  -1.2931186386  0.9430428306  0.7644947665
C   2.0678328480 -0.4017590235  1.2249627677
C   2.3641694945  0.3603625503 -1.1830030976
N   0.2600952998 -0.6735519556 -0.4053595843
N  -2.0814006412 -1.1267999210 -0.1807328505
O  -1.8216535342  1.5607369900 -0.3893543378
H  -2.4954940599  0.9392350111 -0.7033633582
H  -0.0095645019 -0.4378658089 -1.3548201951
H  -0.7065979448 -1.0191289701  1.4076821919
H   1.0614148895  1.1705720297  0.2170858052
H  -2.4386888175 -1.9056212031  0.3527138769
H  -1.8448801446 -1.4807555189 -1.0981338500
H  -0.4378587010  1.5364737035  1.0787625126
H  -2.0078102577  0.9538115501  1.5945682794
H   2.8792777139  0.2495794167  1.5515451090
H   1.8145754272  0.6671463647 -2.0761351330
H   2.4651456171 -1.4017055025  1.0428636725
H   1.3543954402 -0.4701036624  2.0486723411
H   3.0434937297  1.1764553142 -0.9315027259
H   2.9556452750 -0.5243197784 -1.4190945215
22
Image 210  Energy = -383.6453852296
C  -0.9120699728 -0.5134218543  0.4597594970
C   1.4030046560  0.1617328208 -0.0230474581
C  -1.2936133026  0.9429490110  0.7646390178
C   2.0679756883 -0.4016552845  1.2248755351
C   2.3642806764  0.3601121943 -1.1830392426
N   0.2600278663 -0.6729624488 -0.4053915291
N  -2.0812507151 -1.1270300009 -0.1808281961
O  -1.8217319651  1.5608590191 -0.3892957870
H  -2.4956092345  0.9395613821 -0.7036109100
H  -0.0097483974 -0.4367617321 -1.3546935194
H  -0.7064884969 -1.0190174215  1.4076911936
H   1.0617789333  1.1710879343  0.2171905986
H  -2.4386176738 -1.9056847292  0.3528223576
H  -1.8443814647 -1.4813685829 -1.0979932152
H  -0.4385211327  1.5363586323  1.0794333595
H  -2.0087418624  0.9533804159  1.5943456995
H   2.8796024536  0.2494718992  1.5514442488
H   1.8148423052  0.6669256230 -2.0762543171
H   2.4651351364 -1.4016061103  1.0424560838
H   1.3546978666 -0.4700850699  2.0487088679
H   3.0441674717  1.1758266131 -0.9318425494
H   2.9551681831 -0.5250323141 -1.4189047448
22
Image 211  Energy = -383.6454240879
C  -0.9121343720 -0.5133311026  0.4597902854
C   1.4030753317  0.1621150185 -0.0229806220
C  -1.2941051992  0.9428559223  0.7647830612
C   2.0681169100 -0.4015522136  1.2247882768
C   2.3643906920  0.3598628069 -1.1830747773
N   0.2599602468 -0.6723753736 -0.4054247104
N  -2.0811003613 -1.1272588335 -0.1809238172
O  -1.8218095521  1.5609806838 -0.3892369651
H  -2.4957218584  0.9398852141 -0.7038575694
H  -0.0099325069 -0.4356604317 -1.3545679284
H  -0.7063772881 -1.0189074051  1.4076988576
H   1.0621396605  1.1716004697  0.2172947301
H  -2.4385469526 -1.9057463102  0.3529307061
H  -1.8438814158 -1.4819814659 -1.0978519359
H  -0.4391814790  1.5362460627  1.0801018576
H  -2.0096684839  0.9529516654  1.5941243211
H   2.8799249417  0.2493650271  1.5513421069
H   1.8151076945  0.6667065915 -2.0763724558
H   2.4651235607 -1.4015073688  1.0420504842
H   1.3549985798 -0.4700660185  2.0487455052
H   3.0448378235  1.1751991742 -0.9321792499
H   2.9546910469 -0.5257421153 -1.4187151702
22
Image 212  Energy = -383.6454626307
C  -0.9121977152 -0.5132406288  0.4598206020
C   1.4031449186  0.1624950759 -0.0229144991
C  -1.2945943759  0.9427636520  0.7649268664
C   2.0682566307 -0.4014497903  1.2247010279
C   2.3644995341  0.3596143824 -1.1831096848
N   0.2598924712 -0.6717906789 -0.4054591464
N  -2.0809494893 -1.1274863912 -0.1810197626
O  -1.8218863247  1.5611018922 -0.3891778308
H  -2.4958319346  0.9402065606 -0.7041033420
H  -0.0101168264 -0.4345619073 -1.3544433538
H  -0.7062643443 -1.0187989158  1.4077052746
H   1.0624971616  1.1721096417  0.2173981802
H  -2.4384767060 -1.9058059774  0.3530389681
H  -1.8433800372 -1.4825941389 -1.0977099666
H  -0.4398397656  1.5361358826  1.0807680089
H  -2.0105901406  0.9525252524  1.5939041168
H   2.8802451451  0.2492587576  1.5512386921
H   1.8153715998  0.6664892738 -2.0764895786
H   2.4651108720 -1.4014092553  1.0416468631
H   1.3552975794 -0.4700465094  2.0487822428
H   3.0455048517  1.1745730428 -0.9325128537
H   2.9542139144 -0.5264492231 -1.4185258343
22
Image 213  Energy = -383.6455008887
C  -0.9122599189 -0.5131504711  0.4598505189
C   1.4032134813  0.1628729646 -0.0228490585
C  -1.2950808437  0.9426721380  0.7650704610
C   2.0683946877 -0.4013479886  1.2246138968
C   2.3646072030  0.3593669482 -1.1831441404
N   0.2598245397 -0.6712083549 -0.4054947113
N  -2.0807982178 -1.1277127095 -0.1811159445
O  -1.8219623698  1.5612226633 -0.3891184661
H  -2.4959394571  0.9405254652 -0.7043482256
H  -0.0103013730 -0.4334661305 -1.3543198652
H  -0.7061497170 -1.0186918779  1.4077104158
H   1.0628514759  1.1726155431  0.2175009549
H  -2.4384069315 -1.9058636883  0.3531471165
H  -1.8428773242 -1.4832066349 -1.0975673731
H  -0.4404959547  1.5360280394  1.0814318260
H  -2.0115069012  0.9521011303  1.5936850977
H   2.8805631062  0.2491530802  1.5511340317
H   1.8156341022  0.6662736281 -2.0766055798
H   2.4650971152 -1.4013118117  1.0412452053
H   1.3555949685 -0.4700265241  2.0488189542
H   3.0461685620  1.1739481934 -0.9328433849
H   2.9537367855 -0.5271536044 -1.4183367392
22
Image 214  Energy = -383.6455388576
C  -0.9123210412 -0.5130606025  0.4598800660
C   1.4032810008  0.1632487742 -0.0227843156
C  -1.2955646427  0.9425813584  0.7652138288
C   2.0685311381 -0.4012468288  1.2245267847
C   2.3647138378  0.3591203938 -1.1831779568
N   0.2597564772 -0.6706283570 -0.4055314985
N  -2.0806465496 -1.1279377866 -0.1812124081
O  -1.8220376331  1.5613430338 -0.3890588073
H  -2.4960445093  0.9408418962 -0.7045922607
H  -0.0104861162 -0.4323731091 -1.3541973591
H  -0.7060334352 -1.0185862570  1.4077143325
H   1.0632026893  1.1731181487  0.2176030432
H  -2.4383376713 -1.9059194704  0.3532551803
H  -1.8423733094 -1.4838189459 -1.0974241346
H  -0.4411500618  1.5359224595  1.0820933059
H  -2.0124187844  0.9516792626  1.5934672294
H   2.8808788983  0.2490480288  1.5510281736
H   1.8158951319  0.6660597060 -2.0767206367
H   2.4650822867 -1.4012150386  1.0408455060
H   1.3558906771 -0.4700060762  2.0488557159
H   3.0468289771  1.1733246332 -0.9331708825
H   2.9532596585 -0.5278552252 -1.4181479160
22
Image 215  Energy = -383.6455765418
C  -0.9123811310 -0.5129710137  0.4599092203
C   1.4033475609  0.1636225107 -0.0227202768
C  -1.2960458166  0.9424912926  0.7653569545
C   2.0686660243 -0.4011463002  1.2244397646
C   2.3648192021  0.3588748171 -1.1832113176
N   0.2596882619 -0.6700506750 -0.4055694497
N  -2.0804944213 -1.1281616149 -0.1813092231
O  -1.8221121362  1.5614629891 -0.3889988686
H  -2.4961471048  0.9411558820 -0.7048354469
H  -0.0106710589 -0.4312828285 -1.3540758356
H  -0.7059155247 -1.0184820243  1.4077170620
H   1.0635508415  1.1736175296  0.2177044455
H  -2.4382689649 -1.9059733504  0.3533631832
H  -1.8418680403 -1.4844310554 -1.0972801933
H  -0.4418020792  1.5358190814  1.0827524540
H  -2.0133258274  0.9512596045  1.5932505143
H   2.8811924682  0.2489435357  1.5509211137
H   1.8161548088  0.6658474535 -2.0768345988
H   2.4650663887 -1.4011189061  1.0404477600
H   1.3561847464 -0.4699851587  2.0488924911
H   3.0474861841  1.1727024116 -0.9334953596
H   2.9527826364 -0.5285541829 -1.4179594024
22
Image 216  Energy = -383.6456139412
C  -0.9124401802 -0.5128817709  0.4599379586
C   1.4034131185  0.1639941977 -0.0226569166
C  -1.2965244233  0.9424019356  0.7654998521
C   2.0687993636 -0.4010463858  1.2243527644
C   2.3649235141  0.3586301920 -1.1832441225
N   0.2596199047 -0.6694752951 -0.4056084918
N  -2.0803418860 -1.1283842090 -0.1814063016
O  -1.8221859429  1.5615825182 -0.3889386858
H  -2.4962472324  0.9414674684 -0.7050777793
H  -0.0108562182 -0.4301952631 -1.3539553228
H  -0.7057960274 -1.0183791363  1.4077186243
H   1.0638960077  1.1741137157  0.2178051644
H  -2.4382008168 -1.9060252914  0.3534711114
H  -1.8413615148 -1.4850429779 -1.0971355850
H  -0.4424519959  1.5357178446  1.0834092853
H  -2.0142280422  0.9508421100  1.5930349209
H   2.8815038898  0.2488396323  1.5508129076
H   1.8164130766  0.6656368977 -2.0769475934
H   2.4650494227 -1.4010234407  1.0400519651
H   1.3564771462 -0.4699637862  2.0489293137
H   3.0481401555  1.1720814649 -0.9338168642
H   2.9523056986 -0.5292504226 -1.4177712133
22
Image 217  Energy = -383.6456510778
C  -0.9124982443 -0.5127928026  0.4599663289
C   1.4034777200  0.1643638138 -0.0225942722
C  -1.2970004141  0.9423132977  0.7656424997
C   2.0689312232 -0.4009470600  1.2242658124
C   2.3650267837  0.3583864948 -1.1832763941
N   0.2595514006 -0.6689021712 -0.4056487098
N  -2.0801889664 -1.1286056150 -0.1815035695
O  -1.8222589908  1.5617016463 -0.3888781880
H  -2.4963449984  0.9417766173 -0.7053193150
H  -0.0110415615 -0.4291104289 -1.3538357200
H  -0.7056749800 -1.0182775590  1.4077190371
H   1.0642382216  1.1746067769  0.2179052029
H  -2.4381332433 -1.9060752599  0.3535789472
H  -1.8408537440 -1.4856547337 -1.0969903635
H  -0.4430998423  1.5356186558  1.0840637859
H  -2.0151254972  0.9504267382  1.5928204558
H   2.8818131361  0.2487362709  1.5507035539
H   1.8166699626  0.6654280258 -2.0770596012
H   2.4650314014 -1.4009286383  1.0396581059
H   1.3567678681 -0.4699419500  2.0489661820
H   3.0487909315  1.1714618221 -0.9341354195
H   2.9518288523 -0.5299439429 -1.4175833672
22
Image 218  Energy = -383.6456879427
C  -0.9125552705 -0.5127040788  0.4599942902
C   1.4035414402  0.1647314275 -0.0225322856
C  -1.2974738634  0.9422252858  0.7657848828
C   2.0690614454 -0.4008483753  1.2241789247
C   2.3651290192  0.3581437490 -1.1833081338
N   0.2594827387 -0.6683313289 -0.4056900237
N  -2.0800356323 -1.1288258280 -0.1816012156
O  -1.8223313770  1.5618203438 -0.3888174398
H  -2.4964403644  0.9420833981 -0.7055600307
H  -0.0112271100 -0.4280283058 -1.3537170633
H  -0.7055524015 -1.0181772717  1.4077183633
H   1.0645775480  1.1750967377  0.2180045606
H  -2.4380662901 -1.9061233104  0.3536867392
H  -1.8403447931 -1.4862662765 -1.0968443959
H  -0.4437455667  1.5355214781  1.0847159828
H  -2.0160182525  0.9500134696  1.5926071321
H   2.8821203014  0.2486334950  1.5505931068
H   1.8169254801  0.6652208518 -2.0771706660
H   2.4650123350 -1.4008344947  1.0392661786
H   1.3570569789 -0.4699196495  2.0490030351
H   3.0494385098  1.1708434630 -0.9344510566
H   2.9513521437 -0.5306347819 -1.4173958931
22
Image 219  Energy = -383.6457245141
C  -0.9126113182 -0.5126156869  0.4600218418
C   1.4036042242  0.1650970255 -0.0224709644
C  -1.2979447335  0.9421379933  0.7659270690
C   2.0691901706 -0.4007502756  1.2240921328
C   2.3652301565  0.3579019404 -1.1833394230
N   0.2594139455 -0.6677627033 -0.4057323792
N  -2.0798818922 -1.1290448271 -0.1816991240
O  -1.8224030949  1.5619386309 -0.3887564422
H  -2.4965333878  0.9423878031 -0.7057999551
H  -0.0114128553 -0.4269488724 -1.3535993541
H  -0.7054283400 -1.0180782258  1.4077165948
H   1.0649140318  1.1755836206  0.2181032265
H  -2.4379999811 -1.9061694395  0.3537944859
H  -1.8398346556 -1.4868776390 -1.0966977542
H  -0.4443892213  1.5354262132  1.0853658570
H  -2.0169063316  0.9496022508  1.5923949197
H   2.8824253332  0.2485312404  1.5504815682
H   1.8171796668  0.6650153460 -2.0772807460
H   2.4649922240 -1.4007410098  1.0388761752
H   1.3573444700 -0.4698968785  2.0490398619
H   3.0500829896  1.1702264323 -0.9347637859
H   2.9508756176 -0.5313229406 -1.4172088124
22
Image 220  Energy = -383.6457608139
C  -0.9126663904 -0.5125275709  0.4600490685
C   1.4036660305  0.1654606391 -0.0224103405
C  -1.2984131217  0.9420512972  0.7660689562
C   2.0693174673 -0.4006528384  1.2240053611
C   2.3653303187  0.3576610543 -1.1833702259
N   0.2593450319 -0.6671962809 -0.4057757895
N  -2.0797278021 -1.1292626711 -0.1817972902
O  -1.8224741378  1.5620565213 -0.3886951601
H  -2.4966240985  0.9426898396 -0.7060391021
H  -0.0115987854 -0.4258721272 -1.3534825548
H  -0.7053028174 -1.0179803832  1.4077137504
H   1.0652477473  1.1760674817  0.2182012085
H  -2.4379343256 -1.9062136138  0.3539021762
H  -1.8393233542 -1.4874888249 -1.0965504542
H  -0.4450307446  1.5353328581  1.0860134445
H  -2.0177897611  0.9491930486  1.5921838114
H   2.8827282857  0.2484295281  1.5503689783
H   1.8174325280  0.6648115170 -2.0773898707
H   2.4649710471 -1.4006481335  1.0384881026
H   1.3576302934 -0.4698736491  2.0490767263
H   3.0507243492  1.1696107038 -0.9350736593
H   2.9503992588 -0.5320083974 -1.4170221449
22
Image 221  Energy = -383.6457968640
C  -0.9127205244 -0.5124397405  0.4600759035
C   1.4037270292  0.1658222506 -0.0223503467
C  -1.2988790413  0.9419652211  0.7662106250
C   2.0694432888 -0.4005559232  1.2239186917
C   2.3654294422  0.3574210921 -1.1834006263
N   0.2592759489 -0.6666320515 -0.4058203124
N  -2.0795733290 -1.1294793131 -0.1818956895
O  -1.8225445447  1.5621740061 -0.3886336382
H  -2.4967125087  0.9429895392 -0.7062774717
H  -0.0117848945 -0.4247980741 -1.3533665962
H  -0.7051758710 -1.0178837279  1.4077098693
H   1.0655787084  1.1765483909  0.2182985153
H  -2.4378693580 -1.9062558631  0.3540098249
H  -1.8388109070 -1.4880998481 -1.0964024948
H  -0.4456701755  1.5352413251  1.0866587372
H  -2.0186685593  0.9487858325  1.5919737837
H   2.8830291258  0.2483283031  1.5502553309
H   1.8176841105  0.6646093477 -2.0774980145
H   2.4649488434 -1.4005559350  1.0381019316
H   1.3579145038 -0.4698499562  2.0491135618
H   3.0513626309  1.1689962875 -0.9353806893
H   2.9499231008 -0.5326911636 -1.4168359039
22
Image 222  Energy = -383.6458326601
C  -0.9127736706 -0.5123521780  0.4601023483
C   1.4037870718  0.1661819220 -0.0222910561
C  -1.2993425120  0.9418797639  0.7663519984
C   2.0695677293 -0.4004596610  1.2238320721
C   2.3655275816  0.3571820530 -1.1834305445
N   0.2592067857 -0.6660699784 -0.4058658033
N  -2.0794185113 -1.1296948008 -0.1819943615
O  -1.8226143211  1.5622910603 -0.3885718327
H  -2.4967986355  0.9432869243 -0.7065150718
H  -0.0119711901 -0.4237266792 -1.3532515524
H  -0.7050475307 -1.0177882278  1.4077049908
H   1.0659070032  1.1770263230  0.2183951302
H  -2.4378051012 -1.9062961812  0.3541174397
H  -1.8382973431 -1.4887106987 -1.0962538543
H  -0.4463075053  1.5351515571  1.0873017373
H  -2.0195428030  0.9483805748  1.5917648644
H   2.8833279024  0.2482275950  1.5501406741
H   1.8179343927  0.6644088501 -2.0776052528
H   2.4649255741 -1.4004643439  1.0377176790
H   1.3581970690 -0.4698258068  2.0491504137
H   3.0519978665  1.1683831879 -0.9356849095
H   2.9494471668 -0.5333712563 -1.4166501179
22
Image 223  Energy = -383.6458681932
C  -0.9128259138 -0.5122648928  0.4601284814
C   1.4038463491  0.1665396586 -0.0222324183
C  -1.2998034988  0.9417948836  0.7664930961
C   2.0696906748 -0.4003639709  1.2237454758
C   2.3656247415  0.3569439306 -1.1834599737
N   0.2591374887 -0.6655100558 -0.4059123094
N  -2.0792633708 -1.1299091292 -0.1820932601
O  -1.8226835393  1.5624076771 -0.3885098019
H  -2.4968824757  0.9435820376 -0.7067519083
H  -0.0121576685 -0.4226579418 -1.3531373853
H  -0.7049178222 -1.0176938483  1.4076991048
H   1.0662326488  1.1775013529  0.2184910617
H  -2.4377415701 -1.9063345616  0.3542250198
H  -1.8377826729 -1.4893213977 -1.0961045695
H  -0.4469427273  1.5350635108  1.0879424565
H  -2.0204125325  0.9479772268  1.5915570425
H   2.8836246782  0.2481274046  1.5500250390
H   1.8181834038  0.6642100175 -2.0777115745
H   2.4649012971 -1.4003734277  1.0373353206
H   1.3584780023 -0.4698011906  2.0491872497
H   3.0526300554  1.1677713841 -0.9359863527
H   2.9489714714 -0.5340486684 -1.4164648031
22
Image 224  Energy = -383.6459034854
C  -0.9128772270 -0.5121778798  0.4601542169
C   1.4039047101  0.1668954977 -0.0221744222
C  -1.3002621308  0.9417106114  0.7666339485
C   2.0698121678 -0.4002688691  1.2236589989
C   2.3657209896  0.3567066998 -1.1834890047
N   0.2590680656 -0.6649522798 -0.4059598051
N  -2.0791078593 -1.1301223029 -0.1821924496
O  -1.8227520555  1.5625239246 -0.3884474440
H  -2.4969641728  0.9438747918 -0.7069880408
H  -0.0123443251 -0.4215918555 -1.3530240564
H  -0.7047867770 -1.0176005568  1.4076922500
H   1.0665557259  1.1779734867  0.2185863027
H  -2.4376788060 -1.9063710337  0.3543325879
H  -1.8372669360 -1.4899319269 -1.0959545833
H  -0.4475758446  1.5349771315  1.0885808932
H  -2.0212777413  0.9475757662  1.5913502743
H   2.8839194459  0.2480276956  1.5499084400
H   1.8184311553  0.6640128411 -2.0778169821
H   2.4648760050 -1.4002831549  1.0369548529
H   1.3587573458 -0.4697761081  2.0492240299
H   3.0532592621  1.1671609181 -0.9362850394
H   2.9484960211 -0.5347233970 -1.4162799767
22
Image 225  Energy = -383.6459385104
C  -0.9129276310 -0.5120911749  0.4601796051
C   1.4039622929  0.1672494174 -0.0221170750
C  -1.3007183762  0.9416269149  0.7667745436
C   2.0699322626 -0.4001743033  1.2235725828
C   2.3658162870  0.3564704183 -1.1835176329
N   0.2589985417 -0.6643966142 -0.4060082410
N  -2.0789520544 -1.1303343624 -0.1822918894
O  -1.8228200886  1.5626397157 -0.3883848944
H  -2.4970435918  0.9441653394 -0.7072234033
H  -0.0125311649 -0.4205284030 -1.3529116081
H  -0.7046544136 -1.0175083426  1.4076844605
H   1.0668762429  1.1784427921  0.2186808735
H  -2.4376168045 -1.9064055560  0.3544401429
H  -1.8367501315 -1.4905422952 -1.0958039381
H  -0.4482068502  1.5348923693  1.0892170747
H  -2.0221384859  0.9471761648  1.5911445720
H   2.8842122089  0.2479284640  1.5497908947
H   1.8186776824  0.6638173133 -2.0779214686
H   2.4648496983 -1.4001935542  1.0365762627
H   1.3590350630 -0.4697505662  2.0492607916
H   3.0538854681  1.1665517436 -0.9365810002
H   2.9480208645 -0.5353954798 -1.4160956618
22
Image 226  Energy = -383.6459733032
C  -0.9129771767 -0.5120047356  0.4602046654
C   1.4040190424  0.1676014840 -0.0220603844
C  -1.3011722329  0.9415437574  0.7669148597
C   2.0700509597 -0.4000803801  1.2234862870
C   2.3659106104  0.3562350758 -1.1835458535
N   0.2589289114 -0.6638430119 -0.4060576810
N  -2.0787958993 -1.1305453160 -0.1823915960
O  -1.8228874809  1.5627551476 -0.3883220386
H  -2.4971209057  0.9444535716 -0.7074580833
H  -0.0127181597 -0.4194675930 -1.3527999360
H  -0.7045207736 -1.0174171591  1.4076757277
H   1.0671942839  1.1789092494  0.2187747431
H  -2.4375555941 -1.9064381390  0.3545476628
H  -1.8362323073 -1.4911525010 -1.0956525688
H  -0.4488357712  1.5348091675  1.0898509869
H  -2.0229947993  0.9467783874  1.5909399235
H   2.8845029990  0.2478297100  1.5496724275
H   1.8189229921  0.6636234307 -2.0780250746
H   2.4648223534 -1.4001045449  1.0361995573
H   1.3593111986 -0.4697245661  2.0492974979
H   3.0545087440  1.1659438948 -0.9368742530
H   2.9475460255 -0.5360649293 -1.4159118787
22
Image 227  Energy = -383.6460078200
C  -0.9130258053 -0.5119185741  0.4602293539
C   1.4040749743  0.1679516754 -0.0220043061
C  -1.3016237798  0.9414611383  0.7670549066
C   2.0701682053 -0.3999869494  1.2234000574
C   2.3660041126  0.3560006247 -1.1835736398
N   0.2588591568 -0.6632914988 -0.4061080591
N  -2.0786394386 -1.1307551487 -0.1824915284
O  -1.8229542885  1.5628701964 -0.3882589268
H  -2.4971960906  0.9447395402 -0.7076920585
H  -0.0129053228 -0.4184094054 -1.3526890701
H  -0.7043858796 -1.0173269926  1.4076660856
H   1.0675098716  1.1793729332  0.2188679366
H  -2.4374952064 -1.9064687988  0.3546551855
H  -1.8357134523 -1.4917625607 -1.0955005518
H  -0.4494625761  1.5347274894  1.0904826421
H  -2.0238467362  0.9463824148  1.5907363494
H   2.8847918611  0.2477314247  1.5495530644
H   1.8191670563  0.6634312053 -2.0781278383
H   2.4647940411 -1.4000162487  1.0358247041
H   1.3595857232 -0.4696981042  2.0493341630
H   3.0551290930  1.1653373554 -0.9371648354
H   2.9470715010 -0.5367317166 -1.4157286437
22
Image 228  Energy = -383.6460421134
C  -0.9130735859 -0.5118326769  0.4602536947
C   1.4041301688  0.1683000116 -0.0219488946
C  -1.3020729542  0.9413790402  0.7671946564
C   2.0702841520 -0.3998941533  1.2233138524
C   2.3660966356  0.3557670794 -1.1836010450
N   0.2587892621 -0.6627420339 -0.4061593745
N  -2.0784826597 -1.1309638540 -0.1825917064
O  -1.8230206292  1.5629847894 -0.3881955805
H  -2.4972690909  0.9450233318 -0.7079253066
H  -0.0130926381 -0.4173538338 -1.3525789781
H  -0.7042497556 -1.0172378333  1.4076555724
H   1.0678230502  1.1798338970  0.2189604532
H  -2.4374356558 -1.9064975433  0.3547626962
H  -1.8351936056 -1.4923724869 -1.0953478484
H  -0.4500872937  1.5346472826  1.0911120561
H  -2.0246943141  0.9459882060  1.5905338075
H   2.8850787661  0.2476335895  1.5494328286
H   1.8194099660  0.6632406096 -2.0782296925
H   2.4647646839 -1.3999285194  1.0354517332
H   1.3598586384 -0.4696711867  2.0493708119
H   3.0557465587  1.1647321427 -0.9374527758
H   2.9465973214 -0.5373958579 -1.4155459698
22
Image 229  Energy = -383.6460761658
C  -0.9131205288 -0.5117470501  0.4602777170
C   1.4041845401  0.1686465123 -0.0218941237
C  -1.3025198607  0.9412974564  0.7673341499
C   2.0703987148 -0.3998018708  1.2232278216
C   2.3661883340  0.3555344601 -1.1836280771
N   0.2587192945 -0.6621945972 -0.4062116075
N  -2.0783255899 -1.1311715184 -0.1826921431
O  -1.8230864242  1.5630989807 -0.3881319772
H  -2.4973400029  0.9453049016 -0.7081578730
H  -0.0132801066 -0.4163008685 -1.3524696585
H  -0.7041124259 -1.0171496371  1.4076441739
H   1.0681338679  1.1802921380  0.2190522911
H  -2.4373769483 -1.9065243277  0.3548701984
H  -1.8346727872 -1.4929822584 -1.0951944482
H  -0.4507098949  1.5345685115  1.0917392315
H  -2.0255375655  0.9455957393  1.5903323000
H   2.8853637397  0.2475361792  1.5493117246
H   1.8196516828  0.6630516559 -2.0783307092
H   2.4647343556 -1.3998414683  1.0350805953
H   1.3601299833 -0.4696438004  2.0494073755
H   3.0563611389  1.1641282401 -0.9377380914
H   2.9461235038 -0.5380573783 -1.4153638798
22
Image 230  Energy = -383.6461099948
C  -0.9131666344 -0.5116616904  0.4603014031
C   1.4042382225  0.1689911714 -0.0218399452
C  -1.3029644677  0.9412163565  0.7674733425
C   2.0705118675 -0.3997101203  1.2231418124
C   2.3662792353  0.3553027164 -1.1836547274
N   0.2586492095 -0.6616491673 -0.4062647060
N  -2.0781682447 -1.1313780938 -0.1827928064
O  -1.8231516631  1.5632128018 -0.3880681053
H  -2.4974088731  0.9455842404 -0.7083897772
H  -0.0134677282 -0.4152504996 -1.3523611191
H  -0.7039739123 -1.0170623835  1.4076319270
H   1.0684423516  1.1807477076  0.2191434521
H  -2.4373191157 -1.9065491841  0.3549776982
H  -1.8341510079 -1.4935919026 -1.0950403763
H  -0.4513304083  1.5344911230  1.0923641745
H  -2.0263765351  0.9452049838  1.5901318422
H   2.8856468195  0.2474392179  1.5491897960
H   1.8198922222  0.6628643367 -2.0784308985
H   2.4647030393 -1.3997550795  1.0347113108
H   1.3603997592 -0.4696159553  2.0494438776
H   3.0569728608  1.1635256449 -0.9380208136
H   2.9456500235 -0.5387162247 -1.4151823703
22
Image 231  Energy = -383.6461435653
C  -0.9132119284 -0.5115766100  0.4603247344
C   1.4042911674  0.1693340776 -0.0217864276
C  -1.3034068624  0.9411357799  0.7676123072
C   2.0706238116 -0.3996189893  1.2230559008
C   2.3663692839  0.3550718656 -1.1836809688
N   0.2585790333 -0.6611057593 -0.4063186860
N  -2.0780105927 -1.1315835623 -0.1828936952
O  -1.8232163881  1.5633262340 -0.3880039934
H  -2.4974756894  0.9458613903 -0.7086210084
H  -0.0136555103 -0.4142027142 -1.3522533513
H  -0.7038342449 -1.0169760664  1.4076188650
H   1.0687485535  1.1812006102  0.2192339330
H  -2.4372621881 -1.9065721414  0.3550852199
H  -1.8336282904 -1.4942014322 -1.0948856494
H  -0.4519488323  1.5344150711  1.0929868878
H  -2.0272112219  0.9448159172  1.5899323881
H   2.8859279779  0.2473426621  1.5490670387
H   1.8201315992  0.6626786510 -2.0785302665
H   2.4646706932 -1.3996692467  1.0343438763
H   1.3606679353 -0.4695876527  2.0494803306
H   3.0575817695  1.1629243737 -0.9383009676
H   2.9451769449 -0.5393724583 -1.4150014759
22
Image 232  Energy = -383.6461769300
C  -0.9132564139 -0.5114918263  0.4603477562
C   1.4043433792  0.1696751736 -0.0217335029
C  -1.3038470321  0.9410556996  0.7677509733
C   2.0707343033 -0.3995283752  1.2229700516
C   2.3664584242  0.3548419258 -1.1837069302
N   0.2585087795 -0.6605643100 -0.4063735261
N  -2.0778526433 -1.1317879438 -0.1829948498
O  -1.8232806109  1.5634392520 -0.3879396040
H  -2.4975404712  0.9461363718 -0.7088515769
H  -0.0138434337 -0.4131575058 -1.3521463224
H  -0.7036934490 -1.0168906428  1.4076049778
H   1.0690525095  1.1816508918  0.2193237406
H  -2.4372061754 -1.9065931938  0.3551927668
H  -1.8331046599 -1.4948108360 -1.0947302295
H  -0.4525651685  1.5343403191  1.0936073849
H  -2.0280416781  0.9444285151  1.5897339392
H   2.8862073400  0.2472465629  1.5489435104
H   1.8203698775  0.6624945751 -2.0786287643
H   2.4646374033 -1.3995841107  1.0339782627
H   1.3609345386 -0.4695588902  2.0495167177
H   3.0581879035  1.1623244433 -0.9385785692
H   2.9447042973 -0.5400260954 -1.4148212137
22
Image 233  Energy = -383.6462100537
C  -0.9133001402 -0.5114072627  0.4603704178
C   1.4043948654  0.1700145519 -0.0216812377
C  -1.3042849486  0.9409760203  0.7678893426
C   2.0708436154 -0.3994382697  1.2228843541
C   2.3665467905  0.3546128804 -1.1837325445
N   0.2584384287 -0.6600248523 -0.4064292117
N  -2.0776943971 -1.1319912909 -0.1830962455
O  -1.8233444188  1.5635518406 -0.3878750183
H  -2.4976031909  0.9464092448 -0.7090814688
H  -0.0140314996 -0.4121148624 -1.3520400378
H  -0.7035515472 -1.0168061249  1.4075903159
H   1.0693542788  1.1820985667  0.2194128644
H  -2.4371510920 -1.9066123131  0.3553003146
H  -1.8325801434 -1.4954201148 -1.0945740927
H  -0.4531793996  1.5342668469  1.0942256842
H  -2.0288679746  0.9440427575  1.5895365393
H   2.8864847781  0.2471508283  1.5488191836
H   1.8206070337  0.6623121152 -2.0787264388
H   2.4646031182 -1.3994996106  1.0336144716
H   1.3611995671 -0.4695296722  2.0495530346
H   3.0587912483  1.1617258167 -0.9388536552
H   2.9442320478 -0.5406770950 -1.4146415797
22
Image 234  Energy = -383.6462429539
C  -0.9133430143 -0.5113229969  0.4603928094
C   1.4044456536  0.1703521448 -0.0216295766
C  -1.3047207236  0.9408968276  0.7680274017
C   2.0709515832 -0.3993487390  1.2227987141
C   2.3666343073  0.3543847334 -1.1837578365
N   0.2583679941 -0.6594873139 -0.4064857907
N  -2.0775359236 -1.1321936188 -0.1831978652
O  -1.8234076740  1.5636640919 -0.3878101384
H  -2.4976639819  0.9466799179 -0.7093107417
H  -0.0142196892 -0.4110747950 -1.3519344231
H  -0.7034085734 -1.0167224625  1.4075748506
H   1.0696538755  1.1825437039  0.2195013224
H  -2.4370969472 -1.9066294935  0.3554078695
H  -1.8320547415 -1.4960292812 -1.0944172778
H  -0.4537915524  1.5341945907  1.0948417822
H  -2.0296900929  0.9436586140  1.5893401415
H   2.8867604122  0.2470555110  1.5486941163
H   1.8208430887  0.6621312688 -2.0788233019
H   2.4645678608 -1.3994157239  1.0332524967
H   1.3614630335 -0.4694999927  2.0495892885
H   3.0593918668  1.1611285297 -0.9391262433
H   2.9437602593 -0.5413255153 -1.4144626059
22
Image 235  Energy = -383.6462756439
C  -0.9133851491 -0.5112390231  0.4604148717
C   1.4044957529  0.1706880356 -0.0215785044
C  -1.3051542815  0.9408181010  0.7681651606
C   2.0710582362 -0.3992597179  1.2227131707
C   2.3667210936  0.3541574986 -1.1837827579
N   0.2582974782 -0.6589517104 -0.4065431468
N  -2.0773771663 -1.1323948969 -0.1832996987
O  -1.8234705207  1.5637759008 -0.3877450232
H  -2.4977227641  0.9469485052 -0.7095393604
H  -0.0144080232 -0.4100372736 -1.3518295483
H  -0.7032645353 -1.0166396431  1.4075586062
H   1.0699513571  1.1829862818  0.2195891029
H  -2.4370437740 -1.9066447639  0.3555154481
H  -1.8315284738 -1.4966383463 -1.0942597888
H  -0.4544016230  1.5341235215  1.0954556924
H  -2.0305080984  0.9432760580  1.5891447494
H   2.8870342335  0.2469605831  1.5485683142
H   1.8210780407  0.6619520349 -2.0789193829
H   2.4645316423 -1.3993324840  1.0328923335
H   1.3617249631 -0.4694698532  2.0496254277
H   3.0599897183  1.1605325257 -0.9393963712
H   2.9432889136 -0.5419713335 -1.4142843025
22
Image 236  Energy = -383.6463080929
C  -0.9134265028 -0.5111552574  0.4604365880
C   1.4045452212  0.1710221506 -0.0215280502
C  -1.3055856951  0.9407397914  0.7683026502
C   2.0711636102 -0.3991712496  1.2226277067
C   2.3668070831  0.3539311085 -1.1838073315
N   0.2582268796 -0.6584180203 -0.4066012960
N  -2.0772182018 -1.1325951486 -0.1834017234
O  -1.8235329132  1.5638872999 -0.3876796564
H  -2.4977795944  0.9472149850 -0.7097673493
H  -0.0145964858 -0.4090022935 -1.3517253807
H  -0.7031194523 -1.0165576689  1.4075416417
H   1.0702467209  1.1834264033  0.2196762242
H  -2.4369915866 -1.9066581177  0.3556230511
H  -1.8310013465 -1.4972473281 -1.0941016606
H  -0.4550096229  1.5340536035  1.0960674141
H  -2.0313219942  0.9428950733  1.5889503396
H   2.8873062718  0.2468660463  1.5484418001
H   1.8213118923  0.6617744208 -2.0790147170
H   2.4644944589 -1.3992498567  1.0325339681
H   1.3619853270 -0.4694392555  2.0496615012
H   3.0605849072  1.1599378786 -0.9396640474
H   2.9428180440 -0.5426145638 -1.4141066805
22
Image 237  Energy = -383.6463403361
C  -0.9134671210 -0.5110718300  0.4604580346
C   1.4045939940  0.1713545704 -0.0214782095
C  -1.3060149898  0.9406619101  0.7684398626
C   2.0712677605 -0.3990832859  1.2225423278
C   2.3668924031  0.3537056334 -1.1838316055
N   0.2581561940 -0.6578862263 -0.4066602558
N  -2.0770589340 -1.1327943847 -0.1835040503
O  -1.8235948227  1.5639983384 -0.3876140150
H  -2.4978345390  0.9474793331 -0.7099947374
H  -0.0147850637 -0.4079698521 -1.3516218878
H  -0.7029733681 -1.0164764704  1.4075239031
H   1.0705400383  1.1838640475  0.2197626786
H  -2.4369403942 -1.9066695579  0.3557306830
H  -1.8304734195 -1.4978561884 -1.0939427652
H  -0.4556155553  1.5339847955  1.0966769575
H  -2.0321318160  0.9425156405  1.5887569070
H   2.8875765138  0.2467718735  1.5483145884
H   1.8215446756  0.6615984015 -2.0791092604
H   2.4644563201 -1.3991678701  1.0321773956
H   1.3622441311 -0.4694082000  2.0496975025
H   3.0611773787  1.1593445119 -0.9399293152
H   2.9423476347 -0.5432551895 -1.4139297458
22
Image 238  Energy = -383.6463723602
C  -0.9135069840 -0.5109886427  0.4604791515
C   1.4046421395  0.1716853431 -0.0214289559
C  -1.3064421740  0.9405844266  0.7685768014
C   2.0713706459 -0.3989958521  1.2224570891
C   2.3669769164  0.3534809906 -1.1838555981
N   0.2580854401 -0.6573563142 -0.4067200156
N  -2.0768994435 -1.1329926264 -0.1836065698
O  -1.8236563125  1.5641090062 -0.3875481581
H  -2.4978875810  0.9477415946 -0.7102215122
H  -0.0149737669 -0.4069399436 -1.3515190674
H  -0.7028262885 -1.0163960800  1.4075054643
H   1.0708313380  1.1842992176  0.2198484597
H  -2.4368902203 -1.9066790786  0.3558383363
H  -1.8299446758 -1.4984649710 -1.0937832083
H  -0.4562194003  1.5339170766  1.0972843427
H  -2.0329376066  0.9421377328  1.5885644672
H   2.8878449860  0.2466780682  1.5481866945
H   1.8217764208  0.6614239745 -2.0792030336
H   2.4644172325 -1.3990865160  1.0318226019
H   1.3625014108 -0.4693766813  2.0497333926
H   3.0617672266  1.1587524969 -0.9401921727
H   2.9418777180 -0.5438932215 -1.4137535159
22
Image 239  Energy = -383.6464041565
C  -0.9135460983 -0.5109057163  0.4604999681
C   1.4046896368  0.1720144336 -0.0213802968
C  -1.3068672789  0.9405073387  0.7687134397
C   2.0714723265 -0.3989088886  1.2223719749
C   2.3670606767  0.3532572683 -1.1838793070
N   0.2580145734 -0.6568282721 -0.4067805650
N  -2.0767396709 -1.1331898172 -0.1837093460
O  -1.8237173927  1.5642192806 -0.3874820640
H  -2.4979387172  0.9480017958 -0.7104476667
H  -0.0151625726 -0.4059125607 -1.3514168881
H  -0.7026782385 -1.0163164702  1.4074863022
H   1.0711206563  1.1847319644  0.2199335763
H  -2.4368411027 -1.9066867389  0.3559460603
H  -1.8294151460 -1.4990736682 -1.0936229619
H  -0.4568211811  1.5338503998  1.0978895639
H  -2.0337394021  0.9417613354  1.5883730116
H   2.8881116841  0.2465845986  1.5480581326
H   1.8220071461  0.6612511293 -2.0792960149
H   2.4643771956 -1.3990057981  1.0314695872
H   1.3627571646 -0.4693447078  2.0497691647
H   3.0623544388  1.1581618011 -0.9404526659
H   2.9414083229 -0.5445287075 -1.4135780108
22
Image 240  Energy = -383.6464357381
C  -0.9135845063 -0.5108230329  0.4605204311
C   1.4047365087  0.1723418399 -0.0213322198
C  -1.3072903170  0.9404306645  0.7688498106
C   2.0715726978 -0.3988225132  1.2222869147
C   2.3671436992  0.3530343534 -1.1839027953
N   0.2579436776 -0.6563020901 -0.4068418477
N  -2.0765797087 -1.1333860399 -0.1838122477
O  -1.8237780528  1.5643291508 -0.3874157061
H  -2.4979879964  0.9482599367 -0.7106732283
H  -0.0153514952 -0.4048876836 -1.3513153748
H  -0.7025292292 -1.0162376359  1.4074664762
H   1.0714080129  1.1851623419  0.2200180389
H  -2.4367930123 -1.9066924452  0.3560537943
H  -1.8288848220 -1.4996823163 -1.0934620992
H  -0.4574209034  1.5337847320  1.0984926359
H  -2.0345372164  0.9413864301  1.5881825114
H   2.8883767246  0.2464915314  1.5479289495
H   1.8222368445  0.6610798617 -2.0793882365
H   2.4643362148 -1.3989256816  1.0311183486
H   1.3630113794 -0.4693122810  2.0498048470
H   3.0629390926  1.1575724778 -0.9407107855
H   2.9409394280 -0.5451616008 -1.4134032237
22
Image 241  Energy = -383.6464671445
C  -0.9136221752 -0.5107406827  0.4605406653
C   1.4047827619  0.1726676057 -0.0212846762
C  -1.3077112685  0.9403544097  0.7689858673
C   2.0716719215 -0.3987365984  1.2222019271
C   2.3672261051  0.3528123808 -1.1839259432
N   0.2578726954 -0.6557777030 -0.4069038706
N  -2.0764195341 -1.1335813057 -0.1839154594
O  -1.8238383232  1.5644386247 -0.3873491091
H  -2.4980354205  0.9485160459 -0.7108981989
H  -0.0155405205 -0.4038653143 -1.3512145099
H  -0.7023792981 -1.0161595238  1.4074459314
H   1.0716934558  1.1855903312  0.2201018298
H  -2.4367459850 -1.9066962536  0.3561615726
H  -1.8283537552 -1.5002908698 -1.0933004788
H  -0.4580185813  1.5337200453  1.0990935667
H  -2.0353310775  0.9410129741  1.5879929823
H   2.8886400012  0.2463987812  1.5477991347
H   1.8224655130  0.6609101884 -2.0794797595
H   2.4642942865 -1.3988461985  1.0307688749
H   1.3632640626 -0.4692793979  2.0498404300
H   3.0635210925  1.1569844081 -0.9409666027
H   2.9404710635 -0.5457919472 -1.4132291799
22
Image 242  Energy = -383.6464983493
C  -0.9136591649 -0.5106585467  0.4605605668
C   1.4048284615  0.1729917693 -0.0212377663
C  -1.3081301635  0.9402785129  0.7691215890
C   2.0717699378 -0.3986512017  1.2221170441
C   2.3673077329  0.3525912896 -1.1839487683
N   0.2578016299 -0.6552551568 -0.4069666424
N  -2.0762591250 -1.1337755945 -0.1840188807
O  -1.8238981746  1.5645477308 -0.3872822453
H  -2.4980810263  0.9487701091 -0.7111225823
H  -0.0157296482 -0.4028454413 -1.3511142788
H  -0.7022284475 -1.0160821674  1.4074247625
H   1.0719770098  1.1860159811  0.2201849649
H  -2.4367000467 -1.9066981690  0.3562694003
H  -1.8278219461 -1.5008993615 -1.0931381827
H  -0.4586142182  1.5336563108  1.0996923584
H  -2.0361210470  0.9406409665  1.5878044350
H   2.8889015951  0.2463063703  1.5476687146
H   1.8226931757  0.6607420893 -2.0795705617
H   2.4642514355 -1.3987673363  1.0304211547
H   1.3635152098 -0.4692460589  2.0498759251
H   3.0641005630  1.1563976862 -0.9412201110
H   2.9400032755 -0.5464197815 -1.4130559025
22
Image 243  Energy = -383.6465293220
C  -0.9136954751 -0.5105767135  0.4605801813
C   1.4048735282  0.1733143108 -0.0211914348
C  -1.3085470988  0.9402029926  0.7692570876
C   2.0718668094 -0.3985662994  1.2220323017
C   2.3673887365  0.3523710656 -1.1839713643
N   0.2577305393 -0.6547344253 -0.4070301173
N  -2.0760985257 -1.1339689675 -0.1841225039
O  -1.8239576543  1.5646564571 -0.3872151715
H  -2.4981248221  0.9490221619 -0.7113463893
H  -0.0159188784 -0.4018280487 -1.3510146819
H  -0.7020767031 -1.0160055228  1.4074029317
H   1.0722587001  1.1864393234  0.2202674571
H  -2.4366551665 -1.9066981237  0.3563772337
H  -1.8272894222 -1.5015077935 -1.0929751757
H  -0.4592077921  1.5335935014  1.1002890293
H  -2.0369070946  0.9402703835  1.5876168120
H   2.8891614660  0.2462142625  1.5475376940
H   1.8229198485  0.6605755609 -2.0796606284
H   2.4642076379 -1.3986890730  1.0300751828
H   1.3637648627 -0.4692122622  2.0499112778
H   3.0646774824  1.1558122769 -0.9414713416
H   2.9395360408 -0.5470450651 -1.4128833860
22
Image 244  Energy = -383.6465601020
C  -0.9137310497 -0.5104951167  0.4605994960
C   1.4049180868  0.1736352061 -0.0211457067
C  -1.3089619800  0.9401278205  0.7693922897
C   2.0719624715 -0.3984818882  1.2219476592
C   2.3674689812  0.3521516863 -1.1839937097
N   0.2576593583 -0.6542154622 -0.4070943338
N  -2.0759377539 -1.1341613615 -0.1842263367
O  -1.8240167905  1.5647647806 -0.3871478735
H  -2.4981668110  0.9492722294 -0.7115696181
H  -0.0161081853 -0.4008131484 -1.3509156599
H  -0.7019240851 -1.0159295853  1.4073804717
H   1.0725385487  1.1868604075  0.2203493040
H  -2.4366114076 -1.9066962036  0.3564851312
H  -1.8267561743 -1.5021161931 -1.0928115264
H  -0.4597993383  1.5335315805  1.1008835877
H  -2.0376893051  0.9399012187  1.5874301589
H   2.8894196752  0.2461224768  1.5474060966
H   1.8231455741  0.6604105901 -2.0797499520
H   2.4641629203 -1.3986114256  1.0297309467
H   1.3640130058 -0.4691780127  2.0499465227
H   3.0652519030  1.1552282185 -0.9417203101
H   2.9390693742 -0.5476678155 -1.4127116437
22
Image 245  Energy = -383.6465906847
C  -0.9137659900 -0.5104137681  0.4606185429
C   1.4049620195  0.1739545911 -0.0211005256
C  -1.3093748606  0.9400529421  0.7695271224
C   2.0720570128 -0.3983979681  1.2218631330
C   2.3675485358  0.3519331897 -1.1840158589
N   0.2575881607 -0.6536982849 -0.4071591924
N  -2.0757767136 -1.1343527994 -0.1843304712
O  -1.8240755316  1.5648727566 -0.3870803156
H  -2.4982070546  0.9495202828 -0.7117922907
H  -0.0162976012 -0.3998007041 -1.3508173093
H  -0.7017706121 -1.0158543450  1.4073573835
H   1.0728166262  1.1872791696  0.2204304841
H  -2.4365687856 -1.9066924165  0.3565930916
H  -1.8262222646 -1.5027245213 -1.0926471063
H  -0.4603888181  1.5334705516  1.1014760465
H  -2.0384677279  0.9395334402  1.5872444876
H   2.8896761974  0.2460309840  1.5472739355
H   1.8233703491  0.6602471704 -2.0798385332
H   2.4641172847 -1.3985343955  1.0293884436
H   1.3642596439 -0.4691433016  2.0499816516
H   3.0658238388  1.1546454805 -0.9419670403
H   2.9386033102 -0.5482880518 -1.4125406848
22
Image 246  Energy = -383.6466210485
C  -0.9138003022 -0.5103327392  0.4606372473
C   1.4050053756  0.1742723475 -0.0210558960
C  -1.3097858375  0.9399784789  0.7696617151
C   2.0721503126 -0.3983145330  1.2217787105
C   2.3676276051  0.3517155279 -1.1840377384
N   0.2575169415 -0.6531828547 -0.4072247572
N  -2.0756154540 -1.1345432463 -0.1844347430
O  -1.8241339112  1.5649803285 -0.3870125016
H  -2.4982455315  0.9497663686 -0.7120143945
H  -0.0164870998 -0.3987907326 -1.3507195272
H  -0.7016163018 -1.0157797803  1.4073336763
H   1.0730929301  1.1876957080  0.2205110255
H  -2.4365273137 -1.9066867534  0.3567011166
H  -1.8256876585 -1.5033328339 -1.0924820560
H  -0.4609762769  1.5334103479  1.1020663974
H  -2.0392423133  0.9391670348  1.5870597120
H   2.8899311391  0.2459398321  1.5471412513
H   1.8235941394  0.6600853227 -2.0799264764
H   2.4640707433 -1.3984580000  1.0290476584
H   1.3645047954 -0.4691081423  2.0500166486
H   3.0663932575  1.1540640391 -0.9422115682
H   2.9381377805 -0.5489057181 -1.4123705067
22
Image 247  Energy = -383.6466512545
C  -0.9138339355 -0.5102519492  0.4606557298
C   1.4050482190  0.1745885978 -0.0210117972
C  -1.3101948096  0.9399043376  0.7697960129
C   2.0722425237 -0.3982316211  1.2216943578
C   2.3677059489  0.3514987617 -1.1840593923
N   0.2574456264 -0.6526691753 -0.4072910413
N  -2.0754540451 -1.1347328250 -0.1845392340
O  -1.8241919643  1.5650875085 -0.3869444571
H  -2.4982822652  0.9500105061 -0.7122359506
H  -0.0166766642 -0.3977832239 -1.3506223222
H  -0.7014611766 -1.0157058804  1.4073093591
H   1.0733675037  1.1881100090  0.2205909112
H  -2.4364869673 -1.9066791538  0.3568091665
H  -1.8251523938 -1.5039411124 -1.0923163061
H  -0.4615617329  1.5333509500  1.1026546579
H  -2.0400131233  0.9388019809  1.5868758692
H   2.8901844335  0.2458489674  1.5470080386
H   1.8238170131  0.6599250171 -2.0800136994
H   2.4640232659 -1.3983821674  1.0287086065
H   1.3647484473 -0.4690725301  2.0500515254
H   3.0669602252  1.1534839174 -0.9424539000
H   2.9376728905 -0.5495209122 -1.4122011417
22
Image 248  Energy = -383.6466812327
C  -0.9138669032 -0.5101714379  0.4606739179
C   1.4050905603  0.1749032721 -0.0209683322
C  -1.3106018270  0.9398305321  0.7699300215
C   2.0723335990 -0.3981491705  1.2216101623
C   2.3677836171  0.3512828399 -1.1840807771
N   0.2573742560 -0.6521572291 -0.4073579317
N  -2.0752924509 -1.1349214642 -0.1846439150
O  -1.8242496999  1.5651942982 -0.3868761950
H  -2.4983172715  0.9502527042 -0.7124569563
H  -0.0168663114 -0.3967781553 -1.3505257237
H  -0.7013052492 -1.0156326290  1.4072844301
H   1.0736403541  1.1885221479  0.2206701657
H  -2.4364477879 -1.9066696710  0.3569172799
H  -1.8246164785 -1.5045493784 -1.0921498968
H  -0.4621451587  1.5332923331  1.1032408430
H  -2.0407802080  0.9384382673  1.5866929703
H   2.8904361186  0.2457583929  1.5468743104
H   1.8240389543  0.6597662618 -2.0801002566
H   2.4639748905 -1.3983069677  1.0283712547
H   1.3649906139 -0.4690364678  2.0500862705
H   3.0675247805  1.1529051402 -0.9426940580
H   2.9372086212 -0.5501336170 -1.4120325910
22
Image 249  Energy = -383.6467110357
C  -0.9138992262 -0.5100911579  0.4606917607
C   1.4051323447  0.1752164171 -0.0209254005
C  -1.3110070187  0.9397570187  0.7700637363
C   2.0724235317 -0.3980671692  1.2215260973
C   2.3678607335  0.3510677356 -1.1841019555
N   0.2573028528 -0.6516469903 -0.4074255110
N  -2.0751306899 -1.1351092166 -0.1847488508
O  -1.8243070175  1.5653007850 -0.3868076591
H  -2.4983506280  0.9504929029 -0.7126774359
H  -0.0170560266 -0.3957755408 -1.3504296578
H  -0.7011485262 -1.0155600485  1.4072589712
H   1.0739115339  1.1889321069  0.2207487770
H  -2.4364097896 -1.9066583081  0.3570254574
H  -1.8240799386 -1.5051576080 -1.0919827586
H  -0.4627265590  1.5332345000  1.1038249579
H  -2.0415435411  0.9380758790  1.5865109802
H   2.8906861981  0.2456680934  1.5467400855
H   1.8242599625  0.6596090490 -2.0801861478
H   2.4639256228 -1.3982323962  1.0280356022
H   1.3652313224 -0.4689999491  2.0501208588
H   3.0680869303  1.1523276872 -0.9429320682
H   2.9367449478 -0.5507437884 -1.4118648478
22
Image 250  Energy = -383.6467406372
C  -0.9139309503 -0.5100111604  0.4607093911
C   1.4051736471  0.1755280256 -0.0208830226
C  -1.3114102603  0.9396838192  0.7701971480
C   2.0725123514 -0.3979856465  1.2214421100
C   2.3679372101  0.3508535237 -1.1841228977
N   0.2572314274 -0.6511384700 -0.4074937104
N  -2.0749687026 -1.1352960206 -0.1848540171
O  -1.8243640956  1.5654068231 -0.3867389210
H  -2.4983822390  0.9507312444 -0.7128973558
H  -0.0172458204 -0.3947753512 -1.3503341920
H  -0.7009910485 -1.0154880786  1.4072328948
H   1.0741810466  1.1893399387  0.2208267585
H  -2.4363729949 -1.9066450911  0.3571337194
H  -1.8235427869 -1.5057658276 -1.0918149336
H  -0.4633059433  1.5331774017  1.1044070133
H  -2.0423032069  0.9377147892  1.5863299189
H   2.8909347043  0.2455780741  1.5466053866
H   1.8244800588  0.6594533753 -2.0802713882
H   2.4638754579 -1.3981584258  1.0277016424
H   1.3654705390 -0.4689629791  2.0501553379
H   3.0686466898  1.1517515511 -0.9431679494
H   2.9362819359 -0.5513515138 -1.4116979415
22
Image 251  Energy = -383.6467700810
C  -0.9139620402 -0.5099314441  0.4607266960
C   1.4052144278  0.1758381689 -0.0208411876
C  -1.3118116419  0.9396109582  0.7703303231
C   2.0726000297 -0.3979046396  1.2213582570
C   2.3680130777  0.3506401965 -1.1841436390
N   0.2571599507 -0.6506316358 -0.4075625674
N  -2.0748065317 -1.1354819433 -0.1849593465
O  -1.8244208438  1.5655124974 -0.3866699506
H  -2.4984121876  0.9509676651 -0.7131167446
H  -0.0174356624 -0.3937775933 -1.3502392649
H  -0.7008328251 -1.0154167394  1.4072062745
H   1.0744489434  1.1897455993  0.2209040932
H  -2.4363373870 -1.9066299621  0.3572420187
H  -1.8230050317 -1.5063740460 -1.0916464213
H  -0.4638833549  1.5331209959  1.1049870042
H  -2.0430591837  0.9373549997  1.5861497505
H   2.8911816669  0.2454883418  1.5464702284
H   1.8246992857  0.6592992247 -2.0803559358
H   2.4638243860 -1.3980850276  1.0273693762
H   1.3657083169 -0.4689255589  2.0501896401
H   3.0692040532  1.1511767169 -0.9434017363
H   2.9358195717 -0.5519567727 -1.4115318762
22
Image 252  Energy = -383.6467993232
C  -0.9139924501 -0.5098519675  0.4607437561
C   1.4052547235  0.1761467914 -0.0207998631
C  -1.3122111216  0.9395383516  0.7704631221
C   2.0726866042 -0.3978240060  1.2212745222
C   2.3680884380  0.3504276647 -1.1841641829
N   0.2570884015 -0.6501264802 -0.4076320489
N  -2.0746442683 -1.1356670298 -0.1850648835
O  -1.8244772532  1.5656178192 -0.3866007143
H  -2.4984405119  0.9512021645 -0.7133356218
H  -0.0176255594 -0.3927822587 -1.3501448721
H  -0.7006738632 -1.0153460069  1.4071790940
H   1.0747152229  1.1901491924  0.2209808146
H  -2.4363029701 -1.9066129125  0.3573503565
H  -1.8224666863 -1.5069822665 -1.0914772206
H  -0.4644587561  1.5330652955  1.1055649540
H  -2.0438115750  0.9369964916  1.5859705418
H   2.8914270560  0.2453988465  1.5463346079
H   1.8249176043  0.6591466081 -2.0804398678
H   2.4637724653 -1.3980122980  1.0270387711
H   1.3659446194 -0.4688876796  2.0502238061
H   3.0697590662  1.1506032023 -0.9436334340
H   2.9353578327 -0.5525595202 -1.4113666460
22
Image 253  Energy = -383.6468283902
C  -0.9140223649 -0.5097727523  0.4607605697
C   1.4052945086  0.1764539565 -0.0207591141
C  -1.3126087373  0.9394660168  0.7705956724
C   2.0727721415 -0.3977438816  1.2211909146
C   2.3681631981  0.3502160072 -1.1841845243
N   0.2570168778 -0.6496229978 -0.4077021447
N  -2.0744817132 -1.1358511476 -0.1851707164
O  -1.8245333783  1.5657227853 -0.3865312886
H  -2.4984671972  0.9514347785 -0.7135539764
H  -0.0178155187 -0.3917893282 -1.3500510500
H  -0.7005141831 -1.0152758762  1.4071513545
H   1.0749799379  1.1905506769  0.2210568954
H  -2.4362698181 -1.9065940705  0.3574588114
H  -1.8219277930 -1.5075904793 -1.0913072679
H  -0.4650321778  1.5330102560  1.1061408708
H  -2.0445603401  0.9366392415  1.5857922353
H   2.8916709169  0.2453096192  1.5461985551
H   1.8251350608  0.6589955105 -2.0805231491
H   2.4637196390 -1.3979401371  1.0267098412
H   1.3661794530 -0.4688493567  2.0502578398
H   3.0703117446  1.1500310090 -0.9438630689
H   2.9348967624 -0.5531598277 -1.4112022683
22
Image 254  Energy = -383.6468572908
C  -0.9140516285 -0.5096938154  0.4607770588
C   1.4053338149  0.1767596486 -0.0207189152
C  -1.3130045848  0.9393940162  0.7707279520
C   2.0728566878 -0.3976642185  1.2211073838
C   2.3682374116  0.3500051875 -1.1842046681
N   0.2569453207 -0.6491211496 -0.4077728461
N  -2.0743191099 -1.1360344759 -0.1852766641
O  -1.8245892035  1.5658273569 -0.3864616131
H  -2.4984922556  0.9516655265 -0.7137718147
H  -0.0180055181 -0.3907988100 -1.3499577274
H  -0.7003537899 -1.0152063488  1.4071231096
H   1.0752430982  1.1909501047  0.2211323473
H  -2.4362378699 -1.9065732749  0.3575672857
H  -1.8213883162 -1.5081987158 -1.0911366715
H  -0.4656036051  1.5329558643  1.1067147635
H  -2.0453054942  0.9362832350  1.5856148015
H   2.8919132095  0.2452206157  1.5460620695
H   1.8253516512  0.6588459219 -2.0806057785
H   2.4636659131 -1.3978685428  1.0263825887
H   1.3664128204 -0.4688105863  2.0502917396
H   3.0708621112  1.1494601301 -0.9440906604
H   2.9344363561 -0.5537576677 -1.4110387493
22
Image 255  Energy = -383.6468859898
C  -0.9140803235 -0.5096151555  0.4607933414
C   1.4053727074  0.1770639110 -0.0206792488
C  -1.3133985162  0.9393222930  0.7708599001
C   2.0729400917 -0.3975850246  1.2210239875
C   2.3683110086  0.3497952106 -1.1842246141
N   0.2568737111 -0.6486209357 -0.4078441570
N  -2.0741563009 -1.1362169350 -0.1853828885
O  -1.8246447157  1.5659315895 -0.3863916864
H  -2.4985157454  0.9518943868 -0.7139891602
H  -0.0181955627 -0.3898106896 -1.3498649456
H  -0.7001927132 -1.0151373927  1.4070943244
H   1.0755047304  1.1913474797  0.2212071758
H  -2.4362071743 -1.9065506216  0.3576758375
H  -1.8208483163 -1.5088069555 -1.0909653313
H  -0.4661730958  1.5329020777  1.1072866274
H  -2.0460471172  0.9359284587  1.5854382906
H   2.8921540389  0.2451318802  1.5459251856
H   1.8255673935  0.6586978511 -2.0806878007
H   2.4636113278 -1.3977975546  1.0260569831
H   1.3666447470 -0.4687713692  2.0503254945
H   3.0714101993  1.1488905847 -0.9443162251
H   2.9339766442 -0.5543530871 -1.4108760990
22
Image 256  Energy = -383.6469144961
C  -0.9141084009 -0.5095367598  0.4608093850
C   1.4054111012  0.1773666831 -0.0206400918
C  -1.3137907394  0.9392507932  0.7709916016
C   2.0730224382 -0.3975062867  1.2209406753
C   2.3683841265  0.3495860699 -1.1842444199
N   0.2568021078 -0.6481223494 -0.4079160317
N  -2.0739933819 -1.1363985476 -0.1854892558
O  -1.8247000079  1.5660354287 -0.3863215829
H  -2.4985375958  0.9521214397 -0.7142059766
H  -0.0183856528 -0.3888249558 -1.3497727008
H  -0.7000309701 -1.0150690006  1.4070649933
H   1.0757648479  1.1917428613  0.2212813975
H  -2.4361777272 -1.9065260727  0.3577844433
H  -1.8203077707 -1.5094152402 -1.0907933467
H  -0.4667405674  1.5328489233  1.1078565042
H  -2.0467851710  0.9355749073  1.5852626442
H   2.8923933816  0.2450433911  1.5457879198
H   1.8257822951  0.6585512821 -2.0807691877
H   2.4635558616 -1.3977271496  1.0257330286
H   1.3668752395 -0.4687317059  2.0503591010
H   3.0719559961  1.1483223321 -0.9445397923
H   2.9335176070 -0.5549460419 -1.4107143158
