9
Scanning combination 1/73: [180.0000]  Energy = -155.1342600979
C  -0.0436346278 -0.0042019639  0.0000000229
C   1.4831492436 -0.0410229210 -0.0000000015
O   1.9846741209  1.2933693741  0.0000000358
H   2.9406757812  1.2472814666  0.0000000198
H  -0.3921267333  1.0250775239 -0.0000000169
H  -0.4482019204 -0.5031626449  0.8780599659
H  -0.4482019642 -0.5031626432 -0.8780600303
H   1.8368331147 -0.5720890900  0.8861887783
H   1.8368330164 -0.5720890899 -0.8861887270
9
Scanning combination 2/73: [185.0000]  Energy = -155.1342586057
C  -0.0438761226 -0.0045649167 -0.0010150571
C   1.4833297898 -0.0416890182  0.0013953630
O   1.9856483187  1.2922848247  0.0058889699
H   2.9385631103  1.2488582139 -0.0720190945
H  -0.3910149216  1.0250706291 -0.0003358400
H  -0.4492330095 -0.5019438530  0.8770225593
H  -0.4498864486 -0.5030721447 -0.8797153001
H   1.8385171234 -0.5731558190  0.8864366023
H   1.8379517893 -0.5717877488 -0.8837237620
9
Scanning combination 3/73: [190.0000]  Energy = -155.1342172862
C  -0.0440067233 -0.0048604580 -0.0022522976
C   1.4835539289 -0.0422122116  0.0031824646
O   1.9870181106  1.2914969663  0.0113159385
H   2.9305777260  1.2524246028 -0.1434431812
H  -0.3899996988  1.0251534135 -0.0007951891
H  -0.4502733272 -0.5009858745  0.8761016321
H  -0.4511739413 -0.5028053393 -0.8809704026
H   1.8399409792 -0.5743600667  0.8869758870
H   1.8390603796 -0.5716327913 -0.8819311892
9
Scanning combination 4/73: [195.0000]  Energy = -155.1341398322
C  -0.0441067241 -0.0050749817 -0.0033361453
C   1.4838794489 -0.0426995330  0.0049048288
O   1.9887495153  1.2906629167  0.0165965957
H   2.9169106427  1.2580039502 -0.2139776394
H  -0.3890611247  1.0252902018 -0.0013573434
H  -0.4513160261 -0.5001453185  0.8751383686
H  -0.4522180240 -0.5025060216 -0.8821360740
H   1.8412156958 -0.5755609942  0.8876626697
H   1.8401196767 -0.5713831410 -0.8802433907
9
Scanning combination 5/73: [200.0000]  Energy = -155.1340292994
C  -0.0442161710 -0.0052382317 -0.0043209220
C   1.4841857967 -0.0431212828  0.0065729084
O   1.9910024789  1.2897153400  0.0216796959
H   2.8976477991  1.2656053558 -0.2830250893
H  -0.3882164675  1.0254585994 -0.0019786070
H  -0.4523799482 -0.4994135054  0.8741749818
H  -0.4530457528 -0.5021993646 -0.8832300828
H   1.8423741528 -0.5766749809  0.8883927480
H   1.8411623365 -0.5710578954 -0.8786287186
9
Scanning combination 6/73: [205.0000]  Energy = -155.1338893291
C  -0.0443835338 -0.0053804226 -0.0051995386
C   1.4844764613 -0.0434706203  0.0081381492
O   1.9937780285  1.2886288831  0.0265766203
H   2.8730213947  1.2752308829 -0.3500605676
H  -0.3874798019  1.0256506425 -0.0026343152
H  -0.4535008466 -0.4987714628  0.8732222097
H  -0.4537006159 -0.5018974502 -0.8842780489
H   1.8434367112 -0.5776735670  0.8891259895
H   1.8422122414 -0.5706885985 -0.8770489562
9
Scanning combination 7/73: [210.0000]  Energy = -155.1337245094
C  -0.0446238338 -0.0055061592 -0.0059891697
C   1.4847400170 -0.0437404426  0.0095845796
O   1.9971182670  1.2873945440  0.0312587136
H   2.8432839523  1.2868819592 -0.4145539718
H  -0.3868803925  1.0258462661 -0.0032981911
H  -0.4546993135 -0.4982171964  0.8722998973
H  -0.4542142979 -0.5016121864 -0.8852857292
H   1.8443912659 -0.5785341554  0.8898466579
H   1.8432759815 -0.5703235359 -0.8755134859
9
Scanning combination 8/73: [215.0000]  Energy = -155.1335404518
C  -0.0449446872 -0.0056311277 -0.0066832416
C   1.4849794640 -0.0439251776  0.0108799150
O   2.0010509930  1.2859947277  0.0357075435
H   2.8087349141  1.3005522422 -0.4760147951
H  -0.3864521074  1.0260344022 -0.0039477254
H  -0.4559867274 -0.4977445201  0.8714094849
H  -0.4546154295 -0.5013533312 -0.8862580105
H   1.8452148116 -0.5792371982  0.8905519194
H   1.8443529736 -0.5700076350 -0.8740208303
9
Scanning combination 9/73: [220.0000]  Energy = -155.1333437357
C  -0.0453569400 -0.0057457593 -0.0072889918
C   1.4852106421 -0.0440278238  0.0119948819
O   2.0056133892  1.2844197100  0.0398824686
H   2.7696850792  1.3162133546 -0.5339592899
H  -0.3862258808  1.0261894303 -0.0045638428
H  -0.4573694509 -0.4973571302  0.8705584668
H  -0.4549271620 -0.5011231080 -0.8871874864
H   1.8458807843 -0.5797588273  0.8912450021
H   1.8454421963 -0.5697866934 -0.8725749885
9
Scanning combination 10/73: [225.0000]  Energy = -155.1331418604
C  -0.0458449465 -0.0058588100 -0.0077937192
C   1.4854265166 -0.0440417533  0.0129023933
O   2.0108091364  1.2826535690  0.0437640951
H   2.7264921081  1.3338056627 -0.5879482982
H  -0.3862359787  1.0263057307 -0.0051302477
H  -0.4588408962 -0.4970535316  0.8697388717
H  -0.4551707677 -0.5009255494 -0.8880726581
H   1.8463691097 -0.5800662985  0.8919274540
H   1.8465467246 -0.5697049973 -0.8711797429
9
Scanning combination 11/73: [230.0000]  Energy = -155.1329486231
C  -0.0464170210 -0.0059992339 -0.0076894311
C   1.4858850348 -0.0440872056  0.0132345203
O   2.0169811116  1.2806054352  0.0473073492
H   2.6791610183  1.3534505577 -0.6375507480
H  -0.3866461793  1.0263837477 -0.0058069006
H  -0.4614204222 -0.4970351787  0.8691761426
H  -0.4553035993 -0.5003542701 -0.8887113071
H   1.8466932743 -0.5799190476  0.8923041807
H   1.8485348765 -0.5701979354 -0.8699522503
9
Scanning combination 12/73: [235.0000]  Energy = -155.1327667377
C  -0.0470472009 -0.0060895695 -0.0077776871
C   1.4861987699 -0.0440209099  0.0134658511
O   2.0235884351  1.2783344864  0.0505040259
H   2.6287391730  1.3748345452 -0.6823704121
H  -0.3873487561  1.0263265787 -0.0062580944
H  -0.4637168585 -0.4970374171  0.8685195190
H  -0.4554379256 -0.4999173240 -0.8892639081
H   1.8467986855 -0.5794706990  0.8927557023
H   1.8502940524 -0.5708437028 -0.8687638825
9
Scanning combination 13/73: [240.0000]  Energy = -155.1326079845
C  -0.0476657100 -0.0061008662 -0.0079348590
C   1.4864835115 -0.0438413853  0.0135012323
O   2.0307066778  1.2758660088  0.0532860796
H   2.5753089971  1.3977028601 -0.7219470974
H  -0.3882767315  1.0262307159 -0.0065688942
H  -0.4657214697 -0.4971009533  0.8677950752
H  -0.4555979917 -0.4996197721 -0.8898111374
H   1.8466786489 -0.5786703265  0.8932589704
H   1.8518357369 -0.5716834863 -0.8675938937
9
Scanning combination 14/73: [245.0000]  Energy = -155.1324862909
C  -0.0482293213 -0.0060120638 -0.0081214047
C   1.4867593899 -0.0435936027  0.0133116674
O   2.0381944566  1.2731951173  0.0556951112
H   2.5191317703  1.4218405699 -0.7559839699
H  -0.3893100971  1.0261603514 -0.0068288039
H  -0.4674707217 -0.4972352389  0.8670189694
H  -0.4557560464 -0.4993873365 -0.8903202824
H   1.8463761998 -0.5774935251  0.8937843709
H   1.8532508204 -0.5727788120 -0.8664645037
9
Scanning combination 15/73: [250.0000]  Energy = -155.1324166003
C  -0.0486701085 -0.0057880509 -0.0083510967
C   1.4870461447 -0.0433524041  0.0129460098
O   2.0458290702  1.2703210897  0.0577330159
H   2.4604654274  1.4470299718 -0.7842244953
H  -0.3902877800  1.0261995901 -0.0071178003
H  -0.4689507644 -0.4974046716  0.8661913706
H  -0.4558878790 -0.4991652710 -0.8907795671
H   1.8459581801 -0.5759894569  0.8943276169
H   1.8545880504 -0.5741596001 -0.8653848072
9
Scanning combination 16/73: [255.0000]  Energy = -155.1324129923
C  -0.0489157696 -0.0053942058 -0.0086432308
C   1.4873792535 -0.0432120657  0.0124560049
O   2.0533698602  1.2672409389  0.0593900605
H   2.3995627949  1.4730528550 -0.8064731588
H  -0.3910660744  1.0264416099 -0.0075027791
H  -0.4701379518 -0.4975331208  0.8652947031
H  -0.4559576311 -0.4989014878 -0.8911939491
H   1.8455092059 -0.5742550624  0.8949118255
H   1.8558822552 -0.5758501525 -0.8643456053
9
Scanning combination 17/73: [260.0000]  Energy = -155.1324860595
C  -0.0488967713 -0.0047916096 -0.0090099101
C   1.4878066086 -0.0432619941  0.0118810207
O   2.0605982834  1.2639539627  0.0606499507
H   2.3366989551  1.4996926039 -0.8225975957
H  -0.3915679183  1.0269672314 -0.0080241904
H  -0.4710124944 -0.4975220900  0.8643057352
H  -0.4559148622 -0.4985413984 -0.8915857280
H   1.8451144511 -0.5724071477  0.8955656347
H   1.8571676478 -0.5778983185 -0.8633229759
9
Scanning combination 18/73: [265.0000]  Energy = -155.1326388544
C  -0.0485549617 -0.0039430071 -0.0094628423
C   1.4883828745 -0.0435773063  0.0112524325
O   2.0673386847  1.2604716065  0.0614556572
H   2.2722034581  1.5267370910 -0.8325059008
H  -0.3917910069  1.0278197857 -0.0086836011
H  -0.4715715829 -0.4972666845  0.8632013738
H  -0.4557001856 -0.4980278123 -0.8919817448
H   1.8448448468 -0.5705612118  0.8963100279
H   1.8584746556 -0.5803686188 -0.8622799906
9
Scanning combination 19/73: [270.0000]  Energy = -155.1328644440
C  -0.0478710947 -0.0028464689 -0.0100152833
C   1.4891350469 -0.0441813645  0.0106020935
O   2.0734695328  1.2568262648  0.0617461374
H   2.2065084997  1.5539919012 -0.8361849091
H  -0.3917686442  1.0289835762 -0.0094457945
H  -0.4718325595 -0.4966758378  0.8619777148
H  -0.4552652304 -0.4973055679 -0.8924187558
H   1.8447485800 -0.5688177353  0.8971486131
H   1.8598245093 -0.5833326022 -0.8611711830
9
Scanning combination 20/73: [275.0000]  Energy = -155.1331438709
C  -0.0468924472 -0.0015694957 -0.0106848491
C   1.4900453482 -0.0450322332  0.0099949921
O   2.0789630247  1.2531109288  0.0614124131
H   2.1402229850  1.5812903802 -0.8336905696
H  -0.3915284079  1.0303564319 -0.0102446446
H  -0.4718598167 -0.4957133759  0.8606732195
H  -0.4546152292 -0.4963496287 -0.8929468343
H   1.8448363768 -0.5672544035  0.8980635589
H   1.8612009016 -0.5868013952 -0.8599460317
9
Scanning combination 21/73: [280.0000]  Energy = -155.1334468081
C  -0.0457480579 -0.0002738003 -0.0114790232
C   1.4910353893 -0.0460052412  0.0095183946
O   2.0839316893  1.2494614863  0.0603479889
H   2.0741669301  1.6084921082 -0.8251939313
H  -0.3910960933  1.0317546690 -0.0109879412
H  -0.4717761533 -0.4944276960  0.8593596403
H  -0.4538267700 -0.4951902790 -0.8936170713
H   1.8450741085 -0.5658965729  0.8990181261
H   1.8625451302 -0.5906710290 -0.8585587541
9
Scanning combination 22/73: [285.0000]  Energy = -155.1337359886
C  -0.0446002988  0.0008679766 -0.0123894513
C   1.4920084987 -0.0469593988  0.0092550692
O   2.0886072341  1.2460201398  0.0584401510
H   2.0092893994  1.6354222663 -0.8109294189
H  -0.3905714826  1.0329844688 -0.0115813297
H  -0.4717238409 -0.4929678328  0.8581161928
H  -0.4530224106 -0.4939183028 -0.8944621152
H   1.8453927793 -0.5647016113  0.8999891736
H   1.8637722361 -0.5946948604 -0.8569918656
9
Scanning combination 23/73: [290.0000]  Energy = -155.1339749314
C  -0.0435565025  0.0017670457 -0.0133720972
C   1.4929049315 -0.0477839138  0.0092253321
O   2.0932258834  1.2428562422  0.0556563852
H   1.9464133272  1.6618498242 -0.7911732818
H  -0.3901473921  1.0339356514 -0.0119641027
H  -0.4717888917 -0.4915019548  0.8569668443
H  -0.4522791996 -0.4926242828 -0.8954760375
H   1.8457202075 -0.5635924210  0.9009899224
H   1.8648206583 -0.5986251050 -0.8552697707
9
Scanning combination 24/73: [295.0000]  Energy = -155.1341369599
C  -0.0426496692  0.0024525452 -0.0143659069
C   1.4937315378 -0.0484689201  0.0093829415
O   2.0978857658  1.2399855761  0.0520104471
H   1.8860665586  1.6875046834 -0.7661638030
H  -0.3899758014  1.0346135382 -0.0121439358
H  -0.4719760031 -0.4901443581  0.8558903847
H  -0.4515857661 -0.4913418134 -0.8966236812
H   1.8460099473 -0.5625132774  0.9020620037
H   1.8656750852 -0.6023154993 -0.8534315589
9
Scanning combination 25/73: [300.0000]  Energy = -155.1342103878
C  -0.0418499419  0.0029916447 -0.0153059904
C   1.4945257071 -0.0490501698  0.0096573350
O   2.1025304617  1.2374073049  0.0475702206
H   1.8284952767  1.7121317244 -0.7361295768
H  -0.3900240431  1.0351056699 -0.0121971199
H  -0.4722552921 -0.4889398925  0.8548565591
H  -0.4508855372 -0.4900482242 -0.8978643076
H   1.8462394618 -0.5614626575  0.9032484675
H   1.8663553170 -0.6057447681 -0.8515167521
9
Scanning combination 26/73: [305.0000]  Energy = -155.1341989348
C  -0.0411095130  0.0034508927 -0.0161499893
C   1.4953361343 -0.0495945773  0.0100164881
O   2.1069974403  1.2351451810  0.0424037156
H   1.7738316413  1.7354962157 -0.7013052120
H  -0.3901134718  1.0355076566 -0.0122255107
H  -0.4726022698 -0.4878836685  0.8538474740
H  -0.4501294860 -0.4886983420 -0.8991563151
H   1.8464018365 -0.5604827559  0.9045761856
H   1.8668945188 -0.6089293660 -0.8495660920
9
Scanning combination 27/73: [310.0000]  Energy = -155.1341159122
C  -0.0403748848  0.0038732147 -0.0168830308
C   1.4961885756 -0.0501550847  0.0104400982
O   2.1111107708  1.2331996788  0.0365931757
H   1.7221888839  1.7574134367 -0.6619687168
H  -0.3900492171  1.0359030666 -0.0123107564
H  -0.4729988866 -0.4869440756  0.8528608874
H  -0.4492846595 -0.4872451918 -0.9004681685
H   1.8465083670 -0.5596214628  0.9060619656
H   1.8673326471 -0.6119066143 -0.8476097174
9
Scanning combination 28/73: [315.0000]  Energy = -155.1339784057
C  -0.0396065495  0.0042921482 -0.0175072462
C   1.4971014042 -0.0507792728  0.0109234319
O   2.1147190880  1.2315665330  0.0301945589
H   1.6737602823  1.7777560744 -0.6184210141
H  -0.3897308422  1.0363361215 -0.0124868732
H  -0.4734310592 -0.4860840906  0.8518936939
H  -0.4483442166 -0.4856583151 -0.9017777447
H   1.8465792409 -0.5589066589  0.9077079910
H   1.8677108511 -0.6147239696 -0.8456646195
9
Scanning combination 29/73: [320.0000]  Energy = -155.1338022594
C  -0.0387844295  0.0047238246 -0.0180360905
C   1.4980651687 -0.0514863204  0.0114591671
O   2.1177278344  1.2302118415  0.0232552779
H   1.6288414716  1.7964783264 -0.5709986597
H  -0.3891975560  1.0368211369 -0.0127387756
H  -0.4738806326 -0.4852842651  0.8509461005
H  -0.4473127687 -0.4839272511 -0.9030718186
H   1.8466370482 -0.5583325747  0.9095018955
H   1.8680761538 -0.6174489152 -0.8437337599
9
Scanning combination 30/73: [325.0000]  Energy = -155.1336000371
C  -0.0379246124  0.0051761261 -0.0184897604
C   1.4990496345 -0.0522623348  0.0120382966
O   2.1201139823  1.2290914712  0.0158223784
H   1.5878268732  1.8136005087 -0.5200634711
H  -0.3885929723  1.0373354400 -0.0130208397
H  -0.4743273253 -0.4845604092  0.8500155472
H  -0.4462081847 -0.4820760291 -0.9043351423
H   1.8466915887 -0.5578558022  0.9114100734
H   1.8684672854 -0.6201489303 -0.8418087295
9
Scanning combination 31/73: [330.0000]  Energy = -155.1333823261
C  -0.0370683742  0.0056378226 -0.0188810500
C   1.5000063729 -0.0530547997  0.0126410660
O   2.1219170296  1.2281677777  0.0079468500
H   1.5511523793  1.8291674451 -0.4659857854
H  -0.3880888842  1.0378360912 -0.0132906551
H  -0.4747545500 -0.4839598034  0.8490963826
H  -0.4450599529 -0.4801604063 -0.9055494675
H   1.8467332130 -0.5574126273  0.9133890351
H   1.8689046213 -0.6228656369 -0.8398741757
9
Scanning combination 32/73: [335.0000]  Energy = -155.1331605030
C  -0.0362671855  0.0060873447 -0.0192063041
C   1.5008844696 -0.0537905430  0.0132304485
O   2.1232084659  1.2274202191 -0.0003141361
H   1.5192129292  1.8431969360 -0.4091274997
H  -0.3878054439  1.0382767343 -0.0135298125
H  -0.4751583037 -0.4835398689  0.8481852690
H  -0.4439027343 -0.4782530890 -0.9067018129
H   1.8467341997 -0.5569306471  0.9153870190
H   1.8693949484 -0.6256063048 -0.8379068089
9
Scanning combination 33/73: [340.0000]  Energy = -155.1329480765
C  -0.0355649590  0.0065001676 -0.0194565425
C   1.5016417744 -0.0544071145  0.0137661033
O   2.1240532382  1.2268345210 -0.0088939922
H   1.4923094859  1.8556647019 -0.3498531141
H  -0.3877861387  1.0386206708 -0.0137469319
H  -0.4755441272 -0.4833437523  0.8472870671
H  -0.4427660366 -0.4764165450 -0.9077872744
H   1.8466652378 -0.5563481280  0.9173662442
H   1.8699386112 -0.6283418531 -0.8358907796
9
Scanning combination 34/73: [345.0000]  Energy = -155.1327599112
C  -0.0349939673  0.0068513535 -0.0196283362
C   1.5022480581 -0.0548684124  0.0142301498
O   2.1244906730  1.2264120842 -0.0177167477
H   1.4706589486  1.8664858078 -0.2885386348
H  -0.3880122412  1.0388435459 -0.0139665242
H  -0.4759223142 -0.4833886587  0.8464116839
H  -0.4416759887 -0.4746981399 -0.9088065771
H   1.8465032197 -0.5556145323  0.9192933350
H   1.8705326551 -0.6310061547 -0.8338217177
9
Scanning combination 35/73: [350.0000]  Energy = -155.1326105626
C  -0.0345664017  0.0071189003 -0.0197279475
C   1.5026811436 -0.0551585973  0.0146190226
O   2.1245406367  1.2261373960 -0.0266974949
H   1.4543766824  1.8755474826 -0.2255816867
H  -0.3884201382  1.0389437785 -0.0142179799
H  -0.4763058704 -0.4836675570  0.8455733567
H  -0.4406509221 -0.4731266216 -0.9097661128
H   1.8462412411 -0.5546946287  0.9211528574
H   1.8711759098 -0.6335156341 -0.8317068832
9
Scanning combination 36/73: [355.0000]  Energy = -155.1325124262
C  -0.0342853446  0.0072889002 -0.0197711823
C   1.5029311825 -0.0552827692  0.0149543803
O   2.1242040041  1.2260035433 -0.0357485868
H   1.4435005611  1.8826958391 -0.1613975310
H  -0.3889085859  1.0389371771 -0.0145266610
H  -0.4767058039 -0.4841524004  0.8447840484
H  -0.4397068096 -0.4717226657 -0.9106770970
H   1.8458837986 -0.5535618200  0.9229405473
H   1.8718617848 -0.6357743275 -0.8295670668
9
Scanning combination 37/73: [360.0000]  Energy = -155.1324742501
C  -0.0341473810  0.0073532799 -0.0197798510
C   1.5030000727 -0.0552593072  0.0152619418
O   2.1234656856  1.2260054917 -0.0447899852
H   1.4379962647  1.8877685235 -0.0964113634
H  -0.3893570007  1.0388586976 -0.0149076372
H  -0.4771313669 -0.4848031612  0.8440484800
H  -0.4388523147 -0.4704934701 -0.9115500197
H   1.8454495600 -0.5521985544  0.9246634096
H   1.8725827377 -0.6377028127 -0.8274213382
9
Scanning combination 38/73: [365.0000]  Energy = -155.1325001529
C  -0.0341368913  0.0073170691 -0.0197717048
C   1.5028978705 -0.0551107732  0.0155598690
O   2.1223013916  1.2261340429 -0.0537567929
H   1.4377771980  1.8906307309 -0.0310489042
H  -0.3896428067  1.0387446061 -0.0153605726
H  -0.4775955155 -0.4855785302  0.8433654787
H  -0.4380902264 -0.4694350918 -0.9123979663
H   1.8449625355 -0.5505896331  0.9263396685
H   1.8733348793 -0.6392604254 -0.8252884517
9
Scanning combination 39/73: [370.0000]  Energy = -155.1325893927
C  -0.0342387673  0.0071789710 -0.0197668233
C   1.5026384220 -0.0548604305  0.0158643390
O   2.1206756650  1.2263978659 -0.0625937978
H   1.4427490085  1.8911836054  0.0342604044
H  -0.3896624908  1.0386271348 -0.0158688107
H  -0.4781115776 -0.4864403051  0.8427278963
H  -0.4374248792 -0.4685336191 -0.9132350733
H   1.8444541028 -0.5487264554  0.9279927954
H   1.8741172156 -0.6404446255 -0.8231827300
9
Scanning combination 40/73: [375.0000]  Energy = -155.1327362961
C  -0.0344380706  0.0069379246 -0.0197807109
C   1.5022339721 -0.0545258041  0.0161804928
O   2.1185519561  1.2268011195 -0.0712539171
H   1.4528149491  1.8893911395  0.0990891680
H  -0.3893456104  1.0385224087 -0.0164033215
H  -0.4786894924 -0.4873589488  0.8421209827
H  -0.4368539052 -0.4677648800 -0.9140743164
H   1.8439564845 -0.5466039370  0.9296399309
H   1.8749308581 -0.6412937225 -0.8211052154
9
Scanning combination 41/73: [380.0000]  Energy = -155.1329304877
C  -0.0347230581  0.0065918123 -0.0198324165
C   1.5016965261 -0.0541197527  0.0165191187
O   2.1159010373  1.2273597094 -0.0796864428
H   1.4678993890  1.8852804540  0.1629979930
H  -0.3886607723  1.0384322174 -0.0169265567
H  -0.4793421731 -0.4883226315  0.8415285525
H  -0.4363792417 -0.4671090537 -0.9149298447
H   1.8435015282 -0.5442356736  0.9312955699
H   1.8757743582 -0.6418636554 -0.8190538413
9
Scanning combination 42/73: [385.0000]  Energy = -155.1331577650
C  -0.0350832441  0.0061416369 -0.0199391646
C   1.5010374545 -0.0536492491  0.0168974702
O   2.1127076034  1.2280922385 -0.0878340573
H   1.4879389549  1.8789382628  0.2255374110
H  -0.3876226144  1.0383444797 -0.0173988407
H  -0.4800775598 -0.4893315245  0.8409271935
H  -0.4360011319 -0.4665516184 -0.9158134037
H   1.8431157296 -0.5416599992  0.9329672847
H   1.8766417405 -0.6422186697 -0.8170224755
9
Scanning combination 43/73: [390.0000]  Energy = -155.1334008529
C  -0.0355153929  0.0055916311 -0.0201171013
C   1.5002719991 -0.0531210406  0.0173382911
O   2.1089793794  1.2290130448 -0.0956305251
H   1.5128780638  1.8704981922  0.2862527432
H  -0.3862930720  1.0382456071 -0.0177876120
H  -0.4808974650 -0.4904007168  0.8402885561
H  -0.4357135028 -0.4660900884 -0.9167325729
H   1.8428195014 -0.5389352985  0.9346584232
H   1.8775143756 -0.6424122968 -0.8150038298
9
Scanning combination 44/73: [395.0000]  Energy = -155.1336412055
C  -0.0360109738  0.0049609368 -0.0203750276
C   1.4994231386 -0.0525466595  0.0178646572
O   2.1047438459  1.2301381200 -0.1030013909
H   1.5426593557  1.8601242156  0.3446917999
H  -0.3847820010  1.0381193325 -0.0180723302
H  -0.4818006277 -0.4915520701  0.8395798914
H  -0.4355031420 -0.4657354423 -0.9176865175
H   1.8426170825 -0.5361400806  0.9363704782
H   1.8783688595 -0.6424878597 -0.8129986055
9
Scanning combination 45/73: [400.0000]  Energy = -155.1338605667
C  -0.0365659938  0.0042725272 -0.0207097743
C   1.4985125064 -0.0519475623  0.0184867423
O   2.1000490286  1.2314754286 -0.1098653134
H   1.5772183667  1.8479790430  0.4004199502
H  -0.3832431436  1.0379484507 -0.0182513988
H  -0.4827787665 -0.4928025886  0.8387737999
H  -0.4353408139 -0.4655045547 -0.9186706589
H   1.8424966175 -0.5333431669  0.9381008008
H   1.8791822709 -0.6424710424 -0.8110151378
9
Scanning combination 46/73: [405.0000]  Energy = -155.1340431598
C  -0.0371754747  0.0035575296 -0.0211038381
C   1.4975615445 -0.0513461114  0.0191892890
O   2.0949623886  1.2330240505 -0.1161410541
H   1.6164655627  1.8342102949  0.4530365432
H  -0.3818503338  1.0377126344 -0.0183433283
H  -0.4838250892 -0.4941649393  0.8378553666
H  -0.4351907798 -0.4654183975 -0.9196807513
H   1.8424294208 -0.5305861664  0.9398467055
H   1.8799385553 -0.6423854451 -0.8090732414
9
Scanning combination 47/73: [410.0000]  Energy = -155.1341773781
C  -0.0378418690  0.0028386524 -0.0215348466
C   1.4965850735 -0.0507660945  0.0199415881
O   2.0895620387  1.2347926459 -0.1217426952
H   1.6602659348  1.8189168145  0.5021609781
H  -0.3807574519  1.0373905425 -0.0183761214
H  -0.4849278985 -0.4956359554  0.8368194494
H  -0.4350166530 -0.4654936036 -0.9207117015
H   1.8423733114 -0.5278743239  0.9416018572
H   1.8806286026 -0.6422523165 -0.8071989024
9
Scanning combination 48/73: [415.0000]  Energy = -155.1342550914
C  -0.0385704102  0.0021296459 -0.0219876726
C   1.4955907820 -0.0502219236  0.0206976790
O   2.0839247190  1.2367951891 -0.1265962545
H   1.7083875707  1.8021471759  0.5474346768
H  -0.3800315319  1.0369720002 -0.0183690906
H  -0.4860763662 -0.4972046253  0.8356780872
H  -0.4347912057 -0.4657375171 -0.9217650181
H   1.8422808731 -0.5251737084  0.9433615102
H   1.8812489539 -0.6421067826 -0.8054192537
9
Scanning combination 49/73: [420.0000]  Energy = -155.1342695364
C  -0.0393611070  0.0014326398 -0.0224637636
C   1.4945894173 -0.0497200883  0.0214288984
O   2.0781151116  1.2390534192 -0.1306548210
H   1.7604503481  1.7839036089  0.5885040645
H  -0.3796114724  1.0364688681 -0.0183121886
H  -0.4872494748 -0.4988445658  0.8344478548
H  -0.4345008252 -0.4661424596 -0.9228444199
H   1.8421039775 -0.5224380476  0.9451155057
H   1.8817936226 -0.6419965604 -0.8037548660
9
Scanning combination 50/73: [425.0000]  Energy = -155.1342129136
C  -0.0401987031  0.0007348893 -0.0229867514
C   1.4935991819 -0.0492674209  0.0221258833
O   2.0721675694  1.2415925001 -0.1339025215
H   1.8159334275  1.7641742703  0.6250221848
H  -0.3793191299  1.0359212615 -0.0181647515
H  -0.4884178198 -0.5005177534  0.8331494765
H  -0.4341491736 -0.4666812103 -0.9239565013
H   1.8418109409 -0.5196305989  0.9468593075
H   1.8822518576 -0.6419805696 -0.8022182773
9
Scanning combination 51/73: [430.0000]  Energy = -155.1340782238
C  -0.0410601735  0.0000073431 -0.0235708098
C   1.4926316594 -0.0488693788  0.0227700415
O   2.0660881400  1.2444170246 -0.1363468030
H   1.8742840754  1.7429858483  0.6566694184
H  -0.3789564199  1.0353731723 -0.0178855532
H  -0.4895545298 -0.5021944537  0.8318049062
H  -0.4337484374 -0.4673061560 -0.9251144109
H   1.8413874712 -0.5167246207  0.9485908148
H   1.8826203313 -0.6421106447 -0.8007996276
9
Scanning combination 52/73: [435.0000]  Energy = -155.1338661709
C  -0.0419407094 -0.0007897525 -0.0242010544
C   1.4916813802 -0.0485164621  0.0233184551
O   2.0599039437  1.2475067244 -0.1379819214
H   1.9350596251  1.7204497681  0.6831642806
H  -0.3784296852  1.0348287288 -0.0174680347
H  -0.4906591382 -0.5038783374  0.8304354836
H  -0.4333191128 -0.4679674658 -0.9263386043
H   1.8408265428 -0.5136909650  0.9503072375
H   1.8829086825 -0.6424169999 -0.7994756356
9
Scanning combination 53/73: [440.0000]  Energy = -155.1335920886
C  -0.0428612428 -0.0017045785 -0.0248479135
C   1.4907265808 -0.0481639751  0.0237244809
O   2.0537129221  1.2508152442 -0.1387662704
H   1.9979594735  1.6967688612  0.7042579786
H  -0.3777881269  1.0342306455 -0.0169497065
H  -0.4917653712 -0.5056099335  0.8290636185
H  -0.4328914322 -0.4686257251 -0.9276470170
H   1.8401098578 -0.5104972225  0.9519879649
H   1.8831290927 -0.6429009647 -0.7982191371
9
Scanning combination 54/73: [445.0000]  Energy = -155.1332859603
C  -0.0438560105 -0.0027752043 -0.0254795326
C   1.4897453929 -0.0477339366  0.0239575577
O   2.0476806624  1.2542795938 -0.1386571118
H   2.0627384001  1.6722020587  0.7197383535
H  -0.3771492713  1.0334784714 -0.0163896323
H  -0.4929312650 -0.5074534512  0.8277076931
H  -0.4325112066 -0.4692610267 -0.9290506622
H   1.8391963551 -0.5071254951  0.9535976908
H   1.8832865450 -0.6435329208 -0.7969985460
9
Scanning combination 55/73: [450.0000]  Energy = -155.1330479278
C  -0.0479586934 -0.0064459100 -0.0252431389
C   1.4862681511 -0.0435622715  0.0214060911
O   2.0493210750  1.2583789267 -0.1381136534
H   2.1406899091  1.6470995548  0.7295331029
H  -0.3786555008  1.0297678686 -0.0112014801
H  -0.4987062786 -0.5201200419  0.8240208501
H  -0.4324348030 -0.4691162714 -0.9318102756
H   1.8310878779 -0.4900450366  0.9555811445
H   1.8834307148 -0.6469143953 -0.7951525958
9
Scanning combination 56/73: [455.0000]  Energy = -155.1328014815
C  -0.0479559266 -0.0066909873 -0.0265095813
C   1.4866701656 -0.0434174846  0.0228986906
O   2.0433695429  1.2613548872 -0.1376867062
H   2.2046826076  1.6205392237  0.7323819308
H  -0.3797369227  1.0290560894 -0.0104970184
H  -0.4979145949 -0.5204686240  0.8219409995
H  -0.4327156382 -0.4691405556 -0.9335162310
H   1.8311919638 -0.4899243640  0.9582192185
H   1.8828997517 -0.6464778519 -0.7930477120
9
Scanning combination 57/73: [460.0000]  Energy = -155.1326135341
C  -0.0482211459 -0.0072431472 -0.0274620248
C   1.4862749190 -0.0430386353  0.0237358484
O   2.0376610088  1.2644690685 -0.1356948759
H   2.2701365260  1.5940616866  0.7294978416
H  -0.3805671723  1.0280980541 -0.0100316379
H  -0.4978118794 -0.5214214837  0.8203513812
H  -0.4325965574 -0.4690904481 -0.9351615965
H   1.8306753860 -0.4888218206  0.9601307031
H   1.8827714055 -0.6468780352 -0.7913488444
9
Scanning combination 58/73: [465.0000]  Energy = -155.1325122680
C  -0.0485715210 -0.0079046952 -0.0280810150
C   1.4857803814 -0.0425355398  0.0240881539
O   2.0323181153  1.2675929126 -0.1327769016
H   2.3359993182  1.5675202324  0.7208350438
H  -0.3815015048  1.0269873212 -0.0097438725
H  -0.4980977122 -0.5227951026  0.8189960976
H  -0.4322574941 -0.4689714532 -0.9367291377
H   1.8295478125 -0.4871259447  0.9615892754
H   1.8827955344 -0.6476458450 -0.7897777829
9
Scanning combination 59/73: [470.0000]  Energy = -155.1325022012
C  -0.0487725617 -0.0084768796 -0.0285312709
C   1.4854113471 -0.0419535602  0.0242674957
O   2.0273237977  1.2706527817 -0.1293320773
H   2.4010978331  1.5407542445  0.7062988466
H  -0.3826858840  1.0258926987 -0.0095772641
H  -0.4984716892 -0.5243533170  0.8177714170
H  -0.4317347913 -0.4687597823 -0.9381091004
H   1.8279855395 -0.4852183605  0.9628215301
H   1.8829390049 -0.6485590387 -0.7883310042
9
Scanning combination 60/73: [475.0000]  Energy = -155.1325731042
C  -0.0487239101 -0.0088367399 -0.0289224892
C   1.4852346926 -0.0413877519  0.0244389373
O   2.0225032012  1.2736073861 -0.1255910349
H   2.4644221874  1.5137303617  0.6858640385
H  -0.3840260517  1.0249623590 -0.0094551371
H  -0.4986901618 -0.5258656653  0.8166023685
H  -0.4310240870 -0.4684495886 -0.9392803931
H   1.8262119610 -0.4833702093  0.9639990719
H   1.8832128563 -0.6494862680 -0.7869861012
9
Scanning combination 61/73: [480.0000]  Energy = -155.1327068790
C  -0.0484253505 -0.0089678794 -0.0293095907
C   1.4852118745 -0.0409075776  0.0246572776
O   2.0176987812  1.2764305545 -0.1216249978
H   2.5252319091  1.4866041656  0.6595711660
H  -0.3852809755  1.0242680250 -0.0093023690
H  -0.4986535422 -0.5272047921  0.8154581703
H  -0.4301313218 -0.4680441900 -0.9402944434
H   1.8243878667 -0.4816988299  0.9651994274
H   1.8836333206 -0.6503769926 -0.7857125586
9
Scanning combination 62/73: [485.0000]  Energy = -155.1328841175
C  -0.0479217248 -0.0089178363 -0.0297105999
C   1.4852742840 -0.0405400914  0.0249307877
O   2.0128527545  1.2791023405 -0.1174321485
H   2.5830109377  1.4596606400  0.6275252914
H  -0.3862251759  1.0238114977 -0.0090670817
H  -0.4983695571 -0.5283419345  0.8143237072
H  -0.4290848987 -0.4675465153 -0.9412216710
H   1.8225891165 -0.4802295716  0.9664455923
H   1.8842018238 -0.6512145674 -0.7844800121
9
Scanning combination 63/73: [490.0000]  Energy = -155.1330877076
C  -0.0472663289 -0.0087456858 -0.0301318079
C   1.4853642268 -0.0402901533  0.0252714869
O   2.0079962528  1.2815891795 -0.1130028424
H   2.6373719018  1.4332408380  0.5898961036
H  -0.3867380065  1.0235592327 -0.0087273718
H  -0.4978870776 -0.5292976690  0.8131889385
H  -0.4279176562 -0.4669550117 -0.9421224968
H   1.8208390737 -0.4789630585  0.9677425519
H   1.8849031756 -0.6519807152 -0.7832667521
9
Scanning combination 64/73: [495.0000]  Energy = -155.1333047768
C  -0.0465097042 -0.0085102638 -0.0305850104
C   1.4854496211 -0.0401486688  0.0257162766
O   2.0032224941  1.2838517536 -0.1083482779
H   2.6879978347  1.4077050633  0.5469243522
H  -0.3867961490  1.0234674309 -0.0082875971
H  -0.4972661500 -0.5301081660  0.8120451124
H  -0.4266674391 -0.4662693113 -0.9430426541
H   1.8191443710 -0.4779123152  0.9690973664
H   1.8856961317 -0.6526517161 -0.7820637861
9
Scanning combination 65/73: [500.0000]  Energy = -155.1335197931
C  -0.0458238237 -0.0083715266 -0.0314301258
C   1.4856560497 -0.0400679290  0.0266522129
O   1.9989521015  1.2858572760 -0.1035272177
H   2.7348382135  1.3836995560  0.4993047952
H  -0.3865601305  1.0233958733 -0.0080298779
H  -0.4967105669 -0.5303775579  0.8109502056
H  -0.4259410969 -0.4659957825 -0.9441080407
H   1.8182146593 -0.4775309810  0.9705110225
H   1.8861167851 -0.6528349400 -0.7809247036
9
Scanning combination 66/73: [505.0000]  Energy = -155.1337291578
C  -0.0450885528 -0.0082010966 -0.0321662271
C   1.4857535207 -0.0400443018  0.0275737337
O   1.9950706723  1.2876079462 -0.0982919817
H   2.7774795249  1.3611094551  0.4469236501
H  -0.3861092465  1.0233788555 -0.0077938994
H  -0.4961285533 -0.5306157726  0.8098151491
H  -0.4250707578 -0.4656256541 -0.9451384419
H   1.8172131157 -0.4772490024  0.9719234881
H   1.8866021125 -0.6530053379 -0.7798389887
9
Scanning combination 67/73: [510.0000]  Energy = -155.1339253458
C  -0.0443505375 -0.0080135477 -0.0328749280
C   1.4858308981 -0.0400778444  0.0285902624
O   1.9915730701  1.2890758890 -0.0928761185
H   2.8156731704  1.3402115768  0.3903045049
H  -0.3854912421  1.0234232552 -0.0075736207
H  -0.4955393392 -0.5308546883  0.8086725260
H  -0.4240893840 -0.4651648259 -0.9461563496
H   1.8161402886 -0.4771240886  0.9733475550
H   1.8870817000 -0.6531312567 -0.7788015604
9
Scanning combination 68/73: [515.0000]  Energy = -155.1341012405
C  -0.0436364564 -0.0078298303 -0.0336005298
C   1.4858995459 -0.0401610394  0.0297644865
O   1.9885830719  1.2902666312 -0.0873468538
H   2.8491304732  1.3212352260  0.3298757225
H  -0.3847588102  1.0235213833 -0.0073749022
H  -0.4949594178 -0.5310945209  0.8075237995
H  -0.4230485179 -0.4646435144 -0.9471958814
H   1.8150340953 -0.4772127436  0.9748152026
H   1.8874907984 -0.6531900431 -0.7777991964
9
Scanning combination 69/73: [520.0000]  Energy = -155.1342512424
C  -0.0429647359 -0.0076503862 -0.0343467146
C   1.4859712994 -0.0402858676  0.0311091414
O   1.9861571698  1.2911794003 -0.0817673501
H   2.8776173103  1.3043558265  0.2661124870
H  -0.3839562836  1.0236579347 -0.0072062125
H  -0.4944023781 -0.5313361122  0.8063611434
H  -0.4219822698 -0.4640808822 -0.9482814156
H   1.8139181954 -0.4775408808  0.9763469238
H   1.8877911022 -0.6531731438 -0.7768041934
9
Scanning combination 70/73: [525.0000]  Energy = -155.1343715370
C  -0.0423439111 -0.0074735813 -0.0351099210
C   1.4860458476 -0.0404506544  0.0326182445
O   1.9843362849  1.2918276984 -0.0761956777
H   2.9009138802  1.2896892723  0.1995165568
H  -0.3831220240  1.0238246397 -0.0070740337
H  -0.4938828158 -0.5315827207  0.8051767343
H  -0.4209131958 -0.4634874105 -0.9494202231
H   1.8128150576 -0.4781108521  0.9779509905
H   1.8879733455 -0.6530771427 -0.7757845455
9
Scanning combination 71/73: [530.0000]  Energy = -155.1344598504
C  -0.0417816528 -0.0072994123 -0.0358775242
C   1.4861318444 -0.0406493013  0.0342713677
O   1.9831294421  1.2922290247 -0.0706858272
H   2.9188252226  1.2772928572  0.1306172979
H  -0.3822849295  1.0240198804 -0.0069807386
H  -0.4934164035 -0.5318390064  0.8039659987
H  -0.4198526148 -0.4628663169 -0.9506131984
H   1.8117447439 -0.4788990181  0.9796183814
H   1.8880514935 -0.6529020955 -0.7747049734
9
Scanning combination 72/73: [535.0000]  Energy = -155.1345149849
C  -0.0412844543 -0.0071230476 -0.0366457920
C   1.4862283243 -0.0408683807  0.0360468573
O   1.9825214905  1.2924155167 -0.0652874299
H   2.9312019568  1.2671706713  0.0599763361
H  -0.3814705773  1.0242369317 -0.0069264018
H  -0.4930230561 -0.5321095873  0.8027325342
H  -0.4188116386 -0.4622207879 -0.9518520544
H   1.8107388035 -0.4798596176  0.9813253946
H   1.8880614192 -0.6526544783 -0.7735425863
9
Scanning combination 73/73: [540.0000]  Energy = -155.1345362050
C  -0.0408571028 -0.0069487871 -0.0374180073
C   1.4863336547 -0.0410906025  0.0379155818
O   1.9824984034  1.2924172426 -0.0600314913
H   2.9379237938  1.2592865710 -0.0118303294
H  -0.3807026592  1.0244719056 -0.0069069548
H  -0.4927234879 -0.5323963803  0.8014842182
H  -0.4177985325 -0.4615541097 -0.9531237282
H   1.8098341863 -0.4809247338  0.9830344110
H   1.8880464335 -0.6523368267 -0.7722806937
