3
Image 0  Energy = -76.4516354170
O   0.0000000000  0.0000000000  0.1177900000
H   0.0000000000  0.7554500000 -0.4711600000
H   0.0000000000 -0.7554500000 -0.4711600000
3
Image 1  Energy = -76.4515008369
O   0.0000000000  0.0000000000  0.1138432005
H   0.0000000000  0.7532920777 -0.4691866001
H   0.0000000000 -0.7532920777 -0.4691866001
3
Image 2  Energy = -76.4516713050
O   0.0000000000 -0.0000000008  0.1208838145
H   0.0000000000  0.7570308106 -0.4727069079
H   0.0000000000 -0.7570308096 -0.4727069074
3
Image 3  Energy = -76.4516623330
O   0.0000000000 -0.0000000010  0.1210157644
H   0.0000000000  0.7570335653 -0.4727728834
H   0.0000000000 -0.7570335641 -0.4727728816
3
Image 4  Energy = -76.4516623330
O   0.0000000000 -0.0000000010  0.1210863380
H   0.0000000000  0.7569820731 -0.4728081704
H   0.0000000000 -0.7569820718 -0.4728081684
3
Image 5  Energy = -76.4516623330
O   0.0000000000 -0.0000000078  0.1211837723
H   0.0000000000  0.7568464760 -0.4728568879
H   0.0000000000 -0.7568464681 -0.4728568843
