3
Image 0  Energy = -76.4400705058
O   0.0000000000  0.0000000000  0.1177900000
H   0.0000000000  0.7554500000 -0.4711600000
H   0.0000000000 -0.7554500000 -0.4711600000
3
Image 1  Energy = -76.4399807857
O   0.0000008935  0.0000056115  0.1158998912
H  -0.0000008864  0.7522882586 -0.4702136798
H  -0.0000000071 -0.7522938706 -0.4702161909
3
Image 2  Energy = -76.4401153658
O  -0.0000045179 -0.0000043929  0.1185759981
H   0.0000031343  0.7593308613 -0.4715523438
H   0.0000013836 -0.7593264330 -0.4715537087
3
Image 3  Energy = -76.4401243378
O  -0.0000057267 -0.0000042679  0.1178753826
H   0.0000027450  0.7604195512 -0.4712030163
H   0.0000029817 -0.7604152383 -0.4712024117
3
Image 4  Energy = -76.4401333098
O   0.0000388039  0.0000159197  0.1151154016
H  -0.0000193613  0.7631290601 -0.4698176399
H  -0.0000194426 -0.7631448521 -0.4698279384
3
Image 5  Energy = -76.4401243378
O   0.0000356854 -0.0000769147  0.1151032754
H  -0.0000109099  0.7631570079 -0.4698491719
H  -0.0000247755 -0.7630797257 -0.4697843241
3
Image 6  Energy = -76.4401333098
O   0.0000375127 -0.0000017843  0.1151069427
H  -0.0000160293  0.7631187129 -0.4698207500
H  -0.0000214835 -0.7631166930 -0.4698163827
