3
Image 0  Energy = -76.4355217005
O   0.0000000000  0.0000000000  0.1177900000
H   0.0000000000  0.7554500000 -0.4711600000
H   0.0000000000 -0.7554500000 -0.4711600000
3
Image 1  Energy = -76.4354230085
O   0.0000025769 -0.0000001526  0.1159062857
H  -0.0000015840  0.7522839392 -0.4702194036
H  -0.0000009929 -0.7522838136 -0.4702168760
3
Image 2  Energy = -76.4355755325
O  -0.0000041022 -0.0000042784  0.1186001774
H   0.0000025546  0.7594953501 -0.4715626756
H   0.0000015476 -0.7594909753 -0.4715675090
3
Image 3  Energy = -76.4355755325
O  -0.0000084832 -0.0000000297  0.1178760018
H   0.0000036406  0.7605958129 -0.4711994776
H   0.0000048426 -0.7605956487 -0.4712065168
3
Image 4  Energy = -76.4355755325
O  -0.0000401344 -0.0000316833  0.1152809274
H   0.0000494693  0.7631237638 -0.4698971620
H  -0.0000093349 -0.7630917575 -0.4699134303
3
Image 5  Energy = -76.4355755325
O  -0.0000444885  0.0000920543  0.1152722318
H   0.0000513492  0.7630490905 -0.4698419924
H  -0.0000068608 -0.7631408954 -0.4699598466
3
Image 6  Energy = -76.4355755325
O  -0.0000419918 -0.0000077289  0.1152763090
H   0.0000502270  0.7630972497 -0.4698844107
H  -0.0000082352 -0.7630892212 -0.4699215434
