22
Image 0  Energy = -424.9322226137
C  -0.5289344222  0.0964831573 -0.6461382739
C   0.0364366146  0.7723418699 -1.9123846532
H  -0.3675667472  0.2189315803 -2.7643377949
O  -0.2465770530 -1.3003634433 -0.7193748963
H   0.6761254702 -1.4437756000 -0.4892962173
O   1.4654395193  0.6089687444 -1.8827504101
H   1.8455959176  1.0759000606 -2.6286914008
C   0.0667873156  0.6869381629  0.6269286500
H  -0.2654568704  1.7088575224  0.7858094055
H  -0.2591729633  0.0946454618  1.4792986531
H   1.1537627360  0.6762644183  0.5930495706
C  -2.0472251848  0.2113822155 -0.6360084000
H  -2.3739044827  1.2368107793 -0.4681562181
H  -2.4593406433 -0.1378326152 -1.5802329462
H  -2.4450110110 -0.4138881816  0.1582471980
C  -0.3122427930  2.2450095327 -2.0648695643
H   0.1443408780  2.6337797450 -2.9754641497
H  -1.3844137386  2.4044480075 -2.1342105964
H   0.0730096538  2.8186563227 -1.2251829578
O   2.8613086615 -1.2968696008 -0.4233201094
H   3.8095517782 -1.3562684170 -0.5444500817
H   2.5674248624 -0.6397053706 -1.0706830852
