22
Image 0  Energy = -424.9394977358
C   0.1981676285  0.0549977155 -0.5977833958
C  -0.4835141649  0.7781886487 -1.7355206782
H  -0.2318902270  0.1968117669 -2.6220499049
O   0.4835096531 -1.1248622156 -0.6911217298
H   2.1801098684 -1.3654231927 -0.3163226548
O   2.7955257504  0.4325309319 -2.4255309732
H   3.2510298321  0.0416741995 -3.1743348553
C   0.5137887127  0.8222033126  0.6531935505
H  -0.3469527735  1.4035883164  0.9748976688
H   0.8405064201  0.1414695788  1.4311823075
H   1.3129271694  1.5322818540  0.4286699265
C  -2.0017261801  0.7266357343 -1.5097421033
H  -2.2797604739  1.2529859848 -0.5960547732
H  -2.5266670183  1.2002508345 -2.3376313751
H  -2.3465699223 -0.3022564854 -1.4322942927
C   0.0120194427  2.2147772276 -1.9008589539
H   1.0976523546  2.2427629692 -1.9598890691
H  -0.3960080504  2.6476923234 -2.8143007870
H  -0.3054935632  2.8398968458 -1.0653215390
O   3.1456446508 -1.2049466009 -0.2539111958
H   3.5609652284 -2.0393983243 -0.4800326616
H   3.0789302335 -0.0858103313 -1.6544752807
