22
Image 0  Energy = -424.82424456
C  -0.3552933518  0.0322385113 -0.5013066216
C  -0.2727945189  0.7584291159 -1.7331032088
H  -0.3429441383  0.1130981701 -2.5973060694
O   0.0048447041 -1.2837965945 -0.5271056614
H   1.0845150466 -1.3532231628 -0.4676053678
O   1.9743367146  0.7405269271 -2.0588500660
H   2.2056602240  0.4124195345 -2.9336120753
C   0.0824368249  0.7690572510  0.7625462043
H  -0.4307527581  1.7165129679  0.8751793141
H  -0.1332461559  0.1308817672  1.6154939592
H   1.1576908622  0.9445681160  0.7062160156
C  -2.0199094889  0.1916124007 -0.7489074992
H  -2.3050171353  1.1397069126 -0.2900738663
H  -2.4283110846  0.1427115505 -1.7717941644
H  -2.3513772885 -0.6784360448 -0.1959417814
C  -0.4180691502  2.2187843400 -1.9505128143
H   0.3438403887  2.4814723699 -2.6712836995
H  -1.3979597640  2.4525586194 -2.3738585384
H  -0.2729287737  2.8086311473 -1.0535856823
O   2.4607755319 -1.0559708348 -0.5105452358
H   3.0976775291 -1.7332272013 -0.7519154339
H   2.3267621439 -0.0478416098 -1.3443450084
