22
Image 0  Energy = -424.93306414
C  -0.5072932782  0.1000278086 -0.6484553810
C   0.0453944750  0.7885388390 -1.9149832310
H  -0.3552087264  0.2291249966 -2.7655190843
O  -0.2126664320 -1.2908315429 -0.7346181342
H   0.7120730424 -1.4325778868 -0.5027767504
O   1.4799761078  0.6460152689 -1.8893890467
H   1.8488332737  1.0968603631 -2.6510180710
C   0.0779444887  0.6971982182  0.6288446152
H  -0.2350663030  1.7291977211  0.7676082076
H  -0.2766966535  0.1224037185  1.4824999177
H   1.1654375692  0.6620380250  0.6137692607
C  -2.0291468979  0.1877134212 -0.6335429403
H  -2.3752775584  1.2075347011 -0.4739221219
H  -2.4408558297 -0.1811517158 -1.5708842905
H  -2.4098974594 -0.4361657319  0.1705672118
C  -0.3227717916  2.2565395158 -2.0675972344
H   0.1050201400  2.6455942587 -2.9918990441
H  -1.3981608260  2.4007470368 -2.1123834838
H   0.0738557071  2.8416809791 -1.2410093402
O   2.7784693766 -1.3162446006 -0.4302942485
H   3.7245825670 -1.4448702762 -0.4980578465
H   2.5613932974 -0.6086589804 -1.0591570806
22
Image 1  Energy = -424.92881251
C  -0.4909129786  0.1027152873 -0.6515912380
C   0.0516445300  0.8009640769 -1.9192130359
H  -0.3481319788  0.2354681572 -2.7668920641
O  -0.1751689790 -1.2825900452 -0.7404138412
H   0.7512405736 -1.4071661532 -0.5091113352
O   1.4864564575  0.6735447606 -1.9019571282
H   1.8419630020  1.1288799284 -2.6677551686
C   0.0866040329  0.7081934779  0.6273037914
H  -0.2125094282  1.7469484899  0.7493633817
H  -0.2904050017  0.1486901771  1.4817164996
H   1.1738350269  0.6545037719  0.6283747023
C  -2.0118280925  0.1690662589 -0.6316392232
H  -2.3725809312  1.1847716685 -0.4750487207
H  -2.4252465894 -0.2102597948 -1.5648976053
H  -2.3815528451 -0.4562240105  0.1772478951
C  -0.3332517079  2.2640906432 -2.0700731782
H   0.0697028512  2.6566849837 -3.0049067535
H  -1.4112408508  2.3978263978 -2.0922638664
H   0.0744003405  2.8580978361 -1.2541495909
O   2.7137186680 -1.3445818203 -0.4337350655
H   3.6545282226 -1.5182321178 -0.4538907645
H   2.5586746928 -0.6106777707 -1.0486854510
22
Image 2  Energy = -424.92906280
C  -0.4836209694  0.1056751035 -0.6537568354
C   0.0565549775  0.8083054113 -1.9196428479
H  -0.3384246075  0.2400732360 -2.7677390174
O  -0.1595997496 -1.2781474969 -0.7451735062
H   0.7635504699 -1.3971335248 -0.4986953367
O   1.4925118175  0.6915593203 -1.9008482090
H   1.8416229751  1.1064754985 -2.6924111004
C   0.0894296299  0.7141336576  0.6263374964
H  -0.2274547004  1.7467158383  0.7554089565
H  -0.2739746204  0.1432763898  1.4790742702
H   1.1774550991  0.6808948740  0.6230087302
C  -2.0049324860  0.1607519143 -0.6351108756
H  -2.3747312805  1.1701395637 -0.4590679888
H  -2.4137375661 -0.2037095658 -1.5763846913
H  -2.3689977551 -0.4845820475  0.1605643481
C  -0.3412479714  2.2676860439 -2.0696089424
H   0.0809339153  2.6723207510 -2.9905399948
H  -1.4201907601  2.3884871082 -2.1171528083
H   0.0388204682  2.8601256258 -1.2397726714
O   2.7152092487 -1.2900298704 -0.3641183849
H   3.5892749532 -1.6364586873 -0.5434558912
H   2.5714868044 -0.5658444903 -0.9931325215
22
Image 3  Energy = -424.92903970
C  -0.4810639607  0.1067540814 -0.6534567262
C   0.0613930134  0.8103634741 -1.9174329749
H  -0.3289653499  0.2406469104 -2.7665917466
O  -0.1531165957 -1.2773326631 -0.7441277972
H   0.7664182079 -1.3944575778 -0.4831143538
O   1.4981206023  0.7001037921 -1.8942041029
H   1.8444746166  1.0442343173 -2.7203239498
C   0.0911208444  0.7140021820  0.6281009956
H  -0.2624491281  1.7310590111  0.7813189073
H  -0.2342801813  0.1137130942  1.4760621595
H   1.1794054856  0.7240761962  0.6063843007
C  -2.0026611471  0.1611320108 -0.6397529974
H  -2.3733850968  1.1662582585 -0.4410135877
H  -2.4078673389 -0.1787444366 -1.5918751117
H  -2.3694621130 -0.5037978961  0.1383254305
C  -0.3431483522  2.2673322533 -2.0663520842
H   0.1229441739  2.6897910326 -2.9571709712
H  -1.4198822479  2.3765439139 -2.1666301347
H  -0.0131910241  2.8509961495 -1.2096747081
O   2.7384057890 -1.2394892406 -0.3221706986
H   3.5239397600 -1.6892042464 -0.6348039318
H   2.5731869131 -0.5132663306 -0.9437143598
22
Image 4  Energy = -424.92878081
C  -0.4772195842  0.1070376238 -0.6521259420
C   0.0685056111  0.8119062225 -1.9139075114
H  -0.3140664082  0.2390785664 -2.7643590388
O  -0.1509480548 -1.2780608550 -0.7441156205
H   0.7672913476 -1.3960571014 -0.4777230811
O   1.5065301713  0.7122237616 -1.8834792510
H   1.8524004876  0.9710855631 -2.7403935994
C   0.0967110253  0.7096184547  0.6316999218
H  -0.2838067123  1.7128977078  0.8081830412
H  -0.1967649510  0.0846976745  1.4735640029
H   1.1836875529  0.7535525500  0.5953471418
C  -1.9988503469  0.1653678621 -0.6427352223
H  -2.3676720489  1.1685944177 -0.4306232364
H  -2.4013142336 -0.1577302746 -1.6019747709
H  -2.3702323465 -0.5103814746  0.1236819730
C  -0.3449786876  2.2658156772 -2.0644688955
H   0.1554992009  2.7024123396 -2.9288530999
H  -1.4179002250  2.3619015208 -2.2091193130
H  -0.0610010305  2.8443902077 -1.1880129301
O   2.7398724918 -1.2076876993 -0.3081646184
H   3.4635635580 -1.6968883996 -0.7006601099
H   2.5606308325 -0.4630602413 -0.9039780404
22
Image 5  Energy = -424.92843703
C  -0.4714127980  0.1085897351 -0.6479430400
C   0.0751120789  0.8116078344 -1.9102626095
H  -0.3036565538  0.2346678009 -2.7592217754
O  -0.1422137136 -1.2769267840 -0.7374619928
H   0.7755388092 -1.3921707950 -0.4659131447
O   1.5138647044  0.7195069873 -1.8778832691
H   1.8571970064  0.8959925315 -2.7564949480
C   0.1015442761  0.7105244233  0.6371965800
H  -0.2939952450  1.7056374143  0.8254862960
H  -0.1744718859  0.0725603213  1.4753249181
H   1.1873079962  0.7748218171  0.5953200775
C  -1.9933868794  0.1679742740 -0.6445885621
H  -2.3617618165  1.1672128935 -0.4134359487
H  -2.3905415386 -0.1320880756 -1.6139962135
H  -2.3704837382 -0.5237389096  0.1042807030
C  -0.3458096421  2.2629031931 -2.0665056694
H   0.1754296911  2.7054161552 -2.9151481357
H  -1.4155947882  2.3472858523 -2.2404413923
H  -0.0941438412  2.8427739413 -1.1806520214
O   2.7464984036 -1.1781229702 -0.2934128905
H   3.3820570330 -1.7080042495 -0.7752516458
H   2.5528595130 -0.4157100265 -0.8612134428
22
Image 6  Energy = -424.92807112
C  -0.4632639437  0.1122216363 -0.6457581317
C   0.0799121033  0.8153999607 -1.9089952982
H  -0.2990189553  0.2376558836 -2.7573610392
O  -0.1186713409 -1.2702562466 -0.7283564264
H   0.7986168465 -1.3728436256 -0.4475842036
O   1.5199864115  0.7264082342 -1.8826031330
H   1.8545220633  0.8231766232 -2.7769753637
C   0.1020073925  0.7232956782  0.6387492206
H  -0.3063810255  1.7130275695  0.8271703116
H  -0.1639547533  0.0814228204  1.4772972050
H   1.1866006268  0.8042852843  0.5955786859
C  -1.9865128722  0.1578563850 -0.6468258684
H  -2.3653948988  1.1480966364 -0.3932686922
H  -2.3790550244 -0.1220725311 -1.6246404037
H  -2.3585369088 -0.5557448906  0.0840431352
C  -0.3476164554  2.2651110693 -2.0617948960
H   0.1907412560  2.7189679770 -2.8925399858
H  -1.4133982834  2.3406007859 -2.2608414073
H  -0.1252176736  2.8397448536 -1.1648942961
O   2.7486283036 -1.1596949807 -0.2874886184
H   3.3003304292 -1.7347237823 -0.8176455886
H   2.5556127150 -0.3912217738 -0.8474837846
22
Image 7  Energy = -424.92846783
C  -0.4545525910  0.1127911558 -0.6478547176
C   0.0820924263  0.8178799205 -1.9120151428
H  -0.2963987225  0.2413035089 -2.7610780814
O  -0.0889488323 -1.2645885456 -0.7239963654
H   0.8291569757 -1.3466170722 -0.4354547207
O   1.5243239720  0.7342195814 -1.8947282556
H   1.8472479293  0.7609220650 -2.7980727989
C   0.1027547162  0.7370046773  0.6340681531
H  -0.3294393034  1.7161436413  0.8241431930
H  -0.1429590604  0.0889279069  1.4738817596
H   1.1848579846  0.8445413885  0.5833675642
C  -1.9788474861  0.1485910004 -0.6500842746
H  -2.3596402027  1.1287134514 -0.3621372532
H  -2.3736685658 -0.0963808282 -1.6351476937
H  -2.3496580055 -0.5895539728  0.0572553028
C  -0.3513014831  2.2666611807 -2.0523149270
H   0.2012281069  2.7343623902 -2.8657365461
H  -1.4143776339  2.3370075767 -2.2698777956
H  -0.1512636027  2.8270952273 -1.1434084292
O   2.7417356914 -1.1323504756 -0.2760412795
H   3.2177909740 -1.7802108850 -0.7951076504
H   2.5698019389 -0.3857473108 -0.8718770806
22
Image 8  Energy = -424.92658177
C  -0.4486764842  0.1111981726 -0.6306366347
C   0.0879121897  0.8081714972 -1.8991903726
H  -0.2922741789  0.2255098006 -2.7414913543
O  -0.0778546488 -1.2630392649 -0.6930928919
H   0.8496389303 -1.3329354375 -0.4277703505
O   1.5310340712  0.7291413516 -1.9017851028
H   1.8343360037  0.7087269830 -2.8122316288
C   0.0947466060  0.7515380569  0.6503698663
H  -0.3708294416  1.7149581830  0.8421645384
H  -0.1220400384  0.0977569694  1.4942033978
H   1.1723808910  0.8969413631  0.5920266194
C  -1.9738841114  0.1471371196 -0.6534429611
H  -2.3531916380  1.1159202593 -0.3285869513
H  -2.3519945215 -0.0477874717 -1.6574465638
H  -2.3622857516 -0.6220167796  0.0101985495
C  -0.3385780807  2.2573036377 -2.0455110391
H   0.2477774923  2.7179746796 -2.8384207055
H  -1.3935704869  2.3355967815 -2.2986171245
H  -0.1629139937  2.8142495363 -1.1296778879
O   2.7184208919 -1.1126281225 -0.3116154610
H   3.1912150881 -1.7716556342 -0.8187029267
H   2.5305683207 -0.3813483386 -0.9229586823
22
Image 9  Energy = -424.92454569
C  -0.4316605004  0.1108033617 -0.6101612184
C   0.1049409023  0.8037056862 -1.8823265771
H  -0.2771483888  0.2155597510 -2.7168698937
O  -0.0723449382 -1.2653891377 -0.6662580536
H   0.8660207267 -1.3468118745 -0.4382931702
O   1.5499857487  0.7341800293 -1.9248746860
H   1.8136129385  0.6340611260 -2.8430224580
C   0.0895103104  0.7612088347  0.6767116254
H  -0.3860375432  1.7233766089  0.8509227294
H  -0.1430844344  0.1177359289  1.5244736478
H   1.1673975541  0.9125356322  0.6389657614
C  -1.9576101536  0.1498086142 -0.6580341350
H  -2.3434072920  1.1005259304 -0.2905470506
H  -2.3109109204  0.0076448075 -1.6797984022
H  -2.3574568235 -0.6552177429 -0.0460767602
C  -0.3288773519  2.2505352879 -2.0305401306
H   0.2853331936  2.7183295427 -2.7972111760
H  -1.3735860192  2.3165989244 -2.3254274764
H  -0.1953654857  2.8055808047 -1.1065361387
O   2.6657108941 -1.0862024902 -0.3646558109
H   3.2021293555 -1.7259157523 -0.8303848299
H   2.4427851025 -0.3819400209 -1.0022741692
22
Image 10  Energy = -424.92246859
C  -0.4178401979  0.1040132960 -0.6022736655
C   0.1173264954  0.7973733841 -1.8783326943
H  -0.2679365551  0.2042939531 -2.7065980074
O  -0.0680608127 -1.2744579619 -0.6505286900
H   0.8717144923 -1.3656859065 -0.4258965658
O   1.5642574365  0.7462248381 -1.9526287911
H   1.8072136417  0.5612165078 -2.8639624483
C   0.0900639522  0.7615216299  0.6885799752
H  -0.3928899657  1.7219998606  0.8510442374
H  -0.1490154127  0.1242840041  1.5396997456
H   1.1674625384  0.9192345103  0.6658982946
C  -1.9452775946  0.1520081164 -0.6653316400
H  -2.3276005107  1.0962169878 -0.2774602580
H  -2.2899978552  0.0421415934 -1.6941175747
H  -2.3571119344 -0.6671620189 -0.0808045981
C  -0.3249427168  2.2433647945 -2.0209195458
H   0.3078936148  2.7111773324 -2.7721502373
H  -1.3629079914  2.3114552987 -2.3376409554
H  -0.2139296724  2.7951317722 -1.0919123039
O   2.6375991546 -1.0509539374 -0.3785298205
H   3.1606045203 -1.6913903320 -0.8574125944
H   2.4033119004 -0.3412939756 -1.0109389323
22
Image 11  Energy = -424.92190952
C  -0.4159540548  0.0993471089 -0.5920330766
C   0.1194396701  0.7845746405 -1.8760675613
H  -0.2703366542  0.1868497908 -2.6998350916
O  -0.0643366095 -1.2780771654 -0.6234889409
H   0.8865871743 -1.3544014958 -0.4404521686
O   1.5692590152  0.7454236035 -1.9688443460
H   1.8210146941  0.5092738962 -2.8669527459
C   0.0831009788  0.7645471171  0.7003783702
H  -0.4056372021  1.7223182337  0.8622917445
H  -0.1531608064  0.1307570158  1.5552351852
H   1.1598794613  0.9260981474  0.6806211199
C  -1.9438738963  0.1571205289 -0.6714137515
H  -2.3210381715  1.0986879440 -0.2716495095
H  -2.2815765162  0.0730715140 -1.7045444658
H  -2.3726231251 -0.6671166983 -0.1077738720
C  -0.3249050025  2.2304224314 -2.0144777698
H   0.3177026310  2.6943177703 -2.7559097911
H  -1.3604876811  2.3088737713 -2.3368589660
H  -0.2275978481  2.7769337048 -1.0796621472
O   2.6381139204 -1.0103211952 -0.4023259942
H   3.1458918087 -1.6823142471 -0.8527700883
H   2.4104751857 -0.3156718626 -1.0556824057
22
Image 12  Energy = -424.91577584
C  -0.4149539137  0.0865749061 -0.5759757212
C   0.1200368792  0.7704796680 -1.8679637165
H  -0.2788216717  0.1619346529 -2.6789891777
O  -0.0435964469 -1.2843450465 -0.5860148298
H   0.9233858012 -1.3437176720 -0.4556542519
O   1.5890058071  0.7662168739 -1.9832468081
H   1.9065304766  0.4763251803 -2.8483611505
C   0.0739786100  0.7667933933  0.7150816406
H  -0.4270320442  1.7190440633  0.8705227960
H  -0.1487100689  0.1361136612  1.5751155769
H   1.1495468095  0.9391383250  0.6866900103
C  -1.9491724540  0.1547482401 -0.6725111309
H  -2.3161166562  1.0933049889 -0.2569664506
H  -2.3018300223  0.1022711594 -1.7063477261
H  -2.3897616245 -0.6739375289 -0.1277081505
C  -0.3207331171  2.2184678920 -2.0049135641
H   0.3469452875  2.6573991572 -2.7370395693
H  -1.3477688184  2.3202142197 -2.3487318198
H  -0.2337989855  2.7694726605 -1.0713805013
O   2.5790865527 -0.9820085305 -0.4717796652
H   3.1241802227 -1.6763485187 -0.8409485805
H   2.3695357664 -0.2774267547 -1.1350951449
22
Image 13  Energy = -424.89508339
C  -0.4129489172  0.0674386590 -0.5489452183
C   0.0762650814  0.7629092554 -1.8417043613
H  -0.3073071138  0.1377196917 -2.6428596635
O  -0.0155723295 -1.2908726489 -0.5550400727
H   0.9771859999 -1.3398256875 -0.4735945038
O   1.6696026872  0.7836763457 -2.0383776021
H   2.0421942498  0.4387195464 -2.8687454905
C   0.0737530027  0.7634444088  0.7359173727
H  -0.4259273537  1.7178628321  0.8743509132
H  -0.1437194632  0.1372801419  1.6018582965
H   1.1508889590  0.9368179659  0.6995315218
C  -1.9619140662  0.1514506398 -0.6867842421
H  -2.3099779103  1.0978234377 -0.2679651353
H  -2.3412596901  0.1124189507 -1.7182881913
H  -2.4001743496 -0.6814357936 -0.1487139424
C  -0.3446408113  2.2169192236 -1.9843541867
H   0.3558972549  2.5934445767 -2.7125762962
H  -1.3591484274  2.3721849011 -2.3601844940
H  -0.2480139666  2.7870055257 -1.0624324768
O   2.5154266586 -0.9701725024 -0.5269089058
H   3.0859845495 -1.6854621168 -0.7994128283
H   2.3333417156 -0.2086331677 -1.1969883967
22
Image 14  Energy = -424.85756973
C  -0.4132182677  0.0550824244 -0.5227277913
C  -0.0601273625  0.7642200128 -1.8008828754
H  -0.3278214456  0.1242345025 -2.6292160188
O  -0.0088534251 -1.2914673087 -0.5429102250
H   1.0090010206 -1.3409603121 -0.4753504420
O   1.8128857760  0.7628925914 -2.0519674530
H   2.1311202202  0.4263185265 -2.9025490688
C   0.0765073491  0.7650934254  0.7490819864
H  -0.4269957249  1.7182234374  0.8770627553
H  -0.1384006030  0.1356497523  1.6112165278
H   1.1529948487  0.9401886137  0.7008434200
C  -1.9832596935  0.1593218007 -0.7034169360
H  -2.3078719602  1.1112579057 -0.2770071531
H  -2.3762128875  0.1244845675 -1.7352084858
H  -2.3913181169 -0.6844973680 -0.1654543988
C  -0.3751886332  2.2189545127 -1.9700171019
H   0.3527269529  2.5471959652 -2.6961077176
H  -1.3759962078  2.4112191530 -2.3674020366
H  -0.2610556725  2.7974156963 -1.0573842383
O   2.5018824198 -0.9925447826 -0.5276053099
H   3.0872641406 -1.7079100247 -0.7763558635
H   2.3318734970 -0.1436589070 -1.2588588271
22
Image 15  Energy = -424.83514069
C  -0.3934698878  0.0450998448 -0.5090691424
C  -0.1864334118  0.7651405094 -1.7654463590
H  -0.3349745980  0.1175762390 -2.6174322701
O  -0.0043684159 -1.2909161445 -0.5345535115
H   1.0361988807 -1.3454978859 -0.4733852782
O   1.9183076401  0.7442601535 -2.0516273796
H   2.1789948440  0.4175300739 -2.9226302694
C   0.0796391583  0.7671364631  0.7572711461
H  -0.4287350154  1.7178588051  0.8776051906
H  -0.1359056599  0.1336724186  1.6142786559
H   1.1553249803  0.9421530390  0.7019663781
C  -2.0035080337  0.1717871520 -0.7224820264
H  -2.3047418492  1.1239414579 -0.2826537246
H  -2.4025270669  0.1340043527 -1.7506495209
H  -2.3733274508 -0.6852571763 -0.1789011339
C  -0.3957725571  2.2186527157 -1.9600645793
H   0.3489485867  2.5150039527 -2.6841634714
H  -1.3859750233  2.4348432985 -2.3724144988
H  -0.2683885756  2.8038114009 -1.0557722408
O   2.4901381897 -1.0210955770 -0.5170862401
H   3.0934123764 -1.7231667375 -0.7637840687
H   2.3270992378 -0.0858241984 -1.3112228336
22
Image 16  Energy = -424.82424455
C  -0.3552933518  0.0322385113 -0.5013066216
C  -0.2727945189  0.7584291159 -1.7331032088
H  -0.3429441383  0.1130981701 -2.5973060694
O   0.0048447041 -1.2837965945 -0.5271056614
H   1.0845150466 -1.3532231628 -0.4676053678
O   1.9743367146  0.7405269271 -2.0588500660
H   2.2056602240  0.4124195345 -2.9336120753
C   0.0824368249  0.7690572510  0.7625462043
H  -0.4307527581  1.7165129679  0.8751793141
H  -0.1332461559  0.1308817672  1.6154939592
H   1.1576908622  0.9445681160  0.7062160156
C  -2.0199094889  0.1916124007 -0.7489074992
H  -2.3050171353  1.1397069126 -0.2900738663
H  -2.4283110846  0.1427115505 -1.7717941644
H  -2.3513772885 -0.6784360448 -0.1959417814
C  -0.4180691502  2.2187843400 -1.9505128143
H   0.3438403887  2.4814723699 -2.6712836995
H  -1.3979597640  2.4525586194 -2.3738585384
H  -0.2729287737  2.8086311473 -1.0535856823
O   2.4607755319 -1.0559708348 -0.5105452358
H   3.0976775291 -1.7332272013 -0.7519154339
H   2.3267621439 -0.0478416098 -1.3443450084
22
Image 17  Energy = -424.82464762
C  -0.2777177996  0.0177913347 -0.4918769032
C  -0.3498377948  0.7407362153 -1.7008168089
H  -0.3467586103  0.1137192270 -2.5863622116
O   0.0092978690 -1.2753911190 -0.5241345180
H   1.1393501442 -1.3616466966 -0.4646175338
O   1.9991762150  0.7427385690 -2.0615622589
H   2.2040923762  0.4105902362 -2.9372249285
C   0.0832318706  0.7697272872  0.7662833579
H  -0.4313484753  1.7162440770  0.8724124858
H  -0.1331482202  0.1280997956  1.6153044565
H   1.1584070569  0.9449445322  0.7082030316
C  -2.0543586702  0.2159890550 -0.7813154694
H  -2.3046500288  1.1502836044 -0.2910781447
H  -2.4392690613  0.1404011236 -1.7938873478
H  -2.3313766177 -0.6699198266 -0.2036608821
C  -0.4252874804  2.2196423477 -1.9474646798
H   0.3444230736  2.4753086552 -2.6681264939
H  -1.3996316933  2.4547972967 -2.3743167398
H  -0.2712050054  2.8088324048 -1.0524370182
O   2.4310310138 -1.0858827265 -0.4878359877
H   3.0898612699 -1.7336104203 -0.7530328777
H   2.3156549021 -0.0226807274 -1.3646697980
22
Image 18  Energy = -424.83660507
C  -0.2406954574  0.0093763345 -0.4815853494
C  -0.4025861142  0.7312439356 -1.6793274289
H  -0.3552412107  0.1122077438 -2.5737015947
O  -0.0014566118 -1.2649683765 -0.5221719272
H   1.2376589757 -1.3770041721 -0.4626849855
O   2.0336284121  0.7512410219 -2.0680829136
H   2.2086263274  0.4077273685 -2.9451990380
C   0.0825092487  0.7689319061  0.7690276428
H  -0.4337158951  1.7149793193  0.8677658150
H  -0.1305561160  0.1254048518  1.6162218321
H   1.1582650716  0.9463135057  0.7131784554
C  -2.0643393144  0.2340934098 -0.8068230434
H  -2.3100403126  1.1596176695 -0.2966762726
H  -2.4679588623  0.1403716271 -1.8099485141
H  -2.3090734894 -0.6559759805 -0.2149154497
C  -0.4374754071  2.2173801030 -1.9420905916
H   0.3425012533  2.4618122943 -2.6616463829
H  -1.4048047845  2.4635187489 -2.3750849665
H  -0.2717406865  2.8079068415 -1.0498456247
O   2.4050766141 -1.1164643469 -0.4530006509
H   3.0674666832 -1.7439234096 -0.7544253131
H   2.3038878186  0.0069237288 -1.3912012427
22
Image 19  Energy = -424.85179311
C  -0.2126983194 -0.0093781009 -0.4759890646
C  -0.4517029449  0.7225264324 -1.6609466823
H  -0.3733332109  0.1087424138 -2.5586800329
O  -0.0383725134 -1.2632411114 -0.5114996647
H   1.3836499820 -1.3851199858 -0.4652183948
O   2.0696647710  0.7604715341 -2.0737052295
H   2.2080722599  0.4037783947 -2.9524390354
C   0.0879583594  0.7629712106  0.7763749493
H  -0.4338698599  1.7092956004  0.8586665570
H  -0.1265466847  0.1240799838  1.6248707252
H   1.1637608833  0.9500738578  0.7251123618
C  -2.0722582121  0.2601050620 -0.8448841694
H  -2.3268439308  1.1725420338 -0.3124272055
H  -2.5248605294  0.1449572828 -1.8256324645
H  -2.2884754919 -0.6281971507 -0.2368452981
C  -0.4520021951  2.2109165390 -1.9316874359
H   0.3361673074  2.4387783776 -2.6500200472
H  -1.4102408176  2.4767574102 -2.3743494308
H  -0.2761018509  2.8079616117 -1.0451948941
O   2.4059099848 -1.1250901546 -0.4277003769
H   3.0385777257 -1.7708964400 -0.7510480536
H   2.3034814166  0.0286797680 -1.4089742904
22
Image 20  Energy = -424.86991701
C  -0.1487275981 -0.0199963658 -0.4670315346
C  -0.5684205285  0.6981898320 -1.6322480422
H  -0.3927635629  0.1105489515 -2.5384096494
O  -0.0495066237 -1.2590939820 -0.4949876643
H   1.4574982752 -1.4071904331 -0.4568729679
O   2.0991285378  0.7658799268 -2.0744722703
H   2.1967487705  0.4030765362 -2.9551764434
C   0.1048334204  0.7556070911  0.7885668316
H  -0.4280422101  1.7007999755  0.8533576473
H  -0.1197555278  0.1238642259  1.6365461025
H   1.1762672519  0.9569718496  0.7423492516
C  -2.0696081480  0.2954343051 -0.9121870820
H  -2.3390663406  1.1766068479 -0.3342568324
H  -2.5795307666  0.1490680674 -1.8457956440
H  -2.2604329088 -0.5930138186 -0.2721938315
C  -0.4638696090  2.1990326370 -1.9220936733
H   0.3314188118  2.4173319319 -2.6391582361
H  -1.4116088836  2.4939824957 -2.3733697749
H  -0.2819650416  2.8080958961 -1.0420045848
O   2.4225803894 -1.1284607551 -0.4133612773
H   3.0291694248 -1.7909680765 -0.7478676246
H   2.3055894586  0.0449475521 -1.4215493143
22
Image 21  Energy = -424.89415764
C  -0.1045411183 -0.0220972123 -0.4591300618
C  -0.6475768198  0.6829132838 -1.6123692135
H  -0.4305602012  0.1073637316 -2.5151225707
O  -0.0312928105 -1.2505553046 -0.4867494786
H   1.5338890529 -1.4560082898 -0.4231421087
O   2.1266200915  0.7836195378 -2.0805077656
H   2.1909805966  0.4041639638 -2.9580923942
C   0.1343907558  0.7514062605  0.8004721101
H  -0.4156649153  1.6887277805  0.8510607310
H  -0.1017828252  0.1231203450  1.6504983189
H   1.2008407955  0.9712603909  0.7743514096
C  -2.1009499154  0.3295923489 -0.9784443405
H  -2.3711909388  1.1905570842 -0.3716594781
H  -2.6757429085  0.1664124347 -1.8713481059
H  -2.2384391394 -0.5533570016 -0.3246238221
C  -0.4838513845  2.1855408269 -1.9132867414
H   0.3244130412  2.3804391558 -2.6227822050
H  -1.4159257717  2.5198914444 -2.3731634743
H  -0.2927870563  2.8024153182 -1.0372595954
O   2.4695064068 -1.1485175277 -0.3829972347
H   3.0374942995 -1.8241144804 -0.7576574184
H   2.3021075764  0.0679402153 -1.4302638932
22
Image 22  Energy = -424.91032394
C  -0.0840347934 -0.0166893393 -0.4567130286
C  -0.6989852144  0.6700549480 -1.6014141211
H  -0.4759300655  0.0864597457 -2.4945018482
O   0.0144268488 -1.2417970776 -0.4892658742
H   1.5999577593 -1.4991578674 -0.4024666631
O   2.1278327693  0.7947825928 -2.0889296448
H   2.2200287916  0.4063699367 -2.9607210619
C   0.1575993228  0.7507116716  0.8061465541
H  -0.4120299516  1.6761476114  0.8421161939
H  -0.0797409691  0.1208314429  1.6574503455
H   1.2196165646  0.9902648324  0.7964113705
C  -2.1417623704  0.3646382075 -1.0247709952
H  -2.4130340564  1.2160165917 -0.4028392003
H  -2.7848076557  0.2163309661 -1.8785302485
H  -2.2386431251 -0.5173621238 -0.3770959917
C  -0.5025763335  2.1690831359 -1.9049262545
H   0.3173401277  2.3405962677 -2.6027299956
H  -1.4219507833  2.5319449274 -2.3707010030
H  -0.3082368701  2.7810682884 -1.0250390123
O   2.5300971313 -1.1901366358 -0.3347331961
H   3.0756749806 -1.8433744928 -0.7727736848
H   2.3090938336  0.0939296323 -1.4361901218
22
Image 23  Energy = -424.92174883
C  -0.0795684517 -0.0187492059 -0.4504350992
C  -0.7467683208  0.6566415713 -1.5955424014
H  -0.5348828582  0.0673263252 -2.4869476571
O   0.0560465798 -1.2342287142 -0.4798415941
H   1.6505615953 -1.5068912060 -0.3844959009
O   2.1476644133  0.7884299035 -2.0986434941
H   2.2762893324  0.4322265814 -2.9791163425
C   0.1708066487  0.7546890600  0.8096253196
H  -0.4150330794  1.6679305052  0.8403496616
H  -0.0602278678  0.1234320831  1.6632606870
H   1.2272024644  1.0183856426  0.8202140525
C  -2.1901220943  0.3947044518 -1.0544432227
H  -2.4623161499  1.2349557319 -0.4189970892
H  -2.8793095346  0.2750562757 -1.8805554509
H  -2.2656251952 -0.4964786918 -0.4299230146
C  -0.5191989053  2.1504747245 -1.8961192932
H   0.3096201079  2.3087769719 -2.5826917517
H  -1.4252296523  2.5395457612 -2.3659016358
H  -0.3227503072  2.7495862696 -1.0085416033
O   2.5855909012 -1.2064334903 -0.3290650620
H   3.1189194457 -1.8817517276 -0.7468479253
H   2.3682675781  0.0830850805 -1.4675573559
22
Image 24  Energy = -424.92526326
C  -0.0834851521 -0.0047146711 -0.4480110787
C  -0.8045125778  0.6547577571 -1.5845757519
H  -0.6014097492  0.0634126590 -2.4769802495
O   0.0991833861 -1.2117890962 -0.4860120250
H   1.7044623355 -1.4972925158 -0.3546711949
O   2.1540277441  0.7387524765 -2.1325807096
H   2.4346482413  0.4653272159 -3.0071848036
C   0.1798828464  0.7702060799  0.8116851930
H  -0.4195598742  1.6728672693  0.8540613370
H  -0.0366497093  0.1339470608  1.6656896355
H   1.2305992254  1.0557056177  0.8402586805
C  -2.2483899356  0.4151912119 -1.0663150501
H  -2.5360112366  1.2494249420 -0.4290791420
H  -2.9508371880  0.3113251021 -1.8857918907
H  -2.3127754791 -0.4889971404 -0.4617948248
C  -0.5479198397  2.1419269691 -1.8842855708
H   0.2889757513  2.2741470484 -2.5648206508
H  -1.4400857295  2.5635150691 -2.3524162610
H  -0.3394279235  2.7273721955 -0.9916389558
O   2.6510969763 -1.2272979989 -0.3433876081
H   3.1608983734 -1.9494015602 -0.7115502139
H   2.4272262992  0.0423269254 -1.5128166704
22
Image 25  Energy = -424.93073466
C  -0.0902086596  0.0079476117 -0.4494786607
C  -0.8522855259  0.6550976197 -1.5724899662
H  -0.6537485785  0.0568816617 -2.4608381440
O   0.1434010782 -1.1870357365 -0.5061409589
H   1.7621607703 -1.4658558792 -0.3203106954
O   2.1577603203  0.7071860325 -2.1562018144
H   2.4908724065  0.4560277017 -3.0215428596
C   0.1938043352  0.7793178459  0.8087557218
H  -0.4055342557  1.6801121756  0.8706988313
H  -0.0065976915  0.1352268907  1.6608182674
H   1.2460035196  1.0636688078  0.8307888517
C  -2.3015132669  0.4288073085 -1.0806580930
H  -2.6081360628  1.2637421591 -0.4504043676
H  -2.9908759620  0.3358671053 -1.9134452882
H  -2.3762332086 -0.4817984608 -0.4890406146
C  -0.5698961452  2.1344838784 -1.8720729217
H   0.2875280762  2.2421038503 -2.5294595822
H  -1.4417442630  2.5799886952 -2.3548041751
H  -0.3693798932  2.7109256476 -0.9691945146
O   2.7221599125 -1.2463301731 -0.3303087455
H   3.1837797760 -2.0038434789 -0.6919457786
H   2.4886201318  0.0481923598 -1.5249421286
22
Image 26  Energy = -424.93440239
C  -0.0929240486  0.0146090419 -0.4452300017
C  -0.8822894959  0.6515764090 -1.5601814826
H  -0.6813218597  0.0492125951 -2.4449228181
O   0.1738754386 -1.1723199187 -0.5166568462
H   1.8040546203 -1.4450086991 -0.3004468342
O   2.1897548449  0.7381875196 -2.1005918834
H   2.3552227823  0.4457346830 -2.9989420966
C   0.2269279298  0.7832160615  0.8064977594
H  -0.3780033299  1.6771099140  0.9009847989
H   0.0710920086  0.1291621548  1.6602307395
H   1.2768786675  1.0781375151  0.7906867516
C  -2.3453430866  0.4394028719 -1.1140644413
H  -2.6685565268  1.2593663664 -0.4722919616
H  -3.0060227766  0.3873786658 -1.9747313287
H  -2.4561221123 -0.4925134948 -0.5616121347
C  -0.5780944088  2.1251918775 -1.8654885164
H   0.3016986818  2.2174993522 -2.4940254638
H  -1.4303261394  2.5738396907 -2.3778088380
H  -0.4035527454  2.7035089859 -0.9593003915
O   2.7739005158 -1.2718179919 -0.3067638164
H   3.1924966624 -2.0529747288 -0.6710077632
H   2.5665915552  0.0622181130 -1.5165502835
22
Image 27  Energy = -424.93674174
C  -0.0934848688  0.0181513808 -0.4543965798
C  -0.9069624072  0.6500826607 -1.5575330754
H  -0.7119310317  0.0453692695 -2.4431493700
O   0.2055079477 -1.1599094966 -0.5359086362
H   1.8516273210 -1.4226348963 -0.2790385830
O   2.2232467889  0.7572387929 -2.0375622670
H   2.2539984291  0.4192688536 -2.9343628586
C   0.2455485141  0.7873423035  0.7925357610
H  -0.3979610647  1.6482416133  0.9329242820
H   0.1768080554  0.1153890899  1.6433158403
H   1.2758379675  1.1397061069  0.7196485182
C  -2.3745401840  0.4517003629 -1.1281602969
H  -2.6843588322  1.2414124212 -0.4427503489
H  -3.0298875476  0.4733133597 -1.9954994990
H  -2.5172044233 -0.5092503863 -0.6364397448
C  -0.5911697312  2.1188946984 -1.8664141900
H   0.3107403962  2.2086294857 -2.4641159546
H  -1.4245476646  2.5618520638 -2.4133556605
H  -0.4516474316  2.7039066977 -0.9576510862
O   2.8298603718 -1.3132115355 -0.2965796052
H   3.1801575745 -2.1165755050 -0.6846327430
H   2.6402999122  0.0817984371 -1.4830909488
22
Image 28  Energy = -424.93709030
C  -0.1087325453  0.0011601401 -0.4626417705
C  -0.9531162219  0.6327128004 -1.5477914252
H  -0.7780449297  0.0235851446 -2.4341250413
O   0.2391594409 -1.1619864710 -0.5592434719
H   1.9281011925 -1.4289079381 -0.2698373666
O   2.2611033799  0.7583724082 -1.9990185355
H   2.2814349579  0.4026836717 -2.8890544268
C   0.2479200417  0.7838591137  0.7688580492
H  -0.4217399072  1.6194760335  0.9372029571
H   0.2523520032  0.1155339617  1.6257705289
H   1.2581368059  1.1772347573  0.6371502573
C  -2.4270089093  0.4931732621 -1.1266125284
H  -2.6935543260  1.2514939954 -0.3895706902
H  -3.0735149536  0.6260832845 -1.9918252775
H  -2.6346056503 -0.4908788318 -0.7096198791
C  -0.6055044103  2.0936074603 -1.8601680202
H   0.3267640389  2.1669833476 -2.4111844297
H  -1.4070070258  2.5355146629 -2.4527366982
H  -0.5118976118  2.6871487199 -0.9506889370
O   2.9052674401 -1.3352185955 -0.2994625699
H   3.2368142514 -2.1425244736 -0.6969251501
H   2.6876089566  0.0916070168 -1.4406930713
22
Image 29  Energy = -424.93806468
C  -0.1307384539 -0.0070994741 -0.4535184010
C  -0.9981551235  0.6189827380 -1.5271286765
H  -0.8444527654 -0.0060970442 -2.4058728440
O   0.2584946364 -1.1552662830 -0.5711962988
H   1.9758275417 -1.4295494951 -0.2961471611
O   2.2728957100  0.7414723387 -2.0173030863
H   2.4616417090  0.4786093612 -2.9198829308
C   0.2286529398  0.7717359071  0.7811753624
H  -0.4118003569  1.6324793239  0.9367893149
H   0.1969257380  0.1096631787  1.6424689998
H   1.2554596687  1.1256466973  0.6632243291
C  -2.4774873002  0.5222582234 -1.1144480424
H  -2.7373693737  1.2952560377 -0.3904242729
H  -3.1109940629  0.6618666539 -1.9899361263
H  -2.7181767850 -0.4520039645 -0.6916673536
C  -0.6092061542  2.0643961646 -1.8618994994
H   0.3029844988  2.0935214073 -2.4485619347
H  -1.4123139022  2.5408579771 -2.4243935424
H  -0.4501950901  2.6558276406 -0.9598222211
O   2.9509907615 -1.3264662798 -0.3100599588
H   3.2996382191 -2.1233054353 -0.7143133403
H   2.7073143630  0.0879259602 -1.4493002904
22
Image 30  Energy = -424.93910645
C  -0.1377593773 -0.0075252826 -0.4418048935
C  -1.0022239875  0.6169941527 -1.5180461428
H  -0.8456651323 -0.0104195919 -2.3945343069
O   0.2494765308 -1.1562678964 -0.5571119613
H   1.9614365018 -1.4157592489 -0.2927709946
O   2.2659453047  0.7096841998 -2.0692796511
H   2.5616436502  0.5059732688 -2.9586494397
C   0.2258793886  0.7745290060  0.7896241241
H  -0.4180129430  1.6305418978  0.9508255882
H   0.2087517282  0.1121477473  1.6510044824
H   1.2491785713  1.1355549650  0.6602955960
C  -2.4829453362  0.5202300683 -1.1089775438
H  -2.7491349519  1.3008989454 -0.3955372462
H  -3.1144668397  0.6445280213 -1.9882078131
H  -2.7204637575 -0.4493441042 -0.6737283934
C  -0.6084568362  2.0603828450 -1.8551910843
H   0.3052221963  2.0840332479 -2.4396369256
H  -1.4076936317  2.5392606756 -2.4211188160
H  -0.4488040137  2.6529180402 -0.9542874513
O   2.9370795288 -1.3103215884 -0.3074181769
H   3.2884446669 -2.1045954323 -0.7144847225
H   2.6925057360  0.0672673222 -1.4831828575
22
Image 31  Energy = -424.93956256
C  -0.1443804393 -0.0099070477 -0.4251510569
C  -0.9950183967  0.6148202847 -1.5105064216
H  -0.8286004625 -0.0128010322 -2.3854437837
O   0.2218830591 -1.1679347932 -0.5263754334
H   1.9333806045 -1.4181728164 -0.2756362763
O   2.2644797102  0.6909794874 -2.1260760012
H   2.6140941021  0.5075293682 -3.0005558827
C   0.2308098579  0.7830500311  0.7952479706
H  -0.4338865082  1.6207828411  0.9693153230
H   0.2583744531  0.1235528777  1.6582064802
H   1.2381398990  1.1766156387  0.6352144708
C  -2.4780786929  0.5129378425 -1.1112100024
H  -2.7489913954  1.2901434360 -0.3957643298
H  -3.1052507040  0.6394151293 -1.9929476602
H  -2.7152513501 -0.4584909144 -0.6802063015
C  -0.6037345195  2.0594568994 -1.8420597076
H   0.3272110549  2.0885347100 -2.3986458039
H  -1.3898843339  2.5271627094 -2.4352205214
H  -0.4791389660  2.6575746522 -0.9389254471
O   2.9057122132 -1.2893093871 -0.3063293554
H   3.2705064289 -2.0820516772 -0.7040719555
H   2.6675612901  0.0468227106 -1.5250771383
22
Image 32  Energy = -424.94031337
C  -0.1481016484 -0.0092177638 -0.4121218453
C  -0.9839048309  0.6159701840 -1.5072676274
H  -0.8029828701 -0.0078307800 -2.3822696715
O   0.1906383927 -1.1766870362 -0.4958478313
H   1.8967359169 -1.4197849286 -0.2634042272
O   2.2786786900  0.6768087372 -2.1652394947
H   2.6414245018  0.4734420991 -3.0301036307
C   0.2412276044  0.7983111352  0.7938283726
H  -0.4559700842  1.6047215228  0.9906059862
H   0.3348342268  0.1429265911  1.6545541830
H   1.2198624061  1.2436155602  0.5936322534
C  -2.4680636010  0.5004119809 -1.1177502302
H  -2.7401431471  1.2558802221 -0.3796382810
H  -3.0921965665  0.6521578843 -1.9970337068
H  -2.7025666109 -0.4836956772 -0.7149715931
C  -0.6039391000  2.0654438903 -1.8275007246
H   0.3548865695  2.1117376158 -2.3336200589
H  -1.3663995338  2.5110161158 -2.4670033361
H  -0.5441220729  2.6717462899 -0.9229133280
O   2.8673523568 -1.2783331400 -0.3062345087
H   3.2386510773 -2.0779118576 -0.6832743985
H   2.6540355420  0.0299830623 -1.5486447363
22
Image 33  Energy = -424.94102468
C  -0.1434530509 -0.0032824698 -0.4310742260
C  -0.9856168073  0.6234596760 -1.5192156840
H  -0.8096983616  0.0066584213 -2.4001946348
O   0.1830076787 -1.1746874013 -0.5117425514
H   1.8724968392 -1.4365985034 -0.2683694540
O   2.3000111379  0.6750475181 -2.1276509820
H   2.6529191645  0.4442251136 -2.9897199526
C   0.2586379214  0.8106592827  0.7649064324
H  -0.4688433715  1.5821057141  0.9926579991
H   0.4146030253  0.1545226161  1.6150157075
H   1.2052178468  1.3059285009  0.5320985369
C  -2.4631353538  0.4941637581 -1.1106198526
H  -2.7203627011  1.2198057669 -0.3380393397
H  -3.1032122860  0.6786329368 -1.9716689869
H  -2.6867287754 -0.5051061905 -0.7402891871
C  -0.6171977390  2.0766374160 -1.8324405117
H   0.3603151298  2.1375639711 -2.3004871265
H  -1.3603597889  2.5054735360 -2.5051350757
H  -0.6046097377  2.6878129254 -0.9293265312
O   2.8463740528 -1.3068058277 -0.2835198080
H   3.2170309456 -2.1044526259 -0.6650092660
H   2.6625413160  0.0289489029 -1.5023938077
22
Image 34  Energy = -424.94165897
C  -0.1428420836 -0.0051161419 -0.4534777704
C  -1.0026553725  0.6245903191 -1.5260022806
H  -0.8444008573  0.0099363540 -2.4119063450
O   0.1838978906 -1.1758387104 -0.5391258170
H   1.8725555690 -1.4512953201 -0.2684448183
O   2.3147200133  0.6686580086 -2.0997559082
H   2.6734313439  0.4342917260 -2.9585112471
C   0.2762564756  0.8149426505  0.7315382229
H  -0.4826672991  1.5417621334  1.0027057460
H   0.5090996870  0.1602296115  1.5641573390
H   1.1792996883  1.3673801328  0.4582809473
C  -2.4731814439  0.5010618894 -1.0921569874
H  -2.7039931327  1.1980877273 -0.2855793783
H  -3.1284510741  0.7289792201 -1.9312977877
H  -2.7017373121 -0.5091324483 -0.7561798294
C  -0.6302422859  2.0760863205 -1.8390829817
H   0.3621417189  2.1363780070 -2.2752020656
H  -1.3515205371  2.4974156747 -2.5395926596
H  -0.6484568689  2.6931693372 -0.9400626673
O   2.8463604607 -1.3205553370 -0.2571817126
H   3.2272285356 -2.1152010624 -0.6347380684
H   2.6750944423  0.0248841243 -1.4706019595
22
Image 35  Energy = -424.94155288
C  -0.1464189913 -0.0076837126 -0.4489830721
C  -1.0120203656  0.6229726546 -1.5173552404
H  -0.8555574658  0.0098807828 -2.4049914615
O   0.1804648192 -1.1774633483 -0.5311286893
H   1.8812426207 -1.4455019556 -0.2594091675
O   2.3097219624  0.6335425277 -2.1433429270
H   2.6908312154  0.3998117274 -2.9926187768
C   0.2831923708  0.8251377623  0.7235350657
H  -0.5097864719  1.4955704874  1.0409945762
H   0.6009644951  0.1797283191  1.5357054518
H   1.1287629495  1.4425557143  0.4101972072
C  -2.4832675180  0.5053964081 -1.0857357696
H  -2.7012925871  1.1674288678 -0.2466791468
H  -3.1354410629  0.7847451339 -1.9117579951
H  -2.7282239372 -0.5151952063 -0.7962037396
C  -0.6312836557  2.0727816954 -1.8250368820
H   0.3861398673  2.1317967925 -2.1996987747
H  -1.3095207329  2.4816892022 -2.5741979460
H  -0.7062303355  2.6998994147 -0.9357487727
O   2.8532231170 -1.3050834971 -0.2513426887
H   3.2400771163 -2.1066017227 -0.6077704711
H   2.6743602845  0.0053061188 -1.5006491209
22
Image 36  Energy = -424.94258646
C  -0.1476507478 -0.0042752124 -0.4313169788
C  -1.0088118852  0.6251374276 -1.5051342697
H  -0.8406145657  0.0155195646 -2.3932682434
O   0.1767232331 -1.1744671457 -0.5055772984
H   1.8877258047 -1.4322280646 -0.2509171266
O   2.2953430284  0.5878851658 -2.2103256448
H   2.6881766782  0.3413253536 -3.0507530677
C   0.2826464314  0.8393253069  0.7339636017
H  -0.5396582784  1.4554349527  1.0885226505
H   0.6681910423  0.2070924793  1.5257726201
H   1.0732915912  1.5147977401  0.3975799721
C  -2.4842798818  0.5029985366 -1.0909501875
H  -2.7032353666  1.1286488415 -0.2245858203
H  -3.1266717825  0.8262026677 -1.9086983535
H  -2.7405126477 -0.5270303935 -0.8486262834
C  -0.6264954106  2.0760830935 -1.8033924357
H   0.4154294823  2.1430455872 -2.1030103259
H  -1.2517065510  2.4657331838 -2.6067675167
H  -0.7744645331  2.7133809988 -0.9303412828
O   2.8585409394 -1.2862135473 -0.2587979133
H   3.2435232639 -2.0973079768 -0.5947942165
H   2.6644478750 -0.0203735658 -1.5508003964
22
Image 37  Energy = -424.94291491
C  -0.1470888852  0.0007180865 -0.4099584556
C  -0.9981764278  0.6284465603 -1.4931936183
H  -0.8145604127  0.0215487391 -2.3801350182
O   0.1764686847 -1.1694076126 -0.4767403478
H   1.8964329778 -1.4120575832 -0.2448779197
O   2.2705543872  0.5405842382 -2.2854046992
H   2.6618553544  0.2630092893 -3.1171239190
C   0.2749362356  0.8505146514  0.7552564738
H  -0.5715335544  1.4154414559  1.1389349243
H   0.7116418244  0.2289348920  1.5286963846
H   1.0176844215  1.5749073596  0.4128871742
C  -2.4786671257  0.5002550090 -1.1003089522
H  -2.7006481739  1.0837429991 -0.2056852286
H  -3.1098938076  0.8705597037 -1.9068344324
H  -2.7458536040 -0.5380878726 -0.9111626330
C  -0.6164477589  2.0809775147 -1.7833346114
H   0.4433129288  2.1597019062 -2.0101583417
H  -1.1858863757  2.4494921463 -2.6362690019
H  -0.8364794320  2.7273794480 -0.9329039901
O   2.8656617520 -1.2583484074 -0.2710460164
H   3.2503852731 -2.0771433731 -0.5878860790
H   2.6462391474 -0.0404546762 -1.6049695085
22
Image 38  Energy = -424.94005803
C  -0.1528387382 -0.0029399285 -0.3952171784
C  -0.9882627071  0.6319916839 -1.4854290114
H  -0.7960952625  0.0275661518 -2.3724999895
O   0.1752575229 -1.1728771325 -0.4654993792
H   1.9123134416 -1.3768054780 -0.2399339729
O   2.2500389534  0.4904494649 -2.3823638723
H   2.6407546126  0.1541130391 -3.1928022636
C   0.2511867047  0.8378821999  0.7830877363
H  -0.6068391855  1.3825047168  1.1713057625
H   0.6954508992  0.2131524925  1.5500245869
H   0.9816170348  1.5815549339  0.4555874639
C  -2.4733879312  0.5069286005 -1.1091039546
H  -2.6964017093  1.0637904044 -0.1979202090
H  -3.0950098401  0.9095147564 -1.9076768207
H  -2.7520351145 -0.5341699702 -0.9541024288
C  -0.5988210540  2.0843253707 -1.7644090652
H   0.4683705978  2.1656755304 -1.9572042710
H  -1.1384296206  2.4508341913 -2.6376409521
H  -0.8501824882  2.7320326416 -0.9223753563
O   2.8735653282 -1.1890866192 -0.2779437654
H   3.2858077315 -2.0090630491 -0.5548753580
H   2.6238781325 -0.0466597538 -1.6652257736
22
Image 39  Energy = -424.93949770
C  -0.1605500374 -0.0104069711 -0.3913229160
C  -0.9819920868  0.6340795027 -1.4831156901
H  -0.7818365567  0.0334252919 -2.3699076823
O   0.1783741170 -1.1769158568 -0.4724956322
H   1.9127504269 -1.3167650012 -0.2507361836
O   2.2336393081  0.4298319087 -2.4658129391
H   2.6388688619  0.0348358045 -3.2408789324
C   0.2267498027  0.8181779060  0.7988914986
H  -0.6309546596  1.3667321222  1.1807413326
H   0.6598977413  0.1845514206  1.5646001397
H   0.9623134360  1.5590235967  0.4774284844
C  -2.4680166648  0.5139639390 -1.1144632851
H  -2.6889615754  1.0593772564 -0.1963784026
H  -3.0916461470  0.9289452248 -1.9044959392
H  -2.7481542474 -0.5274923927 -0.9715429798
C  -0.5821407530  2.0867808210 -1.7409040477
H   0.4903671282  2.1676493299 -1.9023156480
H  -1.0951844938  2.4638767459 -2.6256993242
H  -0.8548603434  2.7258326132 -0.9001016633
O   2.8698414450 -1.1052203314 -0.2843662096
H   3.3071282420 -1.9253824837 -0.5211067409
H   2.6143045540 -0.0441860947 -1.7082355172
