36
Scanning combination 1/51: [3.0007]  Energy = -1371.4921128006
C  -0.6100000000  3.6423000000  3.0000000000
C  -1.8740000000  3.1823000000  3.0000000000
C  -2.8085000000  2.3981000000  3.0000000000
C  -3.4811000000  1.2332000000  3.0000000000
C  -3.6929000000  0.0318000000  3.0000000000
C  -3.4594000000 -1.2929000000  3.0000000000
C  -2.8494000000 -2.3494000000  3.0000000000
C  -1.8190000000 -3.2140000000  3.0000000000
C  -0.6725000000 -3.6313000000  3.0000000000
C   0.6725000000 -3.6313000000  3.0000000000
C   1.8190000000 -3.2140000000  3.0000000000
C   2.8494000000 -2.3494000000  3.0000000000
C   3.4594000000 -1.2929000000  3.0000000000
C   3.6929000000  0.0318000000  3.0000000000
C   3.4811000000  1.2332000000  3.0000000000
C   2.8085000000  2.3981000000  3.0000000000
C   1.8740000000  3.1823000000  3.0000000000
C   0.6100000000  3.6423000000  3.0000000000
C  -1.8190000000  3.2140000000  0.0000000000
C  -2.8494000000  2.3494000000  0.0000000000
C  -3.4594000000  1.2929000000  0.0000000000
C  -3.6929000000 -0.0318000000  0.0000000000
C  -3.4811000000 -1.2332000000  0.0000000000
C  -2.8085000000 -2.3981000000  0.0000000000
C  -1.8740000000 -3.1823000000  0.0000000000
C  -0.6100000000 -3.6423000000  0.0000000000
C   0.6100000000 -3.6423000000  0.0000000000
C   1.8740000000 -3.1823000000  0.0000000000
C   2.8085000000 -2.3981000000  0.0000000000
C   3.4811000000 -1.2332000000  0.0000000000
C   3.6929000000 -0.0318000000  0.0000000000
C   3.4594000000  1.2929000000  0.0000000000
C   2.8494000000  2.3494000000  0.0000000000
C   1.8190000000  3.2140000000  0.0000000000
C   0.6725000000  3.6313000000  0.0000000000
C  -0.6725000000  3.6313000000  0.0000000000
36
Scanning combination 2/51: [3.1007]  Energy = -1371.4957202816
C  -0.6100000000  3.6423000000  3.0000000000
C  -1.8740000000  3.1823000000  3.0000000000
C  -2.8085000000  2.3981000000  3.0000000000
C  -3.4811000000  1.2332000000  3.0000000000
C  -3.6929000000  0.0318000000  3.0000000000
C  -3.4594000000 -1.2929000000  3.0000000000
C  -2.8494000000 -2.3494000000  3.0000000000
C  -1.8190000000 -3.2140000000  3.0000000000
C  -0.6725000000 -3.6313000000  3.0000000000
C   0.6725000000 -3.6313000000  3.0000000000
C   1.8190000000 -3.2140000000  3.0000000000
C   2.8494000000 -2.3494000000  3.0000000000
C   3.4594000000 -1.2929000000  3.0000000000
C   3.6929000000  0.0318000000  3.0000000000
C   3.4811000000  1.2332000000  3.0000000000
C   2.8085000000  2.3981000000  3.0000000000
C   1.8740000000  3.1823000000  3.0000000000
C   0.6100000000  3.6423000000  3.0000000000
C  -1.8210828674  3.2136334153 -0.0999776339
C  -2.8514828674  2.3490334153 -0.0999776339
C  -3.4614828674  1.2925334153 -0.0999776339
C  -3.6949828674 -0.0321665847 -0.0999776339
C  -3.4831828674 -1.2335665847 -0.0999776339
C  -2.8105828674 -2.3984665847 -0.0999776339
C  -1.8760828674 -3.1826665847 -0.0999776339
C  -0.6120828674 -3.6426665847 -0.0999776339
C   0.6079171326 -3.6426665847 -0.0999776339
C   1.8719171326 -3.1826665847 -0.0999776339
C   2.8064171326 -2.3984665847 -0.0999776339
C   3.4790171326 -1.2335665847 -0.0999776339
C   3.6908171326 -0.0321665847 -0.0999776339
C   3.4573171326  1.2925334153 -0.0999776339
C   2.8473171326  2.3490334153 -0.0999776339
C   1.8169171326  3.2136334153 -0.0999776339
C   0.6704171326  3.6309334153 -0.0999776339
C  -0.6745828674  3.6309334153 -0.0999776339
36
Scanning combination 3/51: [3.2007]  Energy = -1371.5046336244
C  -0.6100000000  3.6423000000  3.0000000000
C  -1.8740000000  3.1823000000  3.0000000000
C  -2.8085000000  2.3981000000  3.0000000000
C  -3.4811000000  1.2332000000  3.0000000000
C  -3.6929000000  0.0318000000  3.0000000000
C  -3.4594000000 -1.2929000000  3.0000000000
C  -2.8494000000 -2.3494000000  3.0000000000
C  -1.8190000000 -3.2140000000  3.0000000000
C  -0.6725000000 -3.6313000000  3.0000000000
C   0.6725000000 -3.6313000000  3.0000000000
C   1.8190000000 -3.2140000000  3.0000000000
C   2.8494000000 -2.3494000000  3.0000000000
C   3.4594000000 -1.2929000000  3.0000000000
C   3.6929000000  0.0318000000  3.0000000000
C   3.4811000000  1.2332000000  3.0000000000
C   2.8085000000  2.3981000000  3.0000000000
C   1.8740000000  3.1823000000  3.0000000000
C   0.6100000000  3.6423000000  3.0000000000
C  -1.8231657347  3.2132668307 -0.1999552678
C  -2.8535657347  2.3486668307 -0.1999552678
C  -3.4635657347  1.2921668307 -0.1999552678
C  -3.6970657347 -0.0325331693 -0.1999552678
C  -3.4852657347 -1.2339331693 -0.1999552678
C  -2.8126657347 -2.3988331693 -0.1999552678
C  -1.8781657347 -3.1830331693 -0.1999552678
C  -0.6141657347 -3.6430331693 -0.1999552678
C   0.6058342653 -3.6430331693 -0.1999552678
C   1.8698342653 -3.1830331693 -0.1999552678
C   2.8043342653 -2.3988331693 -0.1999552678
C   3.4769342653 -1.2339331693 -0.1999552678
C   3.6887342653 -0.0325331693 -0.1999552678
C   3.4552342653  1.2921668307 -0.1999552678
C   2.8452342653  2.3486668307 -0.1999552678
C   1.8148342653  3.2132668307 -0.1999552678
C   0.6683342653  3.6305668307 -0.1999552678
C  -0.6766657347  3.6305668307 -0.1999552678
36
Scanning combination 4/51: [3.3007]  Energy = -1371.5157680723
C  -0.6100000000  3.6423000000  3.0000000000
C  -1.8740000000  3.1823000000  3.0000000000
C  -2.8085000000  2.3981000000  3.0000000000
C  -3.4811000000  1.2332000000  3.0000000000
C  -3.6929000000  0.0318000000  3.0000000000
C  -3.4594000000 -1.2929000000  3.0000000000
C  -2.8494000000 -2.3494000000  3.0000000000
C  -1.8190000000 -3.2140000000  3.0000000000
C  -0.6725000000 -3.6313000000  3.0000000000
C   0.6725000000 -3.6313000000  3.0000000000
C   1.8190000000 -3.2140000000  3.0000000000
C   2.8494000000 -2.3494000000  3.0000000000
C   3.4594000000 -1.2929000000  3.0000000000
C   3.6929000000  0.0318000000  3.0000000000
C   3.4811000000  1.2332000000  3.0000000000
C   2.8085000000  2.3981000000  3.0000000000
C   1.8740000000  3.1823000000  3.0000000000
C   0.6100000000  3.6423000000  3.0000000000
C  -1.8252486021  3.2129002460 -0.2999329017
C  -2.8556486021  2.3483002460 -0.2999329017
C  -3.4656486021  1.2918002460 -0.2999329017
C  -3.6991486021 -0.0328997540 -0.2999329017
C  -3.4873486021 -1.2342997540 -0.2999329017
C  -2.8147486021 -2.3991997540 -0.2999329017
C  -1.8802486021 -3.1833997540 -0.2999329017
C  -0.6162486021 -3.6433997540 -0.2999329017
C   0.6037513979 -3.6433997540 -0.2999329017
C   1.8677513979 -3.1833997540 -0.2999329017
C   2.8022513979 -2.3991997540 -0.2999329017
C   3.4748513979 -1.2342997540 -0.2999329017
C   3.6866513979 -0.0328997540 -0.2999329017
C   3.4531513979  1.2918002460 -0.2999329017
C   2.8431513979  2.3483002460 -0.2999329017
C   1.8127513979  3.2129002460 -0.2999329017
C   0.6662513979  3.6302002460 -0.2999329017
C  -0.6787486021  3.6302002460 -0.2999329017
36
Scanning combination 5/51: [3.4007]  Energy = -1371.5233062803
C  -0.6100000000  3.6423000000  3.0000000000
C  -1.8740000000  3.1823000000  3.0000000000
C  -2.8085000000  2.3981000000  3.0000000000
C  -3.4811000000  1.2332000000  3.0000000000
C  -3.6929000000  0.0318000000  3.0000000000
C  -3.4594000000 -1.2929000000  3.0000000000
C  -2.8494000000 -2.3494000000  3.0000000000
C  -1.8190000000 -3.2140000000  3.0000000000
C  -0.6725000000 -3.6313000000  3.0000000000
C   0.6725000000 -3.6313000000  3.0000000000
C   1.8190000000 -3.2140000000  3.0000000000
C   2.8494000000 -2.3494000000  3.0000000000
C   3.4594000000 -1.2929000000  3.0000000000
C   3.6929000000  0.0318000000  3.0000000000
C   3.4811000000  1.2332000000  3.0000000000
C   2.8085000000  2.3981000000  3.0000000000
C   1.8740000000  3.1823000000  3.0000000000
C   0.6100000000  3.6423000000  3.0000000000
C  -1.8273314695  3.2125336614 -0.3999105356
C  -2.8577314695  2.3479336614 -0.3999105356
C  -3.4677314695  1.2914336614 -0.3999105356
C  -3.7012314695 -0.0332663386 -0.3999105356
C  -3.4894314695 -1.2346663386 -0.3999105356
C  -2.8168314695 -2.3995663386 -0.3999105356
C  -1.8823314695 -3.1837663386 -0.3999105356
C  -0.6183314695 -3.6437663386 -0.3999105356
C   0.6016685305 -3.6437663386 -0.3999105356
C   1.8656685305 -3.1837663386 -0.3999105356
C   2.8001685305 -2.3995663386 -0.3999105356
C   3.4727685305 -1.2346663386 -0.3999105356
C   3.6845685305 -0.0332663386 -0.3999105356
C   3.4510685305  1.2914336614 -0.3999105356
C   2.8410685305  2.3479336614 -0.3999105356
C   1.8106685305  3.2125336614 -0.3999105356
C   0.6641685305  3.6298336614 -0.3999105356
C  -0.6808314695  3.6298336614 -0.3999105356
36
Scanning combination 6/51: [3.5007]  Energy = -1371.5324233639
C  -0.6100000000  3.6423000000  3.0000000000
C  -1.8740000000  3.1823000000  3.0000000000
C  -2.8085000000  2.3981000000  3.0000000000
C  -3.4811000000  1.2332000000  3.0000000000
C  -3.6929000000  0.0318000000  3.0000000000
C  -3.4594000000 -1.2929000000  3.0000000000
C  -2.8494000000 -2.3494000000  3.0000000000
C  -1.8190000000 -3.2140000000  3.0000000000
C  -0.6725000000 -3.6313000000  3.0000000000
C   0.6725000000 -3.6313000000  3.0000000000
C   1.8190000000 -3.2140000000  3.0000000000
C   2.8494000000 -2.3494000000  3.0000000000
C   3.4594000000 -1.2929000000  3.0000000000
C   3.6929000000  0.0318000000  3.0000000000
C   3.4811000000  1.2332000000  3.0000000000
C   2.8085000000  2.3981000000  3.0000000000
C   1.8740000000  3.1823000000  3.0000000000
C   0.6100000000  3.6423000000  3.0000000000
C  -1.8294143369  3.2121670767 -0.4998881695
C  -2.8598143369  2.3475670767 -0.4998881695
C  -3.4698143369  1.2910670767 -0.4998881695
C  -3.7033143369 -0.0336329233 -0.4998881695
C  -3.4915143369 -1.2350329233 -0.4998881695
C  -2.8189143369 -2.3999329233 -0.4998881695
C  -1.8844143369 -3.1841329233 -0.4998881695
C  -0.6204143369 -3.6441329233 -0.4998881695
C   0.5995856631 -3.6441329233 -0.4998881695
C   1.8635856631 -3.1841329233 -0.4998881695
C   2.7980856631 -2.3999329233 -0.4998881695
C   3.4706856631 -1.2350329233 -0.4998881695
C   3.6824856631 -0.0336329233 -0.4998881695
C   3.4489856631  1.2910670767 -0.4998881695
C   2.8389856631  2.3475670767 -0.4998881695
C   1.8085856631  3.2121670767 -0.4998881695
C   0.6620856631  3.6294670767 -0.4998881695
C  -0.6829143369  3.6294670767 -0.4998881695
36
Scanning combination 7/51: [3.6007]  Energy = -1371.5442805442
C  -0.6100000000  3.6423000000  3.0000000000
C  -1.8740000000  3.1823000000  3.0000000000
C  -2.8085000000  2.3981000000  3.0000000000
C  -3.4811000000  1.2332000000  3.0000000000
C  -3.6929000000  0.0318000000  3.0000000000
C  -3.4594000000 -1.2929000000  3.0000000000
C  -2.8494000000 -2.3494000000  3.0000000000
C  -1.8190000000 -3.2140000000  3.0000000000
C  -0.6725000000 -3.6313000000  3.0000000000
C   0.6725000000 -3.6313000000  3.0000000000
C   1.8190000000 -3.2140000000  3.0000000000
C   2.8494000000 -2.3494000000  3.0000000000
C   3.4594000000 -1.2929000000  3.0000000000
C   3.6929000000  0.0318000000  3.0000000000
C   3.4811000000  1.2332000000  3.0000000000
C   2.8085000000  2.3981000000  3.0000000000
C   1.8740000000  3.1823000000  3.0000000000
C   0.6100000000  3.6423000000  3.0000000000
C  -1.8314972042  3.2118004921 -0.5998658034
C  -2.8618972042  2.3472004921 -0.5998658034
C  -3.4718972042  1.2907004921 -0.5998658034
C  -3.7053972042 -0.0339995079 -0.5998658034
C  -3.4935972042 -1.2353995079 -0.5998658034
C  -2.8209972042 -2.4002995079 -0.5998658034
C  -1.8864972042 -3.1844995079 -0.5998658034
C  -0.6224972042 -3.6444995079 -0.5998658034
C   0.5975027958 -3.6444995079 -0.5998658034
C   1.8615027958 -3.1844995079 -0.5998658034
C   2.7960027958 -2.4002995079 -0.5998658034
C   3.4686027958 -1.2353995079 -0.5998658034
C   3.6804027958 -0.0339995079 -0.5998658034
C   3.4469027958  1.2907004921 -0.5998658034
C   2.8369027958  2.3472004921 -0.5998658034
C   1.8065027958  3.2118004921 -0.5998658034
C   0.6600027958  3.6291004921 -0.5998658034
C  -0.6849972042  3.6291004921 -0.5998658034
36
Scanning combination 8/51: [3.7007]  Energy = -1371.5544953792
C  -0.6100000000  3.6423000000  3.0000000000
C  -1.8740000000  3.1823000000  3.0000000000
C  -2.8085000000  2.3981000000  3.0000000000
C  -3.4811000000  1.2332000000  3.0000000000
C  -3.6929000000  0.0318000000  3.0000000000
C  -3.4594000000 -1.2929000000  3.0000000000
C  -2.8494000000 -2.3494000000  3.0000000000
C  -1.8190000000 -3.2140000000  3.0000000000
C  -0.6725000000 -3.6313000000  3.0000000000
C   0.6725000000 -3.6313000000  3.0000000000
C   1.8190000000 -3.2140000000  3.0000000000
C   2.8494000000 -2.3494000000  3.0000000000
C   3.4594000000 -1.2929000000  3.0000000000
C   3.6929000000  0.0318000000  3.0000000000
C   3.4811000000  1.2332000000  3.0000000000
C   2.8085000000  2.3981000000  3.0000000000
C   1.8740000000  3.1823000000  3.0000000000
C   0.6100000000  3.6423000000  3.0000000000
C  -1.8335800716  3.2114339074 -0.6998434373
C  -2.8639800716  2.3468339074 -0.6998434373
C  -3.4739800716  1.2903339074 -0.6998434373
C  -3.7074800716 -0.0343660926 -0.6998434373
C  -3.4956800716 -1.2357660926 -0.6998434373
C  -2.8230800716 -2.4006660926 -0.6998434373
C  -1.8885800716 -3.1848660926 -0.6998434373
C  -0.6245800716 -3.6448660926 -0.6998434373
C   0.5954199284 -3.6448660926 -0.6998434373
C   1.8594199284 -3.1848660926 -0.6998434373
C   2.7939199284 -2.4006660926 -0.6998434373
C   3.4665199284 -1.2357660926 -0.6998434373
C   3.6783199284 -0.0343660926 -0.6998434373
C   3.4448199284  1.2903339074 -0.6998434373
C   2.8348199284  2.3468339074 -0.6998434373
C   1.8044199284  3.2114339074 -0.6998434373
C   0.6579199284  3.6287339074 -0.6998434373
C  -0.6870800716  3.6287339074 -0.6998434373
36
Scanning combination 9/51: [3.8007]  Energy = -1371.5567849177
C  -0.6100000000  3.6423000000  3.0000000000
C  -1.8740000000  3.1823000000  3.0000000000
C  -2.8085000000  2.3981000000  3.0000000000
C  -3.4811000000  1.2332000000  3.0000000000
C  -3.6929000000  0.0318000000  3.0000000000
C  -3.4594000000 -1.2929000000  3.0000000000
C  -2.8494000000 -2.3494000000  3.0000000000
C  -1.8190000000 -3.2140000000  3.0000000000
C  -0.6725000000 -3.6313000000  3.0000000000
C   0.6725000000 -3.6313000000  3.0000000000
C   1.8190000000 -3.2140000000  3.0000000000
C   2.8494000000 -2.3494000000  3.0000000000
C   3.4594000000 -1.2929000000  3.0000000000
C   3.6929000000  0.0318000000  3.0000000000
C   3.4811000000  1.2332000000  3.0000000000
C   2.8085000000  2.3981000000  3.0000000000
C   1.8740000000  3.1823000000  3.0000000000
C   0.6100000000  3.6423000000  3.0000000000
C  -1.8356629390  3.2110673227 -0.7998210712
C  -2.8660629390  2.3464673227 -0.7998210712
C  -3.4760629390  1.2899673227 -0.7998210712
C  -3.7095629390 -0.0347326773 -0.7998210712
C  -3.4977629390 -1.2361326773 -0.7998210712
C  -2.8251629390 -2.4010326773 -0.7998210712
C  -1.8906629390 -3.1852326773 -0.7998210712
C  -0.6266629390 -3.6452326773 -0.7998210712
C   0.5933370610 -3.6452326773 -0.7998210712
C   1.8573370610 -3.1852326773 -0.7998210712
C   2.7918370610 -2.4010326773 -0.7998210712
C   3.4644370610 -1.2361326773 -0.7998210712
C   3.6762370610 -0.0347326773 -0.7998210712
C   3.4427370610  1.2899673227 -0.7998210712
C   2.8327370610  2.3464673227 -0.7998210712
C   1.8023370610  3.2110673227 -0.7998210712
C   0.6558370610  3.6283673227 -0.7998210712
C  -0.6891629390  3.6283673227 -0.7998210712
36
Scanning combination 10/51: [3.9007]  Energy = -1371.5540784308
C  -0.6100000000  3.6423000000  3.0000000000
C  -1.8740000000  3.1823000000  3.0000000000
C  -2.8085000000  2.3981000000  3.0000000000
C  -3.4811000000  1.2332000000  3.0000000000
C  -3.6929000000  0.0318000000  3.0000000000
C  -3.4594000000 -1.2929000000  3.0000000000
C  -2.8494000000 -2.3494000000  3.0000000000
C  -1.8190000000 -3.2140000000  3.0000000000
C  -0.6725000000 -3.6313000000  3.0000000000
C   0.6725000000 -3.6313000000  3.0000000000
C   1.8190000000 -3.2140000000  3.0000000000
C   2.8494000000 -2.3494000000  3.0000000000
C   3.4594000000 -1.2929000000  3.0000000000
C   3.6929000000  0.0318000000  3.0000000000
C   3.4811000000  1.2332000000  3.0000000000
C   2.8085000000  2.3981000000  3.0000000000
C   1.8740000000  3.1823000000  3.0000000000
C   0.6100000000  3.6423000000  3.0000000000
C  -1.8377458064  3.2107007381 -0.8997987051
C  -2.8681458064  2.3461007381 -0.8997987051
C  -3.4781458064  1.2896007381 -0.8997987051
C  -3.7116458064 -0.0350992619 -0.8997987051
C  -3.4998458064 -1.2364992619 -0.8997987051
C  -2.8272458064 -2.4013992619 -0.8997987051
C  -1.8927458064 -3.1855992619 -0.8997987051
C  -0.6287458064 -3.6455992619 -0.8997987051
C   0.5912541936 -3.6455992619 -0.8997987051
C   1.8552541936 -3.1855992619 -0.8997987051
C   2.7897541936 -2.4013992619 -0.8997987051
C   3.4623541936 -1.2364992619 -0.8997987051
C   3.6741541936 -0.0350992619 -0.8997987051
C   3.4406541936  1.2896007381 -0.8997987051
C   2.8306541936  2.3461007381 -0.8997987051
C   1.8002541936  3.2107007381 -0.8997987051
C   0.6537541936  3.6280007381 -0.8997987051
C  -0.6912458064  3.6280007381 -0.8997987051
36
Scanning combination 11/51: [4.0007]  Energy = -1371.5525811407
C  -0.6100000000  3.6423000000  3.0000000000
C  -1.8740000000  3.1823000000  3.0000000000
C  -2.8085000000  2.3981000000  3.0000000000
C  -3.4811000000  1.2332000000  3.0000000000
C  -3.6929000000  0.0318000000  3.0000000000
C  -3.4594000000 -1.2929000000  3.0000000000
C  -2.8494000000 -2.3494000000  3.0000000000
C  -1.8190000000 -3.2140000000  3.0000000000
C  -0.6725000000 -3.6313000000  3.0000000000
C   0.6725000000 -3.6313000000  3.0000000000
C   1.8190000000 -3.2140000000  3.0000000000
C   2.8494000000 -2.3494000000  3.0000000000
C   3.4594000000 -1.2929000000  3.0000000000
C   3.6929000000  0.0318000000  3.0000000000
C   3.4811000000  1.2332000000  3.0000000000
C   2.8085000000  2.3981000000  3.0000000000
C   1.8740000000  3.1823000000  3.0000000000
C   0.6100000000  3.6423000000  3.0000000000
C  -1.8398286737  3.2103341534 -0.9997763389
C  -2.8702286737  2.3457341534 -0.9997763389
C  -3.4802286737  1.2892341534 -0.9997763389
C  -3.7137286737 -0.0354658466 -0.9997763389
C  -3.5019286737 -1.2368658466 -0.9997763389
C  -2.8293286737 -2.4017658466 -0.9997763389
C  -1.8948286737 -3.1859658466 -0.9997763389
C  -0.6308286737 -3.6459658466 -0.9997763389
C   0.5891713263 -3.6459658466 -0.9997763389
C   1.8531713263 -3.1859658466 -0.9997763389
C   2.7876713263 -2.4017658466 -0.9997763389
C   3.4602713263 -1.2368658466 -0.9997763389
C   3.6720713263 -0.0354658466 -0.9997763389
C   3.4385713263  1.2892341534 -0.9997763389
C   2.8285713263  2.3457341534 -0.9997763389
C   1.7981713263  3.2103341534 -0.9997763389
C   0.6516713263  3.6276341534 -0.9997763389
C  -0.6933286737  3.6276341534 -0.9997763389
36
Scanning combination 12/51: [4.1007]  Energy = -1371.5513131140
C  -0.6100000000  3.6423000000  3.0000000000
C  -1.8740000000  3.1823000000  3.0000000000
C  -2.8085000000  2.3981000000  3.0000000000
C  -3.4811000000  1.2332000000  3.0000000000
C  -3.6929000000  0.0318000000  3.0000000000
C  -3.4594000000 -1.2929000000  3.0000000000
C  -2.8494000000 -2.3494000000  3.0000000000
C  -1.8190000000 -3.2140000000  3.0000000000
C  -0.6725000000 -3.6313000000  3.0000000000
C   0.6725000000 -3.6313000000  3.0000000000
C   1.8190000000 -3.2140000000  3.0000000000
C   2.8494000000 -2.3494000000  3.0000000000
C   3.4594000000 -1.2929000000  3.0000000000
C   3.6929000000  0.0318000000  3.0000000000
C   3.4811000000  1.2332000000  3.0000000000
C   2.8085000000  2.3981000000  3.0000000000
C   1.8740000000  3.1823000000  3.0000000000
C   0.6100000000  3.6423000000  3.0000000000
C  -1.8419115411  3.2099675688 -1.0997539728
C  -2.8723115411  2.3453675688 -1.0997539728
C  -3.4823115411  1.2888675688 -1.0997539728
C  -3.7158115411 -0.0358324312 -1.0997539728
C  -3.5040115411 -1.2372324312 -1.0997539728
C  -2.8314115411 -2.4021324312 -1.0997539728
C  -1.8969115411 -3.1863324312 -1.0997539728
C  -0.6329115411 -3.6463324312 -1.0997539728
C   0.5870884589 -3.6463324312 -1.0997539728
C   1.8510884589 -3.1863324312 -1.0997539728
C   2.7855884589 -2.4021324312 -1.0997539728
C   3.4581884589 -1.2372324312 -1.0997539728
C   3.6699884589 -0.0358324312 -1.0997539728
C   3.4364884589  1.2888675688 -1.0997539728
C   2.8264884589  2.3453675688 -1.0997539728
C   1.7960884589  3.2099675688 -1.0997539728
C   0.6495884589  3.6272675688 -1.0997539728
C  -0.6954115411  3.6272675688 -1.0997539728
36
Scanning combination 13/51: [4.2007]  Energy = -1371.5471204986
C  -0.6100000000  3.6423000000  3.0000000000
C  -1.8740000000  3.1823000000  3.0000000000
C  -2.8085000000  2.3981000000  3.0000000000
C  -3.4811000000  1.2332000000  3.0000000000
C  -3.6929000000  0.0318000000  3.0000000000
C  -3.4594000000 -1.2929000000  3.0000000000
C  -2.8494000000 -2.3494000000  3.0000000000
C  -1.8190000000 -3.2140000000  3.0000000000
C  -0.6725000000 -3.6313000000  3.0000000000
C   0.6725000000 -3.6313000000  3.0000000000
C   1.8190000000 -3.2140000000  3.0000000000
C   2.8494000000 -2.3494000000  3.0000000000
C   3.4594000000 -1.2929000000  3.0000000000
C   3.6929000000  0.0318000000  3.0000000000
C   3.4811000000  1.2332000000  3.0000000000
C   2.8085000000  2.3981000000  3.0000000000
C   1.8740000000  3.1823000000  3.0000000000
C   0.6100000000  3.6423000000  3.0000000000
C  -1.8439944085  3.2096009841 -1.1997316067
C  -2.8743944085  2.3450009841 -1.1997316067
C  -3.4843944085  1.2885009841 -1.1997316067
C  -3.7178944085 -0.0361990159 -1.1997316067
C  -3.5060944085 -1.2375990159 -1.1997316067
C  -2.8334944085 -2.4024990159 -1.1997316067
C  -1.8989944085 -3.1866990159 -1.1997316067
C  -0.6349944085 -3.6466990159 -1.1997316067
C   0.5850055915 -3.6466990159 -1.1997316067
C   1.8490055915 -3.1866990159 -1.1997316067
C   2.7835055915 -2.4024990159 -1.1997316067
C   3.4561055915 -1.2375990159 -1.1997316067
C   3.6679055915 -0.0361990159 -1.1997316067
C   3.4344055915  1.2885009841 -1.1997316067
C   2.8244055915  2.3450009841 -1.1997316067
C   1.7940055915  3.2096009841 -1.1997316067
C   0.6475055915  3.6269009841 -1.1997316067
C  -0.6974944085  3.6269009841 -1.1997316067
36
Scanning combination 14/51: [4.3007]  Energy = -1371.5380844915
C  -0.6100000000  3.6423000000  3.0000000000
C  -1.8740000000  3.1823000000  3.0000000000
C  -2.8085000000  2.3981000000  3.0000000000
C  -3.4811000000  1.2332000000  3.0000000000
C  -3.6929000000  0.0318000000  3.0000000000
C  -3.4594000000 -1.2929000000  3.0000000000
C  -2.8494000000 -2.3494000000  3.0000000000
C  -1.8190000000 -3.2140000000  3.0000000000
C  -0.6725000000 -3.6313000000  3.0000000000
C   0.6725000000 -3.6313000000  3.0000000000
C   1.8190000000 -3.2140000000  3.0000000000
C   2.8494000000 -2.3494000000  3.0000000000
C   3.4594000000 -1.2929000000  3.0000000000
C   3.6929000000  0.0318000000  3.0000000000
C   3.4811000000  1.2332000000  3.0000000000
C   2.8085000000  2.3981000000  3.0000000000
C   1.8740000000  3.1823000000  3.0000000000
C   0.6100000000  3.6423000000  3.0000000000
C  -1.8460772758  3.2092343995 -1.2997092406
C  -2.8764772758  2.3446343995 -1.2997092406
C  -3.4864772758  1.2881343995 -1.2997092406
C  -3.7199772758 -0.0365656005 -1.2997092406
C  -3.5081772758 -1.2379656005 -1.2997092406
C  -2.8355772758 -2.4028656005 -1.2997092406
C  -1.9010772758 -3.1870656005 -1.2997092406
C  -0.6370772758 -3.6470656005 -1.2997092406
C   0.5829227242 -3.6470656005 -1.2997092406
C   1.8469227242 -3.1870656005 -1.2997092406
C   2.7814227242 -2.4028656005 -1.2997092406
C   3.4540227242 -1.2379656005 -1.2997092406
C   3.6658227242 -0.0365656005 -1.2997092406
C   3.4323227242  1.2881343995 -1.2997092406
C   2.8223227242  2.3446343995 -1.2997092406
C   1.7919227242  3.2092343995 -1.2997092406
C   0.6454227242  3.6265343995 -1.2997092406
C  -0.6995772758  3.6265343995 -1.2997092406
36
Scanning combination 15/51: [4.4007]  Energy = -1371.5256503605
C  -0.6100000000  3.6423000000  3.0000000000
C  -1.8740000000  3.1823000000  3.0000000000
C  -2.8085000000  2.3981000000  3.0000000000
C  -3.4811000000  1.2332000000  3.0000000000
C  -3.6929000000  0.0318000000  3.0000000000
C  -3.4594000000 -1.2929000000  3.0000000000
C  -2.8494000000 -2.3494000000  3.0000000000
C  -1.8190000000 -3.2140000000  3.0000000000
C  -0.6725000000 -3.6313000000  3.0000000000
C   0.6725000000 -3.6313000000  3.0000000000
C   1.8190000000 -3.2140000000  3.0000000000
C   2.8494000000 -2.3494000000  3.0000000000
C   3.4594000000 -1.2929000000  3.0000000000
C   3.6929000000  0.0318000000  3.0000000000
C   3.4811000000  1.2332000000  3.0000000000
C   2.8085000000  2.3981000000  3.0000000000
C   1.8740000000  3.1823000000  3.0000000000
C   0.6100000000  3.6423000000  3.0000000000
C  -1.8481601432  3.2088678148 -1.3996868745
C  -2.8785601432  2.3442678148 -1.3996868745
C  -3.4885601432  1.2877678148 -1.3996868745
C  -3.7220601432 -0.0369321852 -1.3996868745
C  -3.5102601432 -1.2383321852 -1.3996868745
C  -2.8376601432 -2.4032321852 -1.3996868745
C  -1.9031601432 -3.1874321852 -1.3996868745
C  -0.6391601432 -3.6474321852 -1.3996868745
C   0.5808398568 -3.6474321852 -1.3996868745
C   1.8448398568 -3.1874321852 -1.3996868745
C   2.7793398568 -2.4032321852 -1.3996868745
C   3.4519398568 -1.2383321852 -1.3996868745
C   3.6637398568 -0.0369321852 -1.3996868745
C   3.4302398568  1.2877678148 -1.3996868745
C   2.8202398568  2.3442678148 -1.3996868745
C   1.7898398568  3.2088678148 -1.3996868745
C   0.6433398568  3.6261678148 -1.3996868745
C  -0.7016601432  3.6261678148 -1.3996868745
36
Scanning combination 16/51: [4.5007]  Energy = -1371.5134617505
C  -0.6100000000  3.6423000000  3.0000000000
C  -1.8740000000  3.1823000000  3.0000000000
C  -2.8085000000  2.3981000000  3.0000000000
C  -3.4811000000  1.2332000000  3.0000000000
C  -3.6929000000  0.0318000000  3.0000000000
C  -3.4594000000 -1.2929000000  3.0000000000
C  -2.8494000000 -2.3494000000  3.0000000000
C  -1.8190000000 -3.2140000000  3.0000000000
C  -0.6725000000 -3.6313000000  3.0000000000
C   0.6725000000 -3.6313000000  3.0000000000
C   1.8190000000 -3.2140000000  3.0000000000
C   2.8494000000 -2.3494000000  3.0000000000
C   3.4594000000 -1.2929000000  3.0000000000
C   3.6929000000  0.0318000000  3.0000000000
C   3.4811000000  1.2332000000  3.0000000000
C   2.8085000000  2.3981000000  3.0000000000
C   1.8740000000  3.1823000000  3.0000000000
C   0.6100000000  3.6423000000  3.0000000000
C  -1.8502430106  3.2085012301 -1.4996645084
C  -2.8806430106  2.3439012301 -1.4996645084
C  -3.4906430106  1.2874012301 -1.4996645084
C  -3.7241430106 -0.0372987699 -1.4996645084
C  -3.5123430106 -1.2386987699 -1.4996645084
C  -2.8397430106 -2.4035987699 -1.4996645084
C  -1.9052430106 -3.1877987699 -1.4996645084
C  -0.6412430106 -3.6477987699 -1.4996645084
C   0.5787569894 -3.6477987699 -1.4996645084
C   1.8427569894 -3.1877987699 -1.4996645084
C   2.7772569894 -2.4035987699 -1.4996645084
C   3.4498569894 -1.2386987699 -1.4996645084
C   3.6616569894 -0.0372987699 -1.4996645084
C   3.4281569894  1.2874012301 -1.4996645084
C   2.8181569894  2.3439012301 -1.4996645084
C   1.7877569894  3.2085012301 -1.4996645084
C   0.6412569894  3.6258012301 -1.4996645084
C  -0.7037430106  3.6258012301 -1.4996645084
36
Scanning combination 17/51: [4.6007]  Energy = -1371.5041344734
C  -0.6100000000  3.6423000000  3.0000000000
C  -1.8740000000  3.1823000000  3.0000000000
C  -2.8085000000  2.3981000000  3.0000000000
C  -3.4811000000  1.2332000000  3.0000000000
C  -3.6929000000  0.0318000000  3.0000000000
C  -3.4594000000 -1.2929000000  3.0000000000
C  -2.8494000000 -2.3494000000  3.0000000000
C  -1.8190000000 -3.2140000000  3.0000000000
C  -0.6725000000 -3.6313000000  3.0000000000
C   0.6725000000 -3.6313000000  3.0000000000
C   1.8190000000 -3.2140000000  3.0000000000
C   2.8494000000 -2.3494000000  3.0000000000
C   3.4594000000 -1.2929000000  3.0000000000
C   3.6929000000  0.0318000000  3.0000000000
C   3.4811000000  1.2332000000  3.0000000000
C   2.8085000000  2.3981000000  3.0000000000
C   1.8740000000  3.1823000000  3.0000000000
C   0.6100000000  3.6423000000  3.0000000000
C  -1.8523258780  3.2081346455 -1.5996421423
C  -2.8827258780  2.3435346455 -1.5996421423
C  -3.4927258780  1.2870346455 -1.5996421423
C  -3.7262258780 -0.0376653545 -1.5996421423
C  -3.5144258780 -1.2390653545 -1.5996421423
C  -2.8418258780 -2.4039653545 -1.5996421423
C  -1.9073258780 -3.1881653545 -1.5996421423
C  -0.6433258780 -3.6481653545 -1.5996421423
C   0.5766741220 -3.6481653545 -1.5996421423
C   1.8406741220 -3.1881653545 -1.5996421423
C   2.7751741220 -2.4039653545 -1.5996421423
C   3.4477741220 -1.2390653545 -1.5996421423
C   3.6595741220 -0.0376653545 -1.5996421423
C   3.4260741220  1.2870346455 -1.5996421423
C   2.8160741220  2.3435346455 -1.5996421423
C   1.7856741220  3.2081346455 -1.5996421423
C   0.6391741220  3.6254346455 -1.5996421423
C  -0.7058258780  3.6254346455 -1.5996421423
36
Scanning combination 18/51: [4.7007]  Energy = -1371.4987967015
C  -0.6100000000  3.6423000000  3.0000000000
C  -1.8740000000  3.1823000000  3.0000000000
C  -2.8085000000  2.3981000000  3.0000000000
C  -3.4811000000  1.2332000000  3.0000000000
C  -3.6929000000  0.0318000000  3.0000000000
C  -3.4594000000 -1.2929000000  3.0000000000
C  -2.8494000000 -2.3494000000  3.0000000000
C  -1.8190000000 -3.2140000000  3.0000000000
C  -0.6725000000 -3.6313000000  3.0000000000
C   0.6725000000 -3.6313000000  3.0000000000
C   1.8190000000 -3.2140000000  3.0000000000
C   2.8494000000 -2.3494000000  3.0000000000
C   3.4594000000 -1.2929000000  3.0000000000
C   3.6929000000  0.0318000000  3.0000000000
C   3.4811000000  1.2332000000  3.0000000000
C   2.8085000000  2.3981000000  3.0000000000
C   1.8740000000  3.1823000000  3.0000000000
C   0.6100000000  3.6423000000  3.0000000000
C  -1.8544087453  3.2077680608 -1.6996197762
C  -2.8848087453  2.3431680608 -1.6996197762
C  -3.4948087453  1.2866680608 -1.6996197762
C  -3.7283087453 -0.0380319392 -1.6996197762
C  -3.5165087453 -1.2394319392 -1.6996197762
C  -2.8439087453 -2.4043319392 -1.6996197762
C  -1.9094087453 -3.1885319392 -1.6996197762
C  -0.6454087453 -3.6485319392 -1.6996197762
C   0.5745912547 -3.6485319392 -1.6996197762
C   1.8385912547 -3.1885319392 -1.6996197762
C   2.7730912547 -2.4043319392 -1.6996197762
C   3.4456912547 -1.2394319392 -1.6996197762
C   3.6574912547 -0.0380319392 -1.6996197762
C   3.4239912547  1.2866680608 -1.6996197762
C   2.8139912547  2.3431680608 -1.6996197762
C   1.7835912547  3.2077680608 -1.6996197762
C   0.6370912547  3.6250680608 -1.6996197762
C  -0.7079087453  3.6250680608 -1.6996197762
36
Scanning combination 19/51: [4.8007]  Energy = -1371.4964434477
C  -0.6100000000  3.6423000000  3.0000000000
C  -1.8740000000  3.1823000000  3.0000000000
C  -2.8085000000  2.3981000000  3.0000000000
C  -3.4811000000  1.2332000000  3.0000000000
C  -3.6929000000  0.0318000000  3.0000000000
C  -3.4594000000 -1.2929000000  3.0000000000
C  -2.8494000000 -2.3494000000  3.0000000000
C  -1.8190000000 -3.2140000000  3.0000000000
C  -0.6725000000 -3.6313000000  3.0000000000
C   0.6725000000 -3.6313000000  3.0000000000
C   1.8190000000 -3.2140000000  3.0000000000
C   2.8494000000 -2.3494000000  3.0000000000
C   3.4594000000 -1.2929000000  3.0000000000
C   3.6929000000  0.0318000000  3.0000000000
C   3.4811000000  1.2332000000  3.0000000000
C   2.8085000000  2.3981000000  3.0000000000
C   1.8740000000  3.1823000000  3.0000000000
C   0.6100000000  3.6423000000  3.0000000000
C  -1.8564916127  3.2074014762 -1.7995974101
C  -2.8868916127  2.3428014762 -1.7995974101
C  -3.4968916127  1.2863014762 -1.7995974101
C  -3.7303916127 -0.0383985238 -1.7995974101
C  -3.5185916127 -1.2397985238 -1.7995974101
C  -2.8459916127 -2.4046985238 -1.7995974101
C  -1.9114916127 -3.1888985238 -1.7995974101
C  -0.6474916127 -3.6488985238 -1.7995974101
C   0.5725083873 -3.6488985238 -1.7995974101
C   1.8365083873 -3.1888985238 -1.7995974101
C   2.7710083873 -2.4046985238 -1.7995974101
C   3.4436083873 -1.2397985238 -1.7995974101
C   3.6554083873 -0.0383985238 -1.7995974101
C   3.4219083873  1.2863014762 -1.7995974101
C   2.8119083873  2.3428014762 -1.7995974101
C   1.7815083873  3.2074014762 -1.7995974101
C   0.6350083873  3.6247014762 -1.7995974101
C  -0.7099916127  3.6247014762 -1.7995974101
36
Scanning combination 20/51: [4.9007]  Energy = -1371.4941354658
C  -0.6100000000  3.6423000000  3.0000000000
C  -1.8740000000  3.1823000000  3.0000000000
C  -2.8085000000  2.3981000000  3.0000000000
C  -3.4811000000  1.2332000000  3.0000000000
C  -3.6929000000  0.0318000000  3.0000000000
C  -3.4594000000 -1.2929000000  3.0000000000
C  -2.8494000000 -2.3494000000  3.0000000000
C  -1.8190000000 -3.2140000000  3.0000000000
C  -0.6725000000 -3.6313000000  3.0000000000
C   0.6725000000 -3.6313000000  3.0000000000
C   1.8190000000 -3.2140000000  3.0000000000
C   2.8494000000 -2.3494000000  3.0000000000
C   3.4594000000 -1.2929000000  3.0000000000
C   3.6929000000  0.0318000000  3.0000000000
C   3.4811000000  1.2332000000  3.0000000000
C   2.8085000000  2.3981000000  3.0000000000
C   1.8740000000  3.1823000000  3.0000000000
C   0.6100000000  3.6423000000  3.0000000000
C  -1.8585744801  3.2070348915 -1.8995750440
C  -2.8889744801  2.3424348915 -1.8995750440
C  -3.4989744801  1.2859348915 -1.8995750440
C  -3.7324744801 -0.0387651085 -1.8995750440
C  -3.5206744801 -1.2401651085 -1.8995750440
C  -2.8480744801 -2.4050651085 -1.8995750440
C  -1.9135744801 -3.1892651085 -1.8995750440
C  -0.6495744801 -3.6492651085 -1.8995750440
C   0.5704255199 -3.6492651085 -1.8995750440
C   1.8344255199 -3.1892651085 -1.8995750440
C   2.7689255199 -2.4050651085 -1.8995750440
C   3.4415255199 -1.2401651085 -1.8995750440
C   3.6533255199 -0.0387651085 -1.8995750440
C   3.4198255199  1.2859348915 -1.8995750440
C   2.8098255199  2.3424348915 -1.8995750440
C   1.7794255199  3.2070348915 -1.8995750440
C   0.6329255199  3.6243348915 -1.8995750440
C  -0.7120744801  3.6243348915 -1.8995750440
36
Scanning combination 21/51: [5.0007]  Energy = -1371.4935148512
C  -0.6100000000  3.6423000000  3.0000000000
C  -1.8740000000  3.1823000000  3.0000000000
C  -2.8085000000  2.3981000000  3.0000000000
C  -3.4811000000  1.2332000000  3.0000000000
C  -3.6929000000  0.0318000000  3.0000000000
C  -3.4594000000 -1.2929000000  3.0000000000
C  -2.8494000000 -2.3494000000  3.0000000000
C  -1.8190000000 -3.2140000000  3.0000000000
C  -0.6725000000 -3.6313000000  3.0000000000
C   0.6725000000 -3.6313000000  3.0000000000
C   1.8190000000 -3.2140000000  3.0000000000
C   2.8494000000 -2.3494000000  3.0000000000
C   3.4594000000 -1.2929000000  3.0000000000
C   3.6929000000  0.0318000000  3.0000000000
C   3.4811000000  1.2332000000  3.0000000000
C   2.8085000000  2.3981000000  3.0000000000
C   1.8740000000  3.1823000000  3.0000000000
C   0.6100000000  3.6423000000  3.0000000000
C  -1.8606573475  3.2066683068 -1.9995526779
C  -2.8910573475  2.3420683068 -1.9995526779
C  -3.5010573475  1.2855683068 -1.9995526779
C  -3.7345573475 -0.0391316932 -1.9995526779
C  -3.5227573475 -1.2405316932 -1.9995526779
C  -2.8501573475 -2.4054316932 -1.9995526779
C  -1.9156573475 -3.1896316932 -1.9995526779
C  -0.6516573475 -3.6496316932 -1.9995526779
C   0.5683426525 -3.6496316932 -1.9995526779
C   1.8323426525 -3.1896316932 -1.9995526779
C   2.7668426525 -2.4054316932 -1.9995526779
C   3.4394426525 -1.2405316932 -1.9995526779
C   3.6512426525 -0.0391316932 -1.9995526779
C   3.4177426525  1.2855683068 -1.9995526779
C   2.8077426525  2.3420683068 -1.9995526779
C   1.7773426525  3.2066683068 -1.9995526779
C   0.6308426525  3.6239683068 -1.9995526779
C  -0.7141573475  3.6239683068 -1.9995526779
36
Scanning combination 22/51: [5.1007]  Energy = -1371.4931681718
C  -0.6100000000  3.6423000000  3.0000000000
C  -1.8740000000  3.1823000000  3.0000000000
C  -2.8085000000  2.3981000000  3.0000000000
C  -3.4811000000  1.2332000000  3.0000000000
C  -3.6929000000  0.0318000000  3.0000000000
C  -3.4594000000 -1.2929000000  3.0000000000
C  -2.8494000000 -2.3494000000  3.0000000000
C  -1.8190000000 -3.2140000000  3.0000000000
C  -0.6725000000 -3.6313000000  3.0000000000
C   0.6725000000 -3.6313000000  3.0000000000
C   1.8190000000 -3.2140000000  3.0000000000
C   2.8494000000 -2.3494000000  3.0000000000
C   3.4594000000 -1.2929000000  3.0000000000
C   3.6929000000  0.0318000000  3.0000000000
C   3.4811000000  1.2332000000  3.0000000000
C   2.8085000000  2.3981000000  3.0000000000
C   1.8740000000  3.1823000000  3.0000000000
C   0.6100000000  3.6423000000  3.0000000000
C  -1.8627402148  3.2063017222 -2.0995303118
C  -2.8931402148  2.3417017222 -2.0995303118
C  -3.5031402148  1.2852017222 -2.0995303118
C  -3.7366402148 -0.0394982778 -2.0995303118
C  -3.5248402148 -1.2408982778 -2.0995303118
C  -2.8522402148 -2.4057982778 -2.0995303118
C  -1.9177402148 -3.1899982778 -2.0995303118
C  -0.6537402148 -3.6499982778 -2.0995303118
C   0.5662597852 -3.6499982778 -2.0995303118
C   1.8302597852 -3.1899982778 -2.0995303118
C   2.7647597852 -2.4057982778 -2.0995303118
C   3.4373597852 -1.2408982778 -2.0995303118
C   3.6491597852 -0.0394982778 -2.0995303118
C   3.4156597852  1.2852017222 -2.0995303118
C   2.8056597852  2.3417017222 -2.0995303118
C   1.7752597852  3.2063017222 -2.0995303118
C   0.6287597852  3.6236017222 -2.0995303118
C  -0.7162402148  3.6236017222 -2.0995303118
36
Scanning combination 23/51: [5.2007]  Energy = -1371.4931681586
C  -0.6100000000  3.6423000000  3.0000000000
C  -1.8740000000  3.1823000000  3.0000000000
C  -2.8085000000  2.3981000000  3.0000000000
C  -3.4811000000  1.2332000000  3.0000000000
C  -3.6929000000  0.0318000000  3.0000000000
C  -3.4594000000 -1.2929000000  3.0000000000
C  -2.8494000000 -2.3494000000  3.0000000000
C  -1.8190000000 -3.2140000000  3.0000000000
C  -0.6725000000 -3.6313000000  3.0000000000
C   0.6725000000 -3.6313000000  3.0000000000
C   1.8190000000 -3.2140000000  3.0000000000
C   2.8494000000 -2.3494000000  3.0000000000
C   3.4594000000 -1.2929000000  3.0000000000
C   3.6929000000  0.0318000000  3.0000000000
C   3.4811000000  1.2332000000  3.0000000000
C   2.8085000000  2.3981000000  3.0000000000
C   1.8740000000  3.1823000000  3.0000000000
C   0.6100000000  3.6423000000  3.0000000000
C  -1.8648230822  3.2059351375 -2.1995079457
C  -2.8952230822  2.3413351375 -2.1995079457
C  -3.5052230822  1.2848351375 -2.1995079457
C  -3.7387230822 -0.0398648625 -2.1995079457
C  -3.5269230822 -1.2412648625 -2.1995079457
C  -2.8543230822 -2.4061648625 -2.1995079457
C  -1.9198230822 -3.1903648625 -2.1995079457
C  -0.6558230822 -3.6503648625 -2.1995079457
C   0.5641769178 -3.6503648625 -2.1995079457
C   1.8281769178 -3.1903648625 -2.1995079457
C   2.7626769178 -2.4061648625 -2.1995079457
C   3.4352769178 -1.2412648625 -2.1995079457
C   3.6470769178 -0.0398648625 -2.1995079457
C   3.4135769178  1.2848351375 -2.1995079457
C   2.8035769178  2.3413351375 -2.1995079457
C   1.7731769178  3.2059351375 -2.1995079457
C   0.6266769178  3.6232351375 -2.1995079457
C  -0.7183230822  3.6232351375 -2.1995079457
36
Scanning combination 24/51: [5.3007]  Energy = -1371.4931681630
C  -0.6100000000  3.6423000000  3.0000000000
C  -1.8740000000  3.1823000000  3.0000000000
C  -2.8085000000  2.3981000000  3.0000000000
C  -3.4811000000  1.2332000000  3.0000000000
C  -3.6929000000  0.0318000000  3.0000000000
C  -3.4594000000 -1.2929000000  3.0000000000
C  -2.8494000000 -2.3494000000  3.0000000000
C  -1.8190000000 -3.2140000000  3.0000000000
C  -0.6725000000 -3.6313000000  3.0000000000
C   0.6725000000 -3.6313000000  3.0000000000
C   1.8190000000 -3.2140000000  3.0000000000
C   2.8494000000 -2.3494000000  3.0000000000
C   3.4594000000 -1.2929000000  3.0000000000
C   3.6929000000  0.0318000000  3.0000000000
C   3.4811000000  1.2332000000  3.0000000000
C   2.8085000000  2.3981000000  3.0000000000
C   1.8740000000  3.1823000000  3.0000000000
C   0.6100000000  3.6423000000  3.0000000000
C  -1.8669059496  3.2055685529 -2.2994855796
C  -2.8973059496  2.3409685529 -2.2994855796
C  -3.5073059496  1.2844685529 -2.2994855796
C  -3.7408059496 -0.0402314471 -2.2994855796
C  -3.5290059496 -1.2416314471 -2.2994855796
C  -2.8564059496 -2.4065314471 -2.2994855796
C  -1.9219059496 -3.1907314471 -2.2994855796
C  -0.6579059496 -3.6507314471 -2.2994855796
C   0.5620940504 -3.6507314471 -2.2994855796
C   1.8260940504 -3.1907314471 -2.2994855796
C   2.7605940504 -2.4065314471 -2.2994855796
C   3.4331940504 -1.2416314471 -2.2994855796
C   3.6449940504 -0.0402314471 -2.2994855796
C   3.4114940504  1.2844685529 -2.2994855796
C   2.8014940504  2.3409685529 -2.2994855796
C   1.7710940504  3.2055685529 -2.2994855796
C   0.6245940504  3.6228685529 -2.2994855796
C  -0.7204059496  3.6228685529 -2.2994855796
36
Scanning combination 25/51: [5.4007]  Energy = -1371.4931681674
C  -0.6100000000  3.6423000000  3.0000000000
C  -1.8740000000  3.1823000000  3.0000000000
C  -2.8085000000  2.3981000000  3.0000000000
C  -3.4811000000  1.2332000000  3.0000000000
C  -3.6929000000  0.0318000000  3.0000000000
C  -3.4594000000 -1.2929000000  3.0000000000
C  -2.8494000000 -2.3494000000  3.0000000000
C  -1.8190000000 -3.2140000000  3.0000000000
C  -0.6725000000 -3.6313000000  3.0000000000
C   0.6725000000 -3.6313000000  3.0000000000
C   1.8190000000 -3.2140000000  3.0000000000
C   2.8494000000 -2.3494000000  3.0000000000
C   3.4594000000 -1.2929000000  3.0000000000
C   3.6929000000  0.0318000000  3.0000000000
C   3.4811000000  1.2332000000  3.0000000000
C   2.8085000000  2.3981000000  3.0000000000
C   1.8740000000  3.1823000000  3.0000000000
C   0.6100000000  3.6423000000  3.0000000000
C  -1.8689888169  3.2052019682 -2.3994632135
C  -2.8993888169  2.3406019682 -2.3994632135
C  -3.5093888169  1.2841019682 -2.3994632135
C  -3.7428888169 -0.0405980318 -2.3994632135
C  -3.5310888169 -1.2419980318 -2.3994632135
C  -2.8584888169 -2.4068980318 -2.3994632135
C  -1.9239888169 -3.1910980318 -2.3994632135
C  -0.6599888169 -3.6510980318 -2.3994632135
C   0.5600111831 -3.6510980318 -2.3994632135
C   1.8240111831 -3.1910980318 -2.3994632135
C   2.7585111831 -2.4068980318 -2.3994632135
C   3.4311111831 -1.2419980318 -2.3994632135
C   3.6429111831 -0.0405980318 -2.3994632135
C   3.4094111831  1.2841019682 -2.3994632135
C   2.7994111831  2.3406019682 -2.3994632135
C   1.7690111831  3.2052019682 -2.3994632135
C   0.6225111831  3.6225019682 -2.3994632135
C  -0.7224888169  3.6225019682 -2.3994632135
36
Scanning combination 26/51: [5.5007]  Energy = -1371.4931681280
C  -0.6100000000  3.6423000000  3.0000000000
C  -1.8740000000  3.1823000000  3.0000000000
C  -2.8085000000  2.3981000000  3.0000000000
C  -3.4811000000  1.2332000000  3.0000000000
C  -3.6929000000  0.0318000000  3.0000000000
C  -3.4594000000 -1.2929000000  3.0000000000
C  -2.8494000000 -2.3494000000  3.0000000000
C  -1.8190000000 -3.2140000000  3.0000000000
C  -0.6725000000 -3.6313000000  3.0000000000
C   0.6725000000 -3.6313000000  3.0000000000
C   1.8190000000 -3.2140000000  3.0000000000
C   2.8494000000 -2.3494000000  3.0000000000
C   3.4594000000 -1.2929000000  3.0000000000
C   3.6929000000  0.0318000000  3.0000000000
C   3.4811000000  1.2332000000  3.0000000000
C   2.8085000000  2.3981000000  3.0000000000
C   1.8740000000  3.1823000000  3.0000000000
C   0.6100000000  3.6423000000  3.0000000000
C  -1.8710716843  3.2048353836 -2.4994408474
C  -2.9014716843  2.3402353836 -2.4994408474
C  -3.5114716843  1.2837353836 -2.4994408474
C  -3.7449716843 -0.0409646164 -2.4994408474
C  -3.5331716843 -1.2423646164 -2.4994408474
C  -2.8605716843 -2.4072646164 -2.4994408474
C  -1.9260716843 -3.1914646164 -2.4994408474
C  -0.6620716843 -3.6514646164 -2.4994408474
C   0.5579283157 -3.6514646164 -2.4994408474
C   1.8219283157 -3.1914646164 -2.4994408474
C   2.7564283157 -2.4072646164 -2.4994408474
C   3.4290283157 -1.2423646164 -2.4994408474
C   3.6408283157 -0.0409646164 -2.4994408474
C   3.4073283157  1.2837353836 -2.4994408474
C   2.7973283157  2.3402353836 -2.4994408474
C   1.7669283157  3.2048353836 -2.4994408474
C   0.6204283157  3.6221353836 -2.4994408474
C  -0.7245716843  3.6221353836 -2.4994408474
36
Scanning combination 27/51: [5.6007]  Energy = -1371.4931681543
C  -0.6100000000  3.6423000000  3.0000000000
C  -1.8740000000  3.1823000000  3.0000000000
C  -2.8085000000  2.3981000000  3.0000000000
C  -3.4811000000  1.2332000000  3.0000000000
C  -3.6929000000  0.0318000000  3.0000000000
C  -3.4594000000 -1.2929000000  3.0000000000
C  -2.8494000000 -2.3494000000  3.0000000000
C  -1.8190000000 -3.2140000000  3.0000000000
C  -0.6725000000 -3.6313000000  3.0000000000
C   0.6725000000 -3.6313000000  3.0000000000
C   1.8190000000 -3.2140000000  3.0000000000
C   2.8494000000 -2.3494000000  3.0000000000
C   3.4594000000 -1.2929000000  3.0000000000
C   3.6929000000  0.0318000000  3.0000000000
C   3.4811000000  1.2332000000  3.0000000000
C   2.8085000000  2.3981000000  3.0000000000
C   1.8740000000  3.1823000000  3.0000000000
C   0.6100000000  3.6423000000  3.0000000000
C  -1.8731545517  3.2044687989 -2.5994184813
C  -2.9035545517  2.3398687989 -2.5994184813
C  -3.5135545517  1.2833687989 -2.5994184813
C  -3.7470545517 -0.0413312011 -2.5994184813
C  -3.5352545517 -1.2427312011 -2.5994184813
C  -2.8626545517 -2.4076312011 -2.5994184813
C  -1.9281545517 -3.1918312011 -2.5994184813
C  -0.6641545517 -3.6518312011 -2.5994184813
C   0.5558454483 -3.6518312011 -2.5994184813
C   1.8198454483 -3.1918312011 -2.5994184813
C   2.7543454483 -2.4076312011 -2.5994184813
C   3.4269454483 -1.2427312011 -2.5994184813
C   3.6387454483 -0.0413312011 -2.5994184813
C   3.4052454483  1.2833687989 -2.5994184813
C   2.7952454483  2.3398687989 -2.5994184813
C   1.7648454483  3.2044687989 -2.5994184813
C   0.6183454483  3.6217687989 -2.5994184813
C  -0.7266545517  3.6217687989 -2.5994184813
36
Scanning combination 28/51: [5.7007]  Energy = -1371.4931681061
C  -0.6100000000  3.6423000000  3.0000000000
C  -1.8740000000  3.1823000000  3.0000000000
C  -2.8085000000  2.3981000000  3.0000000000
C  -3.4811000000  1.2332000000  3.0000000000
C  -3.6929000000  0.0318000000  3.0000000000
C  -3.4594000000 -1.2929000000  3.0000000000
C  -2.8494000000 -2.3494000000  3.0000000000
C  -1.8190000000 -3.2140000000  3.0000000000
C  -0.6725000000 -3.6313000000  3.0000000000
C   0.6725000000 -3.6313000000  3.0000000000
C   1.8190000000 -3.2140000000  3.0000000000
C   2.8494000000 -2.3494000000  3.0000000000
C   3.4594000000 -1.2929000000  3.0000000000
C   3.6929000000  0.0318000000  3.0000000000
C   3.4811000000  1.2332000000  3.0000000000
C   2.8085000000  2.3981000000  3.0000000000
C   1.8740000000  3.1823000000  3.0000000000
C   0.6100000000  3.6423000000  3.0000000000
C  -1.8752374191  3.2041022142 -2.6993961152
C  -2.9056374191  2.3395022142 -2.6993961152
C  -3.5156374191  1.2830022142 -2.6993961152
C  -3.7491374191 -0.0416977858 -2.6993961152
C  -3.5373374191 -1.2430977858 -2.6993961152
C  -2.8647374191 -2.4079977858 -2.6993961152
C  -1.9302374191 -3.1921977858 -2.6993961152
C  -0.6662374191 -3.6521977858 -2.6993961152
C   0.5537625809 -3.6521977858 -2.6993961152
C   1.8177625809 -3.1921977858 -2.6993961152
C   2.7522625809 -2.4079977858 -2.6993961152
C   3.4248625809 -1.2430977858 -2.6993961152
C   3.6366625809 -0.0416977858 -2.6993961152
C   3.4031625809  1.2830022142 -2.6993961152
C   2.7931625809  2.3395022142 -2.6993961152
C   1.7627625809  3.2041022142 -2.6993961152
C   0.6162625809  3.6214022142 -2.6993961152
C  -0.7287374191  3.6214022142 -2.6993961152
36
Scanning combination 29/51: [5.8007]  Energy = -1371.4931680754
C  -0.6100000000  3.6423000000  3.0000000000
C  -1.8740000000  3.1823000000  3.0000000000
C  -2.8085000000  2.3981000000  3.0000000000
C  -3.4811000000  1.2332000000  3.0000000000
C  -3.6929000000  0.0318000000  3.0000000000
C  -3.4594000000 -1.2929000000  3.0000000000
C  -2.8494000000 -2.3494000000  3.0000000000
C  -1.8190000000 -3.2140000000  3.0000000000
C  -0.6725000000 -3.6313000000  3.0000000000
C   0.6725000000 -3.6313000000  3.0000000000
C   1.8190000000 -3.2140000000  3.0000000000
C   2.8494000000 -2.3494000000  3.0000000000
C   3.4594000000 -1.2929000000  3.0000000000
C   3.6929000000  0.0318000000  3.0000000000
C   3.4811000000  1.2332000000  3.0000000000
C   2.8085000000  2.3981000000  3.0000000000
C   1.8740000000  3.1823000000  3.0000000000
C   0.6100000000  3.6423000000  3.0000000000
C  -1.8773202864  3.2037356296 -2.7993737491
C  -2.9077202864  2.3391356296 -2.7993737491
C  -3.5177202864  1.2826356296 -2.7993737491
C  -3.7512202864 -0.0420643704 -2.7993737491
C  -3.5394202864 -1.2434643704 -2.7993737491
C  -2.8668202864 -2.4083643704 -2.7993737491
C  -1.9323202864 -3.1925643704 -2.7993737491
C  -0.6683202864 -3.6525643704 -2.7993737491
C   0.5516797136 -3.6525643704 -2.7993737491
C   1.8156797136 -3.1925643704 -2.7993737491
C   2.7501797136 -2.4083643704 -2.7993737491
C   3.4227797136 -1.2434643704 -2.7993737491
C   3.6345797136 -0.0420643704 -2.7993737491
C   3.4010797136  1.2826356296 -2.7993737491
C   2.7910797136  2.3391356296 -2.7993737491
C   1.7606797136  3.2037356296 -2.7993737491
C   0.6141797136  3.6210356296 -2.7993737491
C  -0.7308202864  3.6210356296 -2.7993737491
36
Scanning combination 30/51: [5.9007]  Energy = -1371.4931681324
C  -0.6100000000  3.6423000000  3.0000000000
C  -1.8740000000  3.1823000000  3.0000000000
C  -2.8085000000  2.3981000000  3.0000000000
C  -3.4811000000  1.2332000000  3.0000000000
C  -3.6929000000  0.0318000000  3.0000000000
C  -3.4594000000 -1.2929000000  3.0000000000
C  -2.8494000000 -2.3494000000  3.0000000000
C  -1.8190000000 -3.2140000000  3.0000000000
C  -0.6725000000 -3.6313000000  3.0000000000
C   0.6725000000 -3.6313000000  3.0000000000
C   1.8190000000 -3.2140000000  3.0000000000
C   2.8494000000 -2.3494000000  3.0000000000
C   3.4594000000 -1.2929000000  3.0000000000
C   3.6929000000  0.0318000000  3.0000000000
C   3.4811000000  1.2332000000  3.0000000000
C   2.8085000000  2.3981000000  3.0000000000
C   1.8740000000  3.1823000000  3.0000000000
C   0.6100000000  3.6423000000  3.0000000000
C  -1.8794031538  3.2033690449 -2.8993513829
C  -2.9098031538  2.3387690449 -2.8993513829
C  -3.5198031538  1.2822690449 -2.8993513829
C  -3.7533031538 -0.0424309551 -2.8993513829
C  -3.5415031538 -1.2438309551 -2.8993513829
C  -2.8689031538 -2.4087309551 -2.8993513829
C  -1.9344031538 -3.1929309551 -2.8993513829
C  -0.6704031538 -3.6529309551 -2.8993513829
C   0.5495968462 -3.6529309551 -2.8993513829
C   1.8135968462 -3.1929309551 -2.8993513829
C   2.7480968462 -2.4087309551 -2.8993513829
C   3.4206968462 -1.2438309551 -2.8993513829
C   3.6324968462 -0.0424309551 -2.8993513829
C   3.3989968462  1.2822690449 -2.8993513829
C   2.7889968462  2.3387690449 -2.8993513829
C   1.7585968462  3.2033690449 -2.8993513829
C   0.6120968462  3.6206690449 -2.8993513829
C  -0.7329031538  3.6206690449 -2.8993513829
36
Scanning combination 31/51: [6.0007]  Energy = -1371.4931681499
C  -0.6100000000  3.6423000000  3.0000000000
C  -1.8740000000  3.1823000000  3.0000000000
C  -2.8085000000  2.3981000000  3.0000000000
C  -3.4811000000  1.2332000000  3.0000000000
C  -3.6929000000  0.0318000000  3.0000000000
C  -3.4594000000 -1.2929000000  3.0000000000
C  -2.8494000000 -2.3494000000  3.0000000000
C  -1.8190000000 -3.2140000000  3.0000000000
C  -0.6725000000 -3.6313000000  3.0000000000
C   0.6725000000 -3.6313000000  3.0000000000
C   1.8190000000 -3.2140000000  3.0000000000
C   2.8494000000 -2.3494000000  3.0000000000
C   3.4594000000 -1.2929000000  3.0000000000
C   3.6929000000  0.0318000000  3.0000000000
C   3.4811000000  1.2332000000  3.0000000000
C   2.8085000000  2.3981000000  3.0000000000
C   1.8740000000  3.1823000000  3.0000000000
C   0.6100000000  3.6423000000  3.0000000000
C  -1.8814860212  3.2030024603 -2.9993290168
C  -2.9118860212  2.3384024603 -2.9993290168
C  -3.5218860212  1.2819024603 -2.9993290168
C  -3.7553860212 -0.0427975397 -2.9993290168
C  -3.5435860212 -1.2441975397 -2.9993290168
C  -2.8709860212 -2.4090975397 -2.9993290168
C  -1.9364860212 -3.1932975397 -2.9993290168
C  -0.6724860212 -3.6532975397 -2.9993290168
C   0.5475139788 -3.6532975397 -2.9993290168
C   1.8115139788 -3.1932975397 -2.9993290168
C   2.7460139788 -2.4090975397 -2.9993290168
C   3.4186139788 -1.2441975397 -2.9993290168
C   3.6304139788 -0.0427975397 -2.9993290168
C   3.3969139788  1.2819024603 -2.9993290168
C   2.7869139788  2.3384024603 -2.9993290168
C   1.7565139788  3.2030024603 -2.9993290168
C   0.6100139788  3.6203024603 -2.9993290168
C  -0.7349860212  3.6203024603 -2.9993290168
36
Scanning combination 32/51: [6.1007]  Energy = -1371.4931681061
C  -0.6100000000  3.6423000000  3.0000000000
C  -1.8740000000  3.1823000000  3.0000000000
C  -2.8085000000  2.3981000000  3.0000000000
C  -3.4811000000  1.2332000000  3.0000000000
C  -3.6929000000  0.0318000000  3.0000000000
C  -3.4594000000 -1.2929000000  3.0000000000
C  -2.8494000000 -2.3494000000  3.0000000000
C  -1.8190000000 -3.2140000000  3.0000000000
C  -0.6725000000 -3.6313000000  3.0000000000
C   0.6725000000 -3.6313000000  3.0000000000
C   1.8190000000 -3.2140000000  3.0000000000
C   2.8494000000 -2.3494000000  3.0000000000
C   3.4594000000 -1.2929000000  3.0000000000
C   3.6929000000  0.0318000000  3.0000000000
C   3.4811000000  1.2332000000  3.0000000000
C   2.8085000000  2.3981000000  3.0000000000
C   1.8740000000  3.1823000000  3.0000000000
C   0.6100000000  3.6423000000  3.0000000000
C  -1.8835688886  3.2026358756 -3.0993066507
C  -2.9139688886  2.3380358756 -3.0993066507
C  -3.5239688886  1.2815358756 -3.0993066507
C  -3.7574688886 -0.0431641244 -3.0993066507
C  -3.5456688886 -1.2445641244 -3.0993066507
C  -2.8730688886 -2.4094641244 -3.0993066507
C  -1.9385688886 -3.1936641244 -3.0993066507
C  -0.6745688886 -3.6536641244 -3.0993066507
C   0.5454311114 -3.6536641244 -3.0993066507
C   1.8094311114 -3.1936641244 -3.0993066507
C   2.7439311114 -2.4094641244 -3.0993066507
C   3.4165311114 -1.2445641244 -3.0993066507
C   3.6283311114 -0.0431641244 -3.0993066507
C   3.3948311114  1.2815358756 -3.0993066507
C   2.7848311114  2.3380358756 -3.0993066507
C   1.7544311114  3.2026358756 -3.0993066507
C   0.6079311114  3.6199358756 -3.0993066507
C  -0.7370688886  3.6199358756 -3.0993066507
36
Scanning combination 33/51: [6.2007]  Energy = -1371.4931681543
C  -0.6100000000  3.6423000000  3.0000000000
C  -1.8740000000  3.1823000000  3.0000000000
C  -2.8085000000  2.3981000000  3.0000000000
C  -3.4811000000  1.2332000000  3.0000000000
C  -3.6929000000  0.0318000000  3.0000000000
C  -3.4594000000 -1.2929000000  3.0000000000
C  -2.8494000000 -2.3494000000  3.0000000000
C  -1.8190000000 -3.2140000000  3.0000000000
C  -0.6725000000 -3.6313000000  3.0000000000
C   0.6725000000 -3.6313000000  3.0000000000
C   1.8190000000 -3.2140000000  3.0000000000
C   2.8494000000 -2.3494000000  3.0000000000
C   3.4594000000 -1.2929000000  3.0000000000
C   3.6929000000  0.0318000000  3.0000000000
C   3.4811000000  1.2332000000  3.0000000000
C   2.8085000000  2.3981000000  3.0000000000
C   1.8740000000  3.1823000000  3.0000000000
C   0.6100000000  3.6423000000  3.0000000000
C  -1.8856517559  3.2022692910 -3.1992842846
C  -2.9160517559  2.3376692910 -3.1992842846
C  -3.5260517559  1.2811692910 -3.1992842846
C  -3.7595517559 -0.0435307090 -3.1992842846
C  -3.5477517559 -1.2449307090 -3.1992842846
C  -2.8751517559 -2.4098307090 -3.1992842846
C  -1.9406517559 -3.1940307090 -3.1992842846
C  -0.6766517559 -3.6540307090 -3.1992842846
C   0.5433482441 -3.6540307090 -3.1992842846
C   1.8073482441 -3.1940307090 -3.1992842846
C   2.7418482441 -2.4098307090 -3.1992842846
C   3.4144482441 -1.2449307090 -3.1992842846
C   3.6262482441 -0.0435307090 -3.1992842846
C   3.3927482441  1.2811692910 -3.1992842846
C   2.7827482441  2.3376692910 -3.1992842846
C   1.7523482441  3.2022692910 -3.1992842846
C   0.6058482441  3.6195692910 -3.1992842846
C  -0.7391517559  3.6195692910 -3.1992842846
36
Scanning combination 34/51: [6.3007]  Energy = -1371.4931681367
C  -0.6100000000  3.6423000000  3.0000000000
C  -1.8740000000  3.1823000000  3.0000000000
C  -2.8085000000  2.3981000000  3.0000000000
C  -3.4811000000  1.2332000000  3.0000000000
C  -3.6929000000  0.0318000000  3.0000000000
C  -3.4594000000 -1.2929000000  3.0000000000
C  -2.8494000000 -2.3494000000  3.0000000000
C  -1.8190000000 -3.2140000000  3.0000000000
C  -0.6725000000 -3.6313000000  3.0000000000
C   0.6725000000 -3.6313000000  3.0000000000
C   1.8190000000 -3.2140000000  3.0000000000
C   2.8494000000 -2.3494000000  3.0000000000
C   3.4594000000 -1.2929000000  3.0000000000
C   3.6929000000  0.0318000000  3.0000000000
C   3.4811000000  1.2332000000  3.0000000000
C   2.8085000000  2.3981000000  3.0000000000
C   1.8740000000  3.1823000000  3.0000000000
C   0.6100000000  3.6423000000  3.0000000000
C  -1.8877346233  3.2019027063 -3.2992619185
C  -2.9181346233  2.3373027063 -3.2992619185
C  -3.5281346233  1.2808027063 -3.2992619185
C  -3.7616346233 -0.0438972937 -3.2992619185
C  -3.5498346233 -1.2452972937 -3.2992619185
C  -2.8772346233 -2.4101972937 -3.2992619185
C  -1.9427346233 -3.1943972937 -3.2992619185
C  -0.6787346233 -3.6543972937 -3.2992619185
C   0.5412653767 -3.6543972937 -3.2992619185
C   1.8052653767 -3.1943972937 -3.2992619185
C   2.7397653767 -2.4101972937 -3.2992619185
C   3.4123653767 -1.2452972937 -3.2992619185
C   3.6241653767 -0.0438972937 -3.2992619185
C   3.3906653767  1.2808027063 -3.2992619185
C   2.7806653767  2.3373027063 -3.2992619185
C   1.7502653767  3.2019027063 -3.2992619185
C   0.6037653767  3.6192027063 -3.2992619185
C  -0.7412346233  3.6192027063 -3.2992619185
36
Scanning combination 35/51: [6.4007]  Energy = -1371.4931681236
C  -0.6100000000  3.6423000000  3.0000000000
C  -1.8740000000  3.1823000000  3.0000000000
C  -2.8085000000  2.3981000000  3.0000000000
C  -3.4811000000  1.2332000000  3.0000000000
C  -3.6929000000  0.0318000000  3.0000000000
C  -3.4594000000 -1.2929000000  3.0000000000
C  -2.8494000000 -2.3494000000  3.0000000000
C  -1.8190000000 -3.2140000000  3.0000000000
C  -0.6725000000 -3.6313000000  3.0000000000
C   0.6725000000 -3.6313000000  3.0000000000
C   1.8190000000 -3.2140000000  3.0000000000
C   2.8494000000 -2.3494000000  3.0000000000
C   3.4594000000 -1.2929000000  3.0000000000
C   3.6929000000  0.0318000000  3.0000000000
C   3.4811000000  1.2332000000  3.0000000000
C   2.8085000000  2.3981000000  3.0000000000
C   1.8740000000  3.1823000000  3.0000000000
C   0.6100000000  3.6423000000  3.0000000000
C  -1.8898174907  3.2015361216 -3.3992395524
C  -2.9202174907  2.3369361216 -3.3992395524
C  -3.5302174907  1.2804361216 -3.3992395524
C  -3.7637174907 -0.0442638784 -3.3992395524
C  -3.5519174907 -1.2456638784 -3.3992395524
C  -2.8793174907 -2.4105638784 -3.3992395524
C  -1.9448174907 -3.1947638784 -3.3992395524
C  -0.6808174907 -3.6547638784 -3.3992395524
C   0.5391825093 -3.6547638784 -3.3992395524
C   1.8031825093 -3.1947638784 -3.3992395524
C   2.7376825093 -2.4105638784 -3.3992395524
C   3.4102825093 -1.2456638784 -3.3992395524
C   3.6220825093 -0.0442638784 -3.3992395524
C   3.3885825093  1.2804361216 -3.3992395524
C   2.7785825093  2.3369361216 -3.3992395524
C   1.7481825093  3.2015361216 -3.3992395524
C   0.6016825093  3.6188361216 -3.3992395524
C  -0.7433174907  3.6188361216 -3.3992395524
36
Scanning combination 36/51: [6.5007]  Energy = -1371.4931681674
C  -0.6100000000  3.6423000000  3.0000000000
C  -1.8740000000  3.1823000000  3.0000000000
C  -2.8085000000  2.3981000000  3.0000000000
C  -3.4811000000  1.2332000000  3.0000000000
C  -3.6929000000  0.0318000000  3.0000000000
C  -3.4594000000 -1.2929000000  3.0000000000
C  -2.8494000000 -2.3494000000  3.0000000000
C  -1.8190000000 -3.2140000000  3.0000000000
C  -0.6725000000 -3.6313000000  3.0000000000
C   0.6725000000 -3.6313000000  3.0000000000
C   1.8190000000 -3.2140000000  3.0000000000
C   2.8494000000 -2.3494000000  3.0000000000
C   3.4594000000 -1.2929000000  3.0000000000
C   3.6929000000  0.0318000000  3.0000000000
C   3.4811000000  1.2332000000  3.0000000000
C   2.8085000000  2.3981000000  3.0000000000
C   1.8740000000  3.1823000000  3.0000000000
C   0.6100000000  3.6423000000  3.0000000000
C  -1.8919003580  3.2011695370 -3.4992171863
C  -2.9223003580  2.3365695370 -3.4992171863
C  -3.5323003580  1.2800695370 -3.4992171863
C  -3.7658003580 -0.0446304630 -3.4992171863
C  -3.5540003580 -1.2460304630 -3.4992171863
C  -2.8814003580 -2.4109304630 -3.4992171863
C  -1.9469003580 -3.1951304630 -3.4992171863
C  -0.6829003580 -3.6551304630 -3.4992171863
C   0.5370996420 -3.6551304630 -3.4992171863
C   1.8010996420 -3.1951304630 -3.4992171863
C   2.7355996420 -2.4109304630 -3.4992171863
C   3.4081996420 -1.2460304630 -3.4992171863
C   3.6199996420 -0.0446304630 -3.4992171863
C   3.3864996420  1.2800695370 -3.4992171863
C   2.7764996420  2.3365695370 -3.4992171863
C   1.7460996420  3.2011695370 -3.4992171863
C   0.5995996420  3.6184695370 -3.4992171863
C  -0.7454003580  3.6184695370 -3.4992171863
36
Scanning combination 37/51: [6.6007]  Energy = -1371.4931681762
C  -0.6100000000  3.6423000000  3.0000000000
C  -1.8740000000  3.1823000000  3.0000000000
C  -2.8085000000  2.3981000000  3.0000000000
C  -3.4811000000  1.2332000000  3.0000000000
C  -3.6929000000  0.0318000000  3.0000000000
C  -3.4594000000 -1.2929000000  3.0000000000
C  -2.8494000000 -2.3494000000  3.0000000000
C  -1.8190000000 -3.2140000000  3.0000000000
C  -0.6725000000 -3.6313000000  3.0000000000
C   0.6725000000 -3.6313000000  3.0000000000
C   1.8190000000 -3.2140000000  3.0000000000
C   2.8494000000 -2.3494000000  3.0000000000
C   3.4594000000 -1.2929000000  3.0000000000
C   3.6929000000  0.0318000000  3.0000000000
C   3.4811000000  1.2332000000  3.0000000000
C   2.8085000000  2.3981000000  3.0000000000
C   1.8740000000  3.1823000000  3.0000000000
C   0.6100000000  3.6423000000  3.0000000000
C  -1.8939832254  3.2008029523 -3.5991948202
C  -2.9243832254  2.3362029523 -3.5991948202
C  -3.5343832254  1.2797029523 -3.5991948202
C  -3.7678832254 -0.0449970477 -3.5991948202
C  -3.5560832254 -1.2463970477 -3.5991948202
C  -2.8834832254 -2.4112970477 -3.5991948202
C  -1.9489832254 -3.1954970477 -3.5991948202
C  -0.6849832254 -3.6554970477 -3.5991948202
C   0.5350167746 -3.6554970477 -3.5991948202
C   1.7990167746 -3.1954970477 -3.5991948202
C   2.7335167746 -2.4112970477 -3.5991948202
C   3.4061167746 -1.2463970477 -3.5991948202
C   3.6179167746 -0.0449970477 -3.5991948202
C   3.3844167746  1.2797029523 -3.5991948202
C   2.7744167746  2.3362029523 -3.5991948202
C   1.7440167746  3.2008029523 -3.5991948202
C   0.5975167746  3.6181029523 -3.5991948202
C  -0.7474832254  3.6181029523 -3.5991948202
36
Scanning combination 38/51: [6.7007]  Energy = -1371.4931681455
C  -0.6100000000  3.6423000000  3.0000000000
C  -1.8740000000  3.1823000000  3.0000000000
C  -2.8085000000  2.3981000000  3.0000000000
C  -3.4811000000  1.2332000000  3.0000000000
C  -3.6929000000  0.0318000000  3.0000000000
C  -3.4594000000 -1.2929000000  3.0000000000
C  -2.8494000000 -2.3494000000  3.0000000000
C  -1.8190000000 -3.2140000000  3.0000000000
C  -0.6725000000 -3.6313000000  3.0000000000
C   0.6725000000 -3.6313000000  3.0000000000
C   1.8190000000 -3.2140000000  3.0000000000
C   2.8494000000 -2.3494000000  3.0000000000
C   3.4594000000 -1.2929000000  3.0000000000
C   3.6929000000  0.0318000000  3.0000000000
C   3.4811000000  1.2332000000  3.0000000000
C   2.8085000000  2.3981000000  3.0000000000
C   1.8740000000  3.1823000000  3.0000000000
C   0.6100000000  3.6423000000  3.0000000000
C  -1.8960660928  3.2004363677 -3.6991724541
C  -2.9264660928  2.3358363677 -3.6991724541
C  -3.5364660928  1.2793363677 -3.6991724541
C  -3.7699660928 -0.0453636323 -3.6991724541
C  -3.5581660928 -1.2467636323 -3.6991724541
C  -2.8855660928 -2.4116636323 -3.6991724541
C  -1.9510660928 -3.1958636323 -3.6991724541
C  -0.6870660928 -3.6558636323 -3.6991724541
C   0.5329339072 -3.6558636323 -3.6991724541
C   1.7969339072 -3.1958636323 -3.6991724541
C   2.7314339072 -2.4116636323 -3.6991724541
C   3.4040339072 -1.2467636323 -3.6991724541
C   3.6158339072 -0.0453636323 -3.6991724541
C   3.3823339072  1.2793363677 -3.6991724541
C   2.7723339072  2.3358363677 -3.6991724541
C   1.7419339072  3.2004363677 -3.6991724541
C   0.5954339072  3.6177363677 -3.6991724541
C  -0.7495660928  3.6177363677 -3.6991724541
36
Scanning combination 39/51: [6.8007]  Energy = -1371.4931682024
C  -0.6100000000  3.6423000000  3.0000000000
C  -1.8740000000  3.1823000000  3.0000000000
C  -2.8085000000  2.3981000000  3.0000000000
C  -3.4811000000  1.2332000000  3.0000000000
C  -3.6929000000  0.0318000000  3.0000000000
C  -3.4594000000 -1.2929000000  3.0000000000
C  -2.8494000000 -2.3494000000  3.0000000000
C  -1.8190000000 -3.2140000000  3.0000000000
C  -0.6725000000 -3.6313000000  3.0000000000
C   0.6725000000 -3.6313000000  3.0000000000
C   1.8190000000 -3.2140000000  3.0000000000
C   2.8494000000 -2.3494000000  3.0000000000
C   3.4594000000 -1.2929000000  3.0000000000
C   3.6929000000  0.0318000000  3.0000000000
C   3.4811000000  1.2332000000  3.0000000000
C   2.8085000000  2.3981000000  3.0000000000
C   1.8740000000  3.1823000000  3.0000000000
C   0.6100000000  3.6423000000  3.0000000000
C  -1.8981489602  3.2000697830 -3.7991500880
C  -2.9285489602  2.3354697830 -3.7991500880
C  -3.5385489602  1.2789697830 -3.7991500880
C  -3.7720489602 -0.0457302170 -3.7991500880
C  -3.5602489602 -1.2471302170 -3.7991500880
C  -2.8876489602 -2.4120302170 -3.7991500880
C  -1.9531489602 -3.1962302170 -3.7991500880
C  -0.6891489602 -3.6562302170 -3.7991500880
C   0.5308510398 -3.6562302170 -3.7991500880
C   1.7948510398 -3.1962302170 -3.7991500880
C   2.7293510398 -2.4120302170 -3.7991500880
C   3.4019510398 -1.2471302170 -3.7991500880
C   3.6137510398 -0.0457302170 -3.7991500880
C   3.3802510398  1.2789697830 -3.7991500880
C   2.7702510398  2.3354697830 -3.7991500880
C   1.7398510398  3.2000697830 -3.7991500880
C   0.5933510398  3.6173697830 -3.7991500880
C  -0.7516489602  3.6173697830 -3.7991500880
36
Scanning combination 40/51: [6.9007]  Energy = -1371.4931681586
C  -0.6100000000  3.6423000000  3.0000000000
C  -1.8740000000  3.1823000000  3.0000000000
C  -2.8085000000  2.3981000000  3.0000000000
C  -3.4811000000  1.2332000000  3.0000000000
C  -3.6929000000  0.0318000000  3.0000000000
C  -3.4594000000 -1.2929000000  3.0000000000
C  -2.8494000000 -2.3494000000  3.0000000000
C  -1.8190000000 -3.2140000000  3.0000000000
C  -0.6725000000 -3.6313000000  3.0000000000
C   0.6725000000 -3.6313000000  3.0000000000
C   1.8190000000 -3.2140000000  3.0000000000
C   2.8494000000 -2.3494000000  3.0000000000
C   3.4594000000 -1.2929000000  3.0000000000
C   3.6929000000  0.0318000000  3.0000000000
C   3.4811000000  1.2332000000  3.0000000000
C   2.8085000000  2.3981000000  3.0000000000
C   1.8740000000  3.1823000000  3.0000000000
C   0.6100000000  3.6423000000  3.0000000000
C  -1.9002318275  3.1997031984 -3.8991277219
C  -2.9306318275  2.3351031984 -3.8991277219
C  -3.5406318275  1.2786031984 -3.8991277219
C  -3.7741318275 -0.0460968016 -3.8991277219
C  -3.5623318275 -1.2474968016 -3.8991277219
C  -2.8897318275 -2.4123968016 -3.8991277219
C  -1.9552318275 -3.1965968016 -3.8991277219
C  -0.6912318275 -3.6565968016 -3.8991277219
C   0.5287681725 -3.6565968016 -3.8991277219
C   1.7927681725 -3.1965968016 -3.8991277219
C   2.7272681725 -2.4123968016 -3.8991277219
C   3.3998681725 -1.2474968016 -3.8991277219
C   3.6116681725 -0.0460968016 -3.8991277219
C   3.3781681725  1.2786031984 -3.8991277219
C   2.7681681725  2.3351031984 -3.8991277219
C   1.7377681725  3.1997031984 -3.8991277219
C   0.5912681725  3.6170031984 -3.8991277219
C  -0.7537318275  3.6170031984 -3.8991277219
36
Scanning combination 41/51: [7.0007]  Energy = -1371.4931681192
C  -0.6100000000  3.6423000000  3.0000000000
C  -1.8740000000  3.1823000000  3.0000000000
C  -2.8085000000  2.3981000000  3.0000000000
C  -3.4811000000  1.2332000000  3.0000000000
C  -3.6929000000  0.0318000000  3.0000000000
C  -3.4594000000 -1.2929000000  3.0000000000
C  -2.8494000000 -2.3494000000  3.0000000000
C  -1.8190000000 -3.2140000000  3.0000000000
C  -0.6725000000 -3.6313000000  3.0000000000
C   0.6725000000 -3.6313000000  3.0000000000
C   1.8190000000 -3.2140000000  3.0000000000
C   2.8494000000 -2.3494000000  3.0000000000
C   3.4594000000 -1.2929000000  3.0000000000
C   3.6929000000  0.0318000000  3.0000000000
C   3.4811000000  1.2332000000  3.0000000000
C   2.8085000000  2.3981000000  3.0000000000
C   1.8740000000  3.1823000000  3.0000000000
C   0.6100000000  3.6423000000  3.0000000000
C  -1.9023146949  3.1993366137 -3.9991053558
C  -2.9327146949  2.3347366137 -3.9991053558
C  -3.5427146949  1.2782366137 -3.9991053558
C  -3.7762146949 -0.0464633863 -3.9991053558
C  -3.5644146949 -1.2478633863 -3.9991053558
C  -2.8918146949 -2.4127633863 -3.9991053558
C  -1.9573146949 -3.1969633863 -3.9991053558
C  -0.6933146949 -3.6569633863 -3.9991053558
C   0.5266853051 -3.6569633863 -3.9991053558
C   1.7906853051 -3.1969633863 -3.9991053558
C   2.7251853051 -2.4127633863 -3.9991053558
C   3.3977853051 -1.2478633863 -3.9991053558
C   3.6095853051 -0.0464633863 -3.9991053558
C   3.3760853051  1.2782366137 -3.9991053558
C   2.7660853051  2.3347366137 -3.9991053558
C   1.7356853051  3.1993366137 -3.9991053558
C   0.5891853051  3.6166366137 -3.9991053558
C  -0.7558146949  3.6166366137 -3.9991053558
36
Scanning combination 42/51: [7.1007]  Energy = -1371.4931681367
C  -0.6100000000  3.6423000000  3.0000000000
C  -1.8740000000  3.1823000000  3.0000000000
C  -2.8085000000  2.3981000000  3.0000000000
C  -3.4811000000  1.2332000000  3.0000000000
C  -3.6929000000  0.0318000000  3.0000000000
C  -3.4594000000 -1.2929000000  3.0000000000
C  -2.8494000000 -2.3494000000  3.0000000000
C  -1.8190000000 -3.2140000000  3.0000000000
C  -0.6725000000 -3.6313000000  3.0000000000
C   0.6725000000 -3.6313000000  3.0000000000
C   1.8190000000 -3.2140000000  3.0000000000
C   2.8494000000 -2.3494000000  3.0000000000
C   3.4594000000 -1.2929000000  3.0000000000
C   3.6929000000  0.0318000000  3.0000000000
C   3.4811000000  1.2332000000  3.0000000000
C   2.8085000000  2.3981000000  3.0000000000
C   1.8740000000  3.1823000000  3.0000000000
C   0.6100000000  3.6423000000  3.0000000000
C  -1.9043975623  3.1989700290 -4.0990829897
C  -2.9347975623  2.3343700290 -4.0990829897
C  -3.5447975623  1.2778700290 -4.0990829897
C  -3.7782975623 -0.0468299710 -4.0990829897
C  -3.5664975623 -1.2482299710 -4.0990829897
C  -2.8938975623 -2.4131299710 -4.0990829897
C  -1.9593975623 -3.1973299710 -4.0990829897
C  -0.6953975623 -3.6573299710 -4.0990829897
C   0.5246024377 -3.6573299710 -4.0990829897
C   1.7886024377 -3.1973299710 -4.0990829897
C   2.7231024377 -2.4131299710 -4.0990829897
C   3.3957024377 -1.2482299710 -4.0990829897
C   3.6075024377 -0.0468299710 -4.0990829897
C   3.3740024377  1.2778700290 -4.0990829897
C   2.7640024377  2.3343700290 -4.0990829897
C   1.7336024377  3.1989700290 -4.0990829897
C   0.5871024377  3.6162700290 -4.0990829897
C  -0.7578975623  3.6162700290 -4.0990829897
36
Scanning combination 43/51: [7.2007]  Energy = -1371.4931681280
C  -0.6100000000  3.6423000000  3.0000000000
C  -1.8740000000  3.1823000000  3.0000000000
C  -2.8085000000  2.3981000000  3.0000000000
C  -3.4811000000  1.2332000000  3.0000000000
C  -3.6929000000  0.0318000000  3.0000000000
C  -3.4594000000 -1.2929000000  3.0000000000
C  -2.8494000000 -2.3494000000  3.0000000000
C  -1.8190000000 -3.2140000000  3.0000000000
C  -0.6725000000 -3.6313000000  3.0000000000
C   0.6725000000 -3.6313000000  3.0000000000
C   1.8190000000 -3.2140000000  3.0000000000
C   2.8494000000 -2.3494000000  3.0000000000
C   3.4594000000 -1.2929000000  3.0000000000
C   3.6929000000  0.0318000000  3.0000000000
C   3.4811000000  1.2332000000  3.0000000000
C   2.8085000000  2.3981000000  3.0000000000
C   1.8740000000  3.1823000000  3.0000000000
C   0.6100000000  3.6423000000  3.0000000000
C  -1.9064804297  3.1986034444 -4.1990606236
C  -2.9368804297  2.3340034444 -4.1990606236
C  -3.5468804297  1.2775034444 -4.1990606236
C  -3.7803804297 -0.0471965556 -4.1990606236
C  -3.5685804297 -1.2485965556 -4.1990606236
C  -2.8959804297 -2.4134965556 -4.1990606236
C  -1.9614804297 -3.1976965556 -4.1990606236
C  -0.6974804297 -3.6576965556 -4.1990606236
C   0.5225195703 -3.6576965556 -4.1990606236
C   1.7865195703 -3.1976965556 -4.1990606236
C   2.7210195703 -2.4134965556 -4.1990606236
C   3.3936195703 -1.2485965556 -4.1990606236
C   3.6054195703 -0.0471965556 -4.1990606236
C   3.3719195703  1.2775034444 -4.1990606236
C   2.7619195703  2.3340034444 -4.1990606236
C   1.7315195703  3.1986034444 -4.1990606236
C   0.5850195703  3.6159034444 -4.1990606236
C  -0.7599804297  3.6159034444 -4.1990606236
36
Scanning combination 44/51: [7.3007]  Energy = -1371.4931681762
C  -0.6100000000  3.6423000000  3.0000000000
C  -1.8740000000  3.1823000000  3.0000000000
C  -2.8085000000  2.3981000000  3.0000000000
C  -3.4811000000  1.2332000000  3.0000000000
C  -3.6929000000  0.0318000000  3.0000000000
C  -3.4594000000 -1.2929000000  3.0000000000
C  -2.8494000000 -2.3494000000  3.0000000000
C  -1.8190000000 -3.2140000000  3.0000000000
C  -0.6725000000 -3.6313000000  3.0000000000
C   0.6725000000 -3.6313000000  3.0000000000
C   1.8190000000 -3.2140000000  3.0000000000
C   2.8494000000 -2.3494000000  3.0000000000
C   3.4594000000 -1.2929000000  3.0000000000
C   3.6929000000  0.0318000000  3.0000000000
C   3.4811000000  1.2332000000  3.0000000000
C   2.8085000000  2.3981000000  3.0000000000
C   1.8740000000  3.1823000000  3.0000000000
C   0.6100000000  3.6423000000  3.0000000000
C  -1.9085632970  3.1982368597 -4.2990382575
C  -2.9389632970  2.3336368597 -4.2990382575
C  -3.5489632970  1.2771368597 -4.2990382575
C  -3.7824632970 -0.0475631403 -4.2990382575
C  -3.5706632970 -1.2489631403 -4.2990382575
C  -2.8980632970 -2.4138631403 -4.2990382575
C  -1.9635632970 -3.1980631403 -4.2990382575
C  -0.6995632970 -3.6580631403 -4.2990382575
C   0.5204367030 -3.6580631403 -4.2990382575
C   1.7844367030 -3.1980631403 -4.2990382575
C   2.7189367030 -2.4138631403 -4.2990382575
C   3.3915367030 -1.2489631403 -4.2990382575
C   3.6033367030 -0.0475631403 -4.2990382575
C   3.3698367030  1.2771368597 -4.2990382575
C   2.7598367030  2.3336368597 -4.2990382575
C   1.7294367030  3.1982368597 -4.2990382575
C   0.5829367030  3.6155368597 -4.2990382575
C  -0.7620632970  3.6155368597 -4.2990382575
36
Scanning combination 45/51: [7.4007]  Energy = -1371.4931681718
C  -0.6100000000  3.6423000000  3.0000000000
C  -1.8740000000  3.1823000000  3.0000000000
C  -2.8085000000  2.3981000000  3.0000000000
C  -3.4811000000  1.2332000000  3.0000000000
C  -3.6929000000  0.0318000000  3.0000000000
C  -3.4594000000 -1.2929000000  3.0000000000
C  -2.8494000000 -2.3494000000  3.0000000000
C  -1.8190000000 -3.2140000000  3.0000000000
C  -0.6725000000 -3.6313000000  3.0000000000
C   0.6725000000 -3.6313000000  3.0000000000
C   1.8190000000 -3.2140000000  3.0000000000
C   2.8494000000 -2.3494000000  3.0000000000
C   3.4594000000 -1.2929000000  3.0000000000
C   3.6929000000  0.0318000000  3.0000000000
C   3.4811000000  1.2332000000  3.0000000000
C   2.8085000000  2.3981000000  3.0000000000
C   1.8740000000  3.1823000000  3.0000000000
C   0.6100000000  3.6423000000  3.0000000000
C  -1.9106461644  3.1978702751 -4.3990158914
C  -2.9410461644  2.3332702751 -4.3990158914
C  -3.5510461644  1.2767702751 -4.3990158914
C  -3.7845461644 -0.0479297249 -4.3990158914
C  -3.5727461644 -1.2493297249 -4.3990158914
C  -2.9001461644 -2.4142297249 -4.3990158914
C  -1.9656461644 -3.1984297249 -4.3990158914
C  -0.7016461644 -3.6584297249 -4.3990158914
C   0.5183538356 -3.6584297249 -4.3990158914
C   1.7823538356 -3.1984297249 -4.3990158914
C   2.7168538356 -2.4142297249 -4.3990158914
C   3.3894538356 -1.2493297249 -4.3990158914
C   3.6012538356 -0.0479297249 -4.3990158914
C   3.3677538356  1.2767702751 -4.3990158914
C   2.7577538356  2.3332702751 -4.3990158914
C   1.7273538356  3.1978702751 -4.3990158914
C   0.5808538356  3.6151702751 -4.3990158914
C  -0.7641461644  3.6151702751 -4.3990158914
36
Scanning combination 46/51: [7.5007]  Energy = -1371.4931681499
C  -0.6100000000  3.6423000000  3.0000000000
C  -1.8740000000  3.1823000000  3.0000000000
C  -2.8085000000  2.3981000000  3.0000000000
C  -3.4811000000  1.2332000000  3.0000000000
C  -3.6929000000  0.0318000000  3.0000000000
C  -3.4594000000 -1.2929000000  3.0000000000
C  -2.8494000000 -2.3494000000  3.0000000000
C  -1.8190000000 -3.2140000000  3.0000000000
C  -0.6725000000 -3.6313000000  3.0000000000
C   0.6725000000 -3.6313000000  3.0000000000
C   1.8190000000 -3.2140000000  3.0000000000
C   2.8494000000 -2.3494000000  3.0000000000
C   3.4594000000 -1.2929000000  3.0000000000
C   3.6929000000  0.0318000000  3.0000000000
C   3.4811000000  1.2332000000  3.0000000000
C   2.8085000000  2.3981000000  3.0000000000
C   1.8740000000  3.1823000000  3.0000000000
C   0.6100000000  3.6423000000  3.0000000000
C  -1.9127290318  3.1975036904 -4.4989935253
C  -2.9431290318  2.3329036904 -4.4989935253
C  -3.5531290318  1.2764036904 -4.4989935253
C  -3.7866290318 -0.0482963096 -4.4989935253
C  -3.5748290318 -1.2496963096 -4.4989935253
C  -2.9022290318 -2.4145963096 -4.4989935253
C  -1.9677290318 -3.1987963096 -4.4989935253
C  -0.7037290318 -3.6587963096 -4.4989935253
C   0.5162709682 -3.6587963096 -4.4989935253
C   1.7802709682 -3.1987963096 -4.4989935253
C   2.7147709682 -2.4145963096 -4.4989935253
C   3.3873709682 -1.2496963096 -4.4989935253
C   3.5991709682 -0.0482963096 -4.4989935253
C   3.3656709682  1.2764036904 -4.4989935253
C   2.7556709682  2.3329036904 -4.4989935253
C   1.7252709682  3.1975036904 -4.4989935253
C   0.5787709682  3.6148036904 -4.4989935253
C  -0.7662290318  3.6148036904 -4.4989935253
36
Scanning combination 47/51: [7.6007]  Energy = -1371.4931680973
C  -0.6100000000  3.6423000000  3.0000000000
C  -1.8740000000  3.1823000000  3.0000000000
C  -2.8085000000  2.3981000000  3.0000000000
C  -3.4811000000  1.2332000000  3.0000000000
C  -3.6929000000  0.0318000000  3.0000000000
C  -3.4594000000 -1.2929000000  3.0000000000
C  -2.8494000000 -2.3494000000  3.0000000000
C  -1.8190000000 -3.2140000000  3.0000000000
C  -0.6725000000 -3.6313000000  3.0000000000
C   0.6725000000 -3.6313000000  3.0000000000
C   1.8190000000 -3.2140000000  3.0000000000
C   2.8494000000 -2.3494000000  3.0000000000
C   3.4594000000 -1.2929000000  3.0000000000
C   3.6929000000  0.0318000000  3.0000000000
C   3.4811000000  1.2332000000  3.0000000000
C   2.8085000000  2.3981000000  3.0000000000
C   1.8740000000  3.1823000000  3.0000000000
C   0.6100000000  3.6423000000  3.0000000000
C  -1.9148118991  3.1971371057 -4.5989711592
C  -2.9452118991  2.3325371057 -4.5989711592
C  -3.5552118991  1.2760371057 -4.5989711592
C  -3.7887118991 -0.0486628943 -4.5989711592
C  -3.5769118991 -1.2500628943 -4.5989711592
C  -2.9043118991 -2.4149628943 -4.5989711592
C  -1.9698118991 -3.1991628943 -4.5989711592
C  -0.7058118991 -3.6591628943 -4.5989711592
C   0.5141881009 -3.6591628943 -4.5989711592
C   1.7781881009 -3.1991628943 -4.5989711592
C   2.7126881009 -2.4149628943 -4.5989711592
C   3.3852881009 -1.2500628943 -4.5989711592
C   3.5970881009 -0.0486628943 -4.5989711592
C   3.3635881009  1.2760371057 -4.5989711592
C   2.7535881009  2.3325371057 -4.5989711592
C   1.7231881009  3.1971371057 -4.5989711592
C   0.5766881009  3.6144371057 -4.5989711592
C  -0.7683118991  3.6144371057 -4.5989711592
36
Scanning combination 48/51: [7.7007]  Energy = -1371.4931682156
C  -0.6100000000  3.6423000000  3.0000000000
C  -1.8740000000  3.1823000000  3.0000000000
C  -2.8085000000  2.3981000000  3.0000000000
C  -3.4811000000  1.2332000000  3.0000000000
C  -3.6929000000  0.0318000000  3.0000000000
C  -3.4594000000 -1.2929000000  3.0000000000
C  -2.8494000000 -2.3494000000  3.0000000000
C  -1.8190000000 -3.2140000000  3.0000000000
C  -0.6725000000 -3.6313000000  3.0000000000
C   0.6725000000 -3.6313000000  3.0000000000
C   1.8190000000 -3.2140000000  3.0000000000
C   2.8494000000 -2.3494000000  3.0000000000
C   3.4594000000 -1.2929000000  3.0000000000
C   3.6929000000  0.0318000000  3.0000000000
C   3.4811000000  1.2332000000  3.0000000000
C   2.8085000000  2.3981000000  3.0000000000
C   1.8740000000  3.1823000000  3.0000000000
C   0.6100000000  3.6423000000  3.0000000000
C  -1.9168947665  3.1967705211 -4.6989487931
C  -2.9472947665  2.3321705211 -4.6989487931
C  -3.5572947665  1.2756705211 -4.6989487931
C  -3.7907947665 -0.0490294789 -4.6989487931
C  -3.5789947665 -1.2504294789 -4.6989487931
C  -2.9063947665 -2.4153294789 -4.6989487931
C  -1.9718947665 -3.1995294789 -4.6989487931
C  -0.7078947665 -3.6595294789 -4.6989487931
C   0.5121052335 -3.6595294789 -4.6989487931
C   1.7761052335 -3.1995294789 -4.6989487931
C   2.7106052335 -2.4153294789 -4.6989487931
C   3.3832052335 -1.2504294789 -4.6989487931
C   3.5950052335 -0.0490294789 -4.6989487931
C   3.3615052335  1.2756705211 -4.6989487931
C   2.7515052335  2.3321705211 -4.6989487931
C   1.7211052335  3.1967705211 -4.6989487931
C   0.5746052335  3.6140705211 -4.6989487931
C  -0.7703947665  3.6140705211 -4.6989487931
36
Scanning combination 49/51: [7.8007]  Energy = -1371.4931681718
C  -0.6100000000  3.6423000000  3.0000000000
C  -1.8740000000  3.1823000000  3.0000000000
C  -2.8085000000  2.3981000000  3.0000000000
C  -3.4811000000  1.2332000000  3.0000000000
C  -3.6929000000  0.0318000000  3.0000000000
C  -3.4594000000 -1.2929000000  3.0000000000
C  -2.8494000000 -2.3494000000  3.0000000000
C  -1.8190000000 -3.2140000000  3.0000000000
C  -0.6725000000 -3.6313000000  3.0000000000
C   0.6725000000 -3.6313000000  3.0000000000
C   1.8190000000 -3.2140000000  3.0000000000
C   2.8494000000 -2.3494000000  3.0000000000
C   3.4594000000 -1.2929000000  3.0000000000
C   3.6929000000  0.0318000000  3.0000000000
C   3.4811000000  1.2332000000  3.0000000000
C   2.8085000000  2.3981000000  3.0000000000
C   1.8740000000  3.1823000000  3.0000000000
C   0.6100000000  3.6423000000  3.0000000000
C  -1.9189776339  3.1964039364 -4.7989264269
C  -2.9493776339  2.3318039364 -4.7989264269
C  -3.5593776339  1.2753039364 -4.7989264269
C  -3.7928776339 -0.0493960636 -4.7989264269
C  -3.5810776339 -1.2507960636 -4.7989264269
C  -2.9084776339 -2.4156960636 -4.7989264269
C  -1.9739776339 -3.1998960636 -4.7989264269
C  -0.7099776339 -3.6598960636 -4.7989264269
C   0.5100223661 -3.6598960636 -4.7989264269
C   1.7740223661 -3.1998960636 -4.7989264269
C   2.7085223661 -2.4156960636 -4.7989264269
C   3.3811223661 -1.2507960636 -4.7989264269
C   3.5929223661 -0.0493960636 -4.7989264269
C   3.3594223661  1.2753039364 -4.7989264269
C   2.7494223661  2.3318039364 -4.7989264269
C   1.7190223661  3.1964039364 -4.7989264269
C   0.5725223661  3.6137039364 -4.7989264269
C  -0.7724776339  3.6137039364 -4.7989264269
36
Scanning combination 50/51: [7.9007]  Energy = -1371.4931681543
C  -0.6100000000  3.6423000000  3.0000000000
C  -1.8740000000  3.1823000000  3.0000000000
C  -2.8085000000  2.3981000000  3.0000000000
C  -3.4811000000  1.2332000000  3.0000000000
C  -3.6929000000  0.0318000000  3.0000000000
C  -3.4594000000 -1.2929000000  3.0000000000
C  -2.8494000000 -2.3494000000  3.0000000000
C  -1.8190000000 -3.2140000000  3.0000000000
C  -0.6725000000 -3.6313000000  3.0000000000
C   0.6725000000 -3.6313000000  3.0000000000
C   1.8190000000 -3.2140000000  3.0000000000
C   2.8494000000 -2.3494000000  3.0000000000
C   3.4594000000 -1.2929000000  3.0000000000
C   3.6929000000  0.0318000000  3.0000000000
C   3.4811000000  1.2332000000  3.0000000000
C   2.8085000000  2.3981000000  3.0000000000
C   1.8740000000  3.1823000000  3.0000000000
C   0.6100000000  3.6423000000  3.0000000000
C  -1.9210605013  3.1960373518 -4.8989040608
C  -2.9514605013  2.3314373518 -4.8989040608
C  -3.5614605013  1.2749373518 -4.8989040608
C  -3.7949605013 -0.0497626482 -4.8989040608
C  -3.5831605013 -1.2511626482 -4.8989040608
C  -2.9105605013 -2.4160626482 -4.8989040608
C  -1.9760605013 -3.2002626482 -4.8989040608
C  -0.7120605013 -3.6602626482 -4.8989040608
C   0.5079394987 -3.6602626482 -4.8989040608
C   1.7719394987 -3.2002626482 -4.8989040608
C   2.7064394987 -2.4160626482 -4.8989040608
C   3.3790394987 -1.2511626482 -4.8989040608
C   3.5908394987 -0.0497626482 -4.8989040608
C   3.3573394987  1.2749373518 -4.8989040608
C   2.7473394987  2.3314373518 -4.8989040608
C   1.7169394987  3.1960373518 -4.8989040608
C   0.5704394987  3.6133373518 -4.8989040608
C  -0.7745605013  3.6133373518 -4.8989040608
36
Scanning combination 51/51: [8.0007]  Energy = -1371.4931681324
C  -0.6100000000  3.6423000000  3.0000000000
C  -1.8740000000  3.1823000000  3.0000000000
C  -2.8085000000  2.3981000000  3.0000000000
C  -3.4811000000  1.2332000000  3.0000000000
C  -3.6929000000  0.0318000000  3.0000000000
C  -3.4594000000 -1.2929000000  3.0000000000
C  -2.8494000000 -2.3494000000  3.0000000000
C  -1.8190000000 -3.2140000000  3.0000000000
C  -0.6725000000 -3.6313000000  3.0000000000
C   0.6725000000 -3.6313000000  3.0000000000
C   1.8190000000 -3.2140000000  3.0000000000
C   2.8494000000 -2.3494000000  3.0000000000
C   3.4594000000 -1.2929000000  3.0000000000
C   3.6929000000  0.0318000000  3.0000000000
C   3.4811000000  1.2332000000  3.0000000000
C   2.8085000000  2.3981000000  3.0000000000
C   1.8740000000  3.1823000000  3.0000000000
C   0.6100000000  3.6423000000  3.0000000000
C  -1.9231433686  3.1956707671 -4.9988816947
C  -2.9535433686  2.3310707671 -4.9988816947
C  -3.5635433686  1.2745707671 -4.9988816947
C  -3.7970433686 -0.0501292329 -4.9988816947
C  -3.5852433686 -1.2515292329 -4.9988816947
C  -2.9126433686 -2.4164292329 -4.9988816947
C  -1.9781433686 -3.2006292329 -4.9988816947
C  -0.7141433686 -3.6606292329 -4.9988816947
C   0.5058566314 -3.6606292329 -4.9988816947
C   1.7698566314 -3.2006292329 -4.9988816947
C   2.7043566314 -2.4164292329 -4.9988816947
C   3.3769566314 -1.2515292329 -4.9988816947
C   3.5887566314 -0.0501292329 -4.9988816947
C   3.3552566314  1.2745707671 -4.9988816947
C   2.7452566314  2.3310707671 -4.9988816947
C   1.7148566314  3.1956707671 -4.9988816947
C   0.5683566314  3.6129707671 -4.9988816947
C  -0.7766433686  3.6129707671 -4.9988816947
