84
Scanning combination 1/256: [3.0000, 3.0000]  Energy = -385.9860798117
O   11.1233000000 -4.8002000000  5.0341000000
O   11.3873000000 -0.2652000000  3.3291000000
O   18.1143000000 -4.2382000000 -2.5629000000
O   15.0523000000 -3.1142000000  0.9841000000
C   13.0053000000 -3.3232000000  2.3291000000
C   12.6993000000 -1.9792000000  2.4491000000
C   12.3973000000 -4.3072000000  3.1831000000
C   11.6323000000 -1.5992000000  3.2951000000
C   11.4783000000 -3.8632000000  4.1231000000
C   11.0613000000 -2.4802000000  4.2331000000
C   10.1223000000 -1.9712000000  5.2561000000
C   10.5373000000 -1.3232000000  6.3251000000
C   9.8643000000 -1.0622000000  7.5921000000
C   8.6825000000 -1.0450000000  7.8959000000
C   10.8123000000 -0.2992000000  8.5731000000
C   14.6833000000 -4.8512000000 -0.4449000000
C   15.5183000000 -3.8012000000 -0.0889000000
C   16.6953000000 -3.5982000000 -0.8399000000
C   16.9703000000 -4.4882000000 -1.8899000000
C   16.1523000000 -5.5962000000 -2.2009000000
C   14.9513000000 -5.7522000000 -1.5279000000
C   13.6583000000 -4.8752000000  0.4711000000
C   13.8893000000 -3.7772000000  1.2511000000
H   13.1623000000 -1.2452000000  1.7971000000
H   12.5583000000 -5.3772000000  3.0881000000
H   11.7383000000 -5.5442000000  4.9131000000
H   11.8513000000  0.1658000000  2.5901000000
H   9.4643000000 -1.3292000000  4.6731000000
H   11.4933000000 -0.8182000000  6.2071000000
H   7.9073000000 -0.9712000000  7.1161000000
H   8.2313000000 -0.9072000000  8.8131000000
H   11.1183000000  0.6778000000  8.1811000000
H   11.7213000000 -0.7962000000  8.9311000000
H   10.3263000000 -0.0742000000  9.5301000000
H   17.3553000000 -2.7642000000 -0.6209000000
H   16.3753000000 -6.3042000000 -2.9929000000
H   14.4873000000 -6.7332000000 -1.5779000000
H   12.8783000000 -5.6272000000  0.4831000000
H   18.2613000000 -4.9422000000 -3.2189000000
C   9.4730000000 -5.4100000000  10.6780000000
O   11.8040000000 -5.7620000000  11.1660000000
C   10.8310000000 -5.3400000000  10.3200000000
O   7.2500000000 -4.8940000000  10.2060000000
C   11.2890000000 -4.6680000000  9.1400000000
O   6.0020000000 -2.9380000000  6.0060000000
C   10.3100000000 -4.1890000000  8.2830000000
O   4.2990000000 -4.1740000000  4.4390000000
C   8.9230000000 -4.2990000000  8.5500000000
O   6.2130000000 -6.4540000000  0.6190000000
C   8.5270000000 -4.8770000000  9.7690000000
C   7.7508000000 -3.8932000000  7.7563000000
C   8.0900000000 -3.8590000000  6.3990000000
C   6.8650000000 -3.6740000000  5.6210000000
C   6.6990000000 -4.4550000000  4.3120000000
C   7.8230000000 -4.9840000000  3.6200000000
C   5.3910000000 -4.5980000000  3.7420000000
C   7.6490000000 -5.7440000000  2.4510000000
C   5.2270000000 -5.3550000000  2.5490000000
C   6.3870000000 -5.7820000000  1.8630000000
C   3.8310000000 -5.6840000000  2.1320000000
C   3.4460000000 -7.1300000000  1.8430000000
C   3.6240000000 -8.2290000000  2.6480000000
C   3.1560000000 -9.6060000000  2.1970000000
C   4.3290000000 -8.1360000000  4.0190000000
H   9.1080000000 -5.6700000000  11.6670000000
H   12.3620000000 -4.5300000000  9.0450000000
H   10.6200000000 -3.7440000000  7.3420000000
H   11.3410000000 -6.2000000000  11.9010000000
H   7.1960000000 -5.4800000000  10.9810000000
H   6.8590000000 -3.8440000000  8.1370000000
H   8.3560000000 -4.8950000000  6.2230000000
H   8.8080000000 -4.9410000000  4.0740000000
H   8.4750000000 -6.0630000000  1.8220000000
H   4.7020000000 -3.7670000000  5.2260000000
H   5.2720000000 -6.6340000000  0.4520000000
H   2.9660000000 -5.3080000000  2.6920000000
H   3.7120000000 -5.1960000000  1.1570000000
H   2.8130000000 -7.3100000000  0.9770000000
H   2.6540000000 -10.1570000000  3.0020000000
H   4.0870000000 -10.1270000000  1.9430000000
H   2.3740000000 -9.5680000000  1.4280000000
H   5.3100000000 -8.6080000000  4.1540000000
H   3.6820000000 -8.6030000000  4.7720000000
H   4.3300000000 -7.1160000000  4.4230000000
84
Scanning combination 2/256: [2.9000, 3.0000]  Energy = -385.9859269854
O   11.1233000000 -4.8002000000  5.0341000000
O   11.3873000000 -0.2652000000  3.3291000000
O   18.1143000000 -4.2382000000 -2.5629000000
O   15.0523000000 -3.1142000000  0.9841000000
C   13.0053000000 -3.3232000000  2.3291000000
C   12.6993000000 -1.9792000000  2.4491000000
C   12.3973000000 -4.3072000000  3.1831000000
C   11.6323000000 -1.5992000000  3.2951000000
C   11.4783000000 -3.8632000000  4.1231000000
C   11.0613000000 -2.4802000000  4.2331000000
C   10.1223000000 -1.9712000000  5.2561000000
C   10.5373000000 -1.3232000000  6.3251000000
C   9.8643000000 -1.0622000000  7.5921000000
C   8.6825000000 -1.0450000000  7.8959000000
C   10.8123000000 -0.2992000000  8.5731000000
C   14.6833000000 -4.8512000000 -0.4449000000
C   15.5183000000 -3.8012000000 -0.0889000000
C   16.6953000000 -3.5982000000 -0.8399000000
C   16.9703000000 -4.4882000000 -1.8899000000
C   16.1523000000 -5.5962000000 -2.2009000000
C   14.9513000000 -5.7522000000 -1.5279000000
C   13.6583000000 -4.8752000000  0.4711000000
C   13.8893000000 -3.7772000000  1.2511000000
H   13.1623000000 -1.2452000000  1.7971000000
H   12.5583000000 -5.3772000000  3.0881000000
H   11.7383000000 -5.5442000000  4.9131000000
H   11.8513000000  0.1658000000  2.5901000000
H   9.4643000000 -1.3292000000  4.6731000000
H   11.4933000000 -0.8182000000  6.2071000000
H   7.9073000000 -0.9712000000  7.1161000000
H   8.2313000000 -0.9072000000  8.8131000000
H   11.1183000000  0.6778000000  8.1811000000
H   11.7213000000 -0.7962000000  8.9311000000
H   10.3263000000 -0.0742000000  9.5301000000
H   17.3553000000 -2.7642000000 -0.6209000000
H   16.3753000000 -6.3042000000 -2.9929000000
H   14.4873000000 -6.7332000000 -1.5779000000
H   12.8783000000 -5.6272000000  0.4831000000
H   18.2613000000 -4.9422000000 -3.2189000000
C   9.5175686942 -5.4217828321  10.6351375751
O   11.8485686942 -5.7737828321  11.1231375751
C   10.8755686942 -5.3517828321  10.2771375751
O   7.2945686942 -4.9057828321  10.1631375751
C   11.3335686942 -4.6797828321  9.0971375751
O   6.0465686942 -2.9497828321  5.9631375751
C   10.3545686942 -4.2007828321  8.2401375751
O   4.3435686942 -4.1857828321  4.3961375751
C   8.9675686942 -4.3107828321  8.5071375751
O   6.2575686942 -6.4657828321  0.5761375751
C   8.5715686942 -4.8887828321  9.7261375751
C   7.7953686942 -3.9049828321  7.7134375751
C   8.1345686942 -3.8707828321  6.3561375751
C   6.9095686942 -3.6857828321  5.5781375751
C   6.7435686942 -4.4667828321  4.2691375751
C   7.8675686942 -4.9957828321  3.5771375751
C   5.4355686942 -4.6097828321  3.6991375751
C   7.6935686942 -5.7557828321  2.4081375751
C   5.2715686942 -5.3667828321  2.5061375751
C   6.4315686942 -5.7937828321  1.8201375751
C   3.8755686942 -5.6957828321  2.0891375751
C   3.4905686942 -7.1417828321  1.8001375751
C   3.6685686942 -8.2407828321  2.6051375751
C   3.2005686942 -9.6177828321  2.1541375751
C   4.3735686942 -8.1477828321  3.9761375751
H   9.1525686942 -5.6817828321  11.6241375751
H   12.4065686942 -4.5417828321  9.0021375751
H   10.6645686942 -3.7557828321  7.2991375751
H   11.3855686942 -6.2117828321  11.8581375751
H   7.2405686942 -5.4917828321  10.9381375751
H   6.9035686942 -3.8557828321  8.0941375751
H   8.4005686942 -4.9067828321  6.1801375751
H   8.8525686942 -4.9527828321  4.0311375751
H   8.5195686942 -6.0747828321  1.7791375751
H   4.7465686942 -3.7787828321  5.1831375751
H   5.3165686942 -6.6457828321  0.4091375751
H   3.0105686942 -5.3197828321  2.6491375751
H   3.7565686942 -5.2077828321  1.1141375751
H   2.8575686942 -7.3217828321  0.9341375751
H   2.6985686942 -10.1687828321  2.9591375751
H   4.1315686942 -10.1387828321  1.9001375751
H   2.4185686942 -9.5797828321  1.3851375751
H   5.3545686942 -8.6197828321  4.1111375751
H   3.7265686942 -8.6147828321  4.7291375751
H   4.3745686942 -7.1277828321  4.3801375751
84
Scanning combination 3/256: [2.8000, 3.0000]  Energy = -385.9852775331
O   11.1233000000 -4.8002000000  5.0341000000
O   11.3873000000 -0.2652000000  3.3291000000
O   18.1143000000 -4.2382000000 -2.5629000000
O   15.0523000000 -3.1142000000  0.9841000000
C   13.0053000000 -3.3232000000  2.3291000000
C   12.6993000000 -1.9792000000  2.4491000000
C   12.3973000000 -4.3072000000  3.1831000000
C   11.6323000000 -1.5992000000  3.2951000000
C   11.4783000000 -3.8632000000  4.1231000000
C   11.0613000000 -2.4802000000  4.2331000000
C   10.1223000000 -1.9712000000  5.2561000000
C   10.5373000000 -1.3232000000  6.3251000000
C   9.8643000000 -1.0622000000  7.5921000000
C   8.6825000000 -1.0450000000  7.8959000000
C   10.8123000000 -0.2992000000  8.5731000000
C   14.6833000000 -4.8512000000 -0.4449000000
C   15.5183000000 -3.8012000000 -0.0889000000
C   16.6953000000 -3.5982000000 -0.8399000000
C   16.9703000000 -4.4882000000 -1.8899000000
C   16.1523000000 -5.5962000000 -2.2009000000
C   14.9513000000 -5.7522000000 -1.5279000000
C   13.6583000000 -4.8752000000  0.4711000000
C   13.8893000000 -3.7772000000  1.2511000000
H   13.1623000000 -1.2452000000  1.7971000000
H   12.5583000000 -5.3772000000  3.0881000000
H   11.7383000000 -5.5442000000  4.9131000000
H   11.8513000000  0.1658000000  2.5901000000
H   9.4643000000 -1.3292000000  4.6731000000
H   11.4933000000 -0.8182000000  6.2071000000
H   7.9073000000 -0.9712000000  7.1161000000
H   8.2313000000 -0.9072000000  8.8131000000
H   11.1183000000  0.6778000000  8.1811000000
H   11.7213000000 -0.7962000000  8.9311000000
H   10.3263000000 -0.0742000000  9.5301000000
H   17.3553000000 -2.7642000000 -0.6209000000
H   16.3753000000 -6.3042000000 -2.9929000000
H   14.4873000000 -6.7332000000 -1.5779000000
H   12.8783000000 -5.6272000000  0.4831000000
H   18.2613000000 -4.9422000000 -3.2189000000
C   9.5918930552 -5.4384577059  10.5646541492
O   11.9228930552 -5.7904577059  11.0526541492
C   10.9498930552 -5.3684577059  10.2066541492
O   7.3688930552 -4.9224577059  10.0926541492
C   11.4078930552 -4.6964577059  9.0266541492
O   6.1208930552 -2.9664577059  5.8926541492
C   10.4288930552 -4.2174577059  8.1696541492
O   4.4178930552 -4.2024577059  4.3256541492
C   9.0418930552 -4.3274577059  8.4366541492
O   6.3318930552 -6.4824577059  0.5056541492
C   8.6458930552 -4.9054577059  9.6556541492
C   7.8696930552 -3.9216577059  7.6429541492
C   8.2088930552 -3.8874577059  6.2856541492
C   6.9838930552 -3.7024577059  5.5076541492
C   6.8178930552 -4.4834577059  4.1986541492
C   7.9418930552 -5.0124577059  3.5066541492
C   5.5098930552 -4.6264577059  3.6286541492
C   7.7678930552 -5.7724577059  2.3376541492
C   5.3458930552 -5.3834577059  2.4356541492
C   6.5058930552 -5.8104577059  1.7496541492
C   3.9498930552 -5.7124577059  2.0186541492
C   3.5648930552 -7.1584577059  1.7296541492
C   3.7428930552 -8.2574577059  2.5346541492
C   3.2748930552 -9.6344577059  2.0836541492
C   4.4478930552 -8.1644577059  3.9056541492
H   9.2268930552 -5.6984577059  11.5536541492
H   12.4808930552 -4.5584577059  8.9316541492
H   10.7388930552 -3.7724577059  7.2286541492
H   11.4598930552 -6.2284577059  11.7876541492
H   7.3148930552 -5.5084577059  10.8676541492
H   6.9778930552 -3.8724577059  8.0236541492
H   8.4748930552 -4.9234577059  6.1096541492
H   8.9268930552 -4.9694577059  3.9606541492
H   8.5938930552 -6.0914577059  1.7086541492
H   4.8208930552 -3.7954577059  5.1126541492
H   5.3908930552 -6.6624577059  0.3386541492
H   3.0848930552 -5.3364577059  2.5786541492
H   3.8308930552 -5.2244577059  1.0436541492
H   2.9318930552 -7.3384577059  0.8636541492
H   2.7728930552 -10.1854577059  2.8886541492
H   4.2058930552 -10.1554577059  1.8296541492
H   2.4928930552 -9.5964577059  1.3146541492
H   5.4288930552 -8.6364577059  4.0406541492
H   3.8008930552 -8.6314577059  4.6586541492
H   4.4488930552 -7.1444577059  4.3096541492
84
Scanning combination 4/256: [2.7000, 3.0000]  Energy = -385.9832810160
O   11.1233000000 -4.8002000000  5.0341000000
O   11.3873000000 -0.2652000000  3.3291000000
O   18.1143000000 -4.2382000000 -2.5629000000
O   15.0523000000 -3.1142000000  0.9841000000
C   13.0053000000 -3.3232000000  2.3291000000
C   12.6993000000 -1.9792000000  2.4491000000
C   12.3973000000 -4.3072000000  3.1831000000
C   11.6323000000 -1.5992000000  3.2951000000
C   11.4783000000 -3.8632000000  4.1231000000
C   11.0613000000 -2.4802000000  4.2331000000
C   10.1223000000 -1.9712000000  5.2561000000
C   10.5373000000 -1.3232000000  6.3251000000
C   9.8643000000 -1.0622000000  7.5921000000
C   8.6825000000 -1.0450000000  7.8959000000
C   10.8123000000 -0.2992000000  8.5731000000
C   14.6833000000 -4.8512000000 -0.4449000000
C   15.5183000000 -3.8012000000 -0.0889000000
C   16.6953000000 -3.5982000000 -0.8399000000
C   16.9703000000 -4.4882000000 -1.8899000000
C   16.1523000000 -5.5962000000 -2.2009000000
C   14.9513000000 -5.7522000000 -1.5279000000
C   13.6583000000 -4.8752000000  0.4711000000
C   13.8893000000 -3.7772000000  1.2511000000
H   13.1623000000 -1.2452000000  1.7971000000
H   12.5583000000 -5.3772000000  3.0881000000
H   11.7383000000 -5.5442000000  4.9131000000
H   11.8513000000  0.1658000000  2.5901000000
H   9.4643000000 -1.3292000000  4.6731000000
H   11.4933000000 -0.8182000000  6.2071000000
H   7.9073000000 -0.9712000000  7.1161000000
H   8.2313000000 -0.9072000000  8.8131000000
H   11.1183000000  0.6778000000  8.1811000000
H   11.7213000000 -0.7962000000  8.9311000000
H   10.3263000000 -0.0742000000  9.5301000000
H   17.3553000000 -2.7642000000 -0.6209000000
H   16.3753000000 -6.3042000000 -2.9929000000
H   14.4873000000 -6.7332000000 -1.5779000000
H   12.8783000000 -5.6272000000  0.4831000000
H   18.2613000000 -4.9422000000 -3.2189000000
C   9.6856779141 -5.4543913281  10.4774251354
O   12.0166779141 -5.8063913281  10.9654251354
C   11.0436779141 -5.3843913281  10.1194251354
O   7.4626779141 -4.9383913281  10.0054251354
C   11.5016779141 -4.7123913281  8.9394251354
O   6.2146779141 -2.9823913281  5.8054251354
C   10.5226779141 -4.2333913281  8.0824251354
O   4.5116779141 -4.2183913281  4.2384251354
C   9.1356779141 -4.3433913281  8.3494251354
O   6.4256779141 -6.4983913281  0.4184251354
C   8.7396779141 -4.9213913281  9.5684251354
C   7.9634779141 -3.9375913281  7.5557251354
C   8.3026779141 -3.9033913281  6.1984251354
C   7.0776779141 -3.7183913281  5.4204251354
C   6.9116779141 -4.4993913281  4.1114251354
C   8.0356779141 -5.0283913281  3.4194251354
C   5.6036779141 -4.6423913281  3.5414251354
C   7.8616779141 -5.7883913281  2.2504251354
C   5.4396779141 -5.3993913281  2.3484251354
C   6.5996779141 -5.8263913281  1.6624251354
C   4.0436779141 -5.7283913281  1.9314251354
C   3.6586779141 -7.1743913281  1.6424251354
C   3.8366779141 -8.2733913281  2.4474251354
C   3.3686779141 -9.6503913281  1.9964251354
C   4.5416779141 -8.1803913281  3.8184251354
H   9.3206779141 -5.7143913281  11.4664251354
H   12.5746779141 -4.5743913281  8.8444251354
H   10.8326779141 -3.7883913281  7.1414251354
H   11.5536779141 -6.2443913281  11.7004251354
H   7.4086779141 -5.5243913281  10.7804251354
H   7.0716779141 -3.8883913281  7.9364251354
H   8.5686779141 -4.9393913281  6.0224251354
H   9.0206779141 -4.9853913281  3.8734251354
H   8.6876779141 -6.1073913281  1.6214251354
H   4.9146779141 -3.8113913281  5.0254251354
H   5.4846779141 -6.6783913281  0.2514251354
H   3.1786779141 -5.3523913281  2.4914251354
H   3.9246779141 -5.2403913281  0.9564251354
H   3.0256779141 -7.3543913281  0.7764251354
H   2.8666779141 -10.2013913281  2.8014251354
H   4.2996779141 -10.1713913281  1.7424251354
H   2.5866779141 -9.6123913281  1.2274251354
H   5.5226779141 -8.6523913281  3.9534251354
H   3.8946779141 -8.6473913281  4.5714251354
H   4.5426779141 -7.1603913281  4.2224251354
84
Scanning combination 5/256: [2.6000, 3.0000]  Energy = -385.9803301092
O   11.1233000000 -4.8002000000  5.0341000000
O   11.3873000000 -0.2652000000  3.3291000000
O   18.1143000000 -4.2382000000 -2.5629000000
O   15.0523000000 -3.1142000000  0.9841000000
C   13.0053000000 -3.3232000000  2.3291000000
C   12.6993000000 -1.9792000000  2.4491000000
C   12.3973000000 -4.3072000000  3.1831000000
C   11.6323000000 -1.5992000000  3.2951000000
C   11.4783000000 -3.8632000000  4.1231000000
C   11.0613000000 -2.4802000000  4.2331000000
C   10.1223000000 -1.9712000000  5.2561000000
C   10.5373000000 -1.3232000000  6.3251000000
C   9.8643000000 -1.0622000000  7.5921000000
C   8.6825000000 -1.0450000000  7.8959000000
C   10.8123000000 -0.2992000000  8.5731000000
C   14.6833000000 -4.8512000000 -0.4449000000
C   15.5183000000 -3.8012000000 -0.0889000000
C   16.6953000000 -3.5982000000 -0.8399000000
C   16.9703000000 -4.4882000000 -1.8899000000
C   16.1523000000 -5.5962000000 -2.2009000000
C   14.9513000000 -5.7522000000 -1.5279000000
C   13.6583000000 -4.8752000000  0.4711000000
C   13.8893000000 -3.7772000000  1.2511000000
H   13.1623000000 -1.2452000000  1.7971000000
H   12.5583000000 -5.3772000000  3.0881000000
H   11.7383000000 -5.5442000000  4.9131000000
H   11.8513000000  0.1658000000  2.5901000000
H   9.4643000000 -1.3292000000  4.6731000000
H   11.4933000000 -0.8182000000  6.2071000000
H   7.9073000000 -0.9712000000  7.1161000000
H   8.2313000000 -0.9072000000  8.8131000000
H   11.1183000000  0.6778000000  8.1811000000
H   11.7213000000 -0.7962000000  8.9311000000
H   10.3263000000 -0.0742000000  9.5301000000
H   17.3553000000 -2.7642000000 -0.6209000000
H   16.3753000000 -6.3042000000 -2.9929000000
H   14.4873000000 -6.7332000000 -1.5779000000
H   12.8783000000 -5.6272000000  0.4831000000
H   18.2613000000 -4.9422000000 -3.2189000000
C   9.7917375967 -5.4658377858  10.3809789732
O   12.1227375967 -5.8178377858  10.8689789732
C   11.1497375967 -5.3958377858  10.0229789732
O   7.5687375967 -4.9498377858  9.9089789732
C   11.6077375967 -4.7238377858  8.8429789732
O   6.3207375967 -2.9938377858  5.7089789732
C   10.6287375967 -4.2448377858  7.9859789732
O   4.6177375967 -4.2298377858  4.1419789732
C   9.2417375967 -4.3548377858  8.2529789732
O   6.5317375967 -6.5098377858  0.3219789732
C   8.8457375967 -4.9328377858  9.4719789732
C   8.0695375967 -3.9490377858  7.4592789732
C   8.4087375967 -3.9148377858  6.1019789732
C   7.1837375967 -3.7298377858  5.3239789732
C   7.0177375967 -4.5108377858  4.0149789732
C   8.1417375967 -5.0398377858  3.3229789732
C   5.7097375967 -4.6538377858  3.4449789732
C   7.9677375967 -5.7998377858  2.1539789732
C   5.5457375967 -5.4108377858  2.2519789732
C   6.7057375967 -5.8378377858  1.5659789732
C   4.1497375967 -5.7398377858  1.8349789732
C   3.7647375967 -7.1858377858  1.5459789732
C   3.9427375967 -8.2848377858  2.3509789732
C   3.4747375967 -9.6618377858  1.8999789732
C   4.6477375967 -8.1918377858  3.7219789732
H   9.4267375967 -5.7258377858  11.3699789732
H   12.6807375967 -4.5858377858  8.7479789732
H   10.9387375967 -3.7998377858  7.0449789732
H   11.6597375967 -6.2558377858  11.6039789732
H   7.5147375967 -5.5358377858  10.6839789732
H   7.1777375967 -3.8998377858  7.8399789732
H   8.6747375967 -4.9508377858  5.9259789732
H   9.1267375967 -4.9968377858  3.7769789732
H   8.7937375967 -6.1188377858  1.5249789732
H   5.0207375967 -3.8228377858  4.9289789732
H   5.5907375967 -6.6898377858  0.1549789732
H   3.2847375967 -5.3638377858  2.3949789732
H   4.0307375967 -5.2518377858  0.8599789732
H   3.1317375967 -7.3658377858  0.6799789732
H   2.9727375967 -10.2128377858  2.7049789732
H   4.4057375967 -10.1828377858  1.6459789732
H   2.6927375967 -9.6238377858  1.1309789732
H   5.6287375967 -8.6638377858  3.8569789732
H   4.0007375967 -8.6588377858  4.4749789732
H   4.6487375967 -7.1718377858  4.1259789732
84
Scanning combination 6/256: [2.5000, 3.0000]  Energy = -385.9766391512
O   11.1233000000 -4.8002000000  5.0341000000
O   11.3873000000 -0.2652000000  3.3291000000
O   18.1143000000 -4.2382000000 -2.5629000000
O   15.0523000000 -3.1142000000  0.9841000000
C   13.0053000000 -3.3232000000  2.3291000000
C   12.6993000000 -1.9792000000  2.4491000000
C   12.3973000000 -4.3072000000  3.1831000000
C   11.6323000000 -1.5992000000  3.2951000000
C   11.4783000000 -3.8632000000  4.1231000000
C   11.0613000000 -2.4802000000  4.2331000000
C   10.1223000000 -1.9712000000  5.2561000000
C   10.5373000000 -1.3232000000  6.3251000000
C   9.8643000000 -1.0622000000  7.5921000000
C   8.6825000000 -1.0450000000  7.8959000000
C   10.8123000000 -0.2992000000  8.5731000000
C   14.6833000000 -4.8512000000 -0.4449000000
C   15.5183000000 -3.8012000000 -0.0889000000
C   16.6953000000 -3.5982000000 -0.8399000000
C   16.9703000000 -4.4882000000 -1.8899000000
C   16.1523000000 -5.5962000000 -2.2009000000
C   14.9513000000 -5.7522000000 -1.5279000000
C   13.6583000000 -4.8752000000  0.4711000000
C   13.8893000000 -3.7772000000  1.2511000000
H   13.1623000000 -1.2452000000  1.7971000000
H   12.5583000000 -5.3772000000  3.0881000000
H   11.7383000000 -5.5442000000  4.9131000000
H   11.8513000000  0.1658000000  2.5901000000
H   9.4643000000 -1.3292000000  4.6731000000
H   11.4933000000 -0.8182000000  6.2071000000
H   7.9073000000 -0.9712000000  7.1161000000
H   8.2313000000 -0.9072000000  8.8131000000
H   11.1183000000  0.6778000000  8.1811000000
H   11.7213000000 -0.7962000000  8.9311000000
H   10.3263000000 -0.0742000000  9.5301000000
H   17.3553000000 -2.7642000000 -0.6209000000
H   16.3753000000 -6.3042000000 -2.9929000000
H   14.4873000000 -6.7332000000 -1.5779000000
H   12.8783000000 -5.6272000000  0.4831000000
H   18.2613000000 -4.9422000000 -3.2189000000
C   9.9051441271 -5.4706792880  10.2803277153
O   12.2361441271 -5.8226792880  10.7683277153
C   11.2631441271 -5.4006792880  9.9223277153
O   7.6821441271 -4.9546792880  9.8083277153
C   11.7211441271 -4.7286792880  8.7423277153
O   6.4341441271 -2.9986792880  5.6083277153
C   10.7421441271 -4.2496792880  7.8853277153
O   4.7311441271 -4.2346792880  4.0413277153
C   9.3551441271 -4.3596792880  8.1523277153
O   6.6451441271 -6.5146792880  0.2213277153
C   8.9591441271 -4.9376792880  9.3713277153
C   8.1829441271 -3.9538792880  7.3586277153
C   8.5221441271 -3.9196792880  6.0013277153
C   7.2971441271 -3.7346792880  5.2233277153
C   7.1311441271 -4.5156792880  3.9143277153
C   8.2551441271 -5.0446792880  3.2223277153
C   5.8231441271 -4.6586792880  3.3443277153
C   8.0811441271 -5.8046792880  2.0533277153
C   5.6591441271 -5.4156792880  2.1513277153
C   6.8191441271 -5.8426792880  1.4653277153
C   4.2631441271 -5.7446792880  1.7343277153
C   3.8781441271 -7.1906792880  1.4453277153
C   4.0561441271 -8.2896792880  2.2503277153
C   3.5881441271 -9.6666792880  1.7993277153
C   4.7611441271 -8.1966792880  3.6213277153
H   9.5401441271 -5.7306792880  11.2693277153
H   12.7941441271 -4.5906792880  8.6473277153
H   11.0521441271 -3.8046792880  6.9443277153
H   11.7731441271 -6.2606792880  11.5033277153
H   7.6281441271 -5.5406792880  10.5833277153
H   7.2911441271 -3.9046792880  7.7393277153
H   8.7881441271 -4.9556792880  5.8253277153
H   9.2401441271 -5.0016792880  3.6763277153
H   8.9071441271 -6.1236792880  1.4243277153
H   5.1341441271 -3.8276792880  4.8283277153
H   5.7041441271 -6.6946792880  0.0543277153
H   3.3981441271 -5.3686792880  2.2943277153
H   4.1441441271 -5.2566792880  0.7593277153
H   3.2451441271 -7.3706792880  0.5793277153
H   3.0861441271 -10.2176792880  2.6043277153
H   4.5191441271 -10.1876792880  1.5453277153
H   2.8061441271 -9.6286792880  1.0303277153
H   5.7421441271 -8.6686792880  3.7563277153
H   4.1141441271 -8.6636792880  4.3743277153
H   4.7621441271 -7.1766792880  4.0253277153
84
Scanning combination 7/256: [2.4000, 3.0000]  Energy = -385.9717086550
O   11.1233000000 -4.8002000000  5.0341000000
O   11.3873000000 -0.2652000000  3.3291000000
O   18.1143000000 -4.2382000000 -2.5629000000
O   15.0523000000 -3.1142000000  0.9841000000
C   13.0053000000 -3.3232000000  2.3291000000
C   12.6993000000 -1.9792000000  2.4491000000
C   12.3973000000 -4.3072000000  3.1831000000
C   11.6323000000 -1.5992000000  3.2951000000
C   11.4783000000 -3.8632000000  4.1231000000
C   11.0613000000 -2.4802000000  4.2331000000
C   10.1223000000 -1.9712000000  5.2561000000
C   10.5373000000 -1.3232000000  6.3251000000
C   9.8643000000 -1.0622000000  7.5921000000
C   8.6825000000 -1.0450000000  7.8959000000
C   10.8123000000 -0.2992000000  8.5731000000
C   14.6833000000 -4.8512000000 -0.4449000000
C   15.5183000000 -3.8012000000 -0.0889000000
C   16.6953000000 -3.5982000000 -0.8399000000
C   16.9703000000 -4.4882000000 -1.8899000000
C   16.1523000000 -5.5962000000 -2.2009000000
C   14.9513000000 -5.7522000000 -1.5279000000
C   13.6583000000 -4.8752000000  0.4711000000
C   13.8893000000 -3.7772000000  1.2511000000
H   13.1623000000 -1.2452000000  1.7971000000
H   12.5583000000 -5.3772000000  3.0881000000
H   11.7383000000 -5.5442000000  4.9131000000
H   11.8513000000  0.1658000000  2.5901000000
H   9.4643000000 -1.3292000000  4.6731000000
H   11.4933000000 -0.8182000000  6.2071000000
H   7.9073000000 -0.9712000000  7.1161000000
H   8.2313000000 -0.9072000000  8.8131000000
H   11.1183000000  0.6778000000  8.1811000000
H   11.7213000000 -0.7962000000  8.9311000000
H   10.3263000000 -0.0742000000  9.5301000000
H   17.3553000000 -2.7642000000 -0.6209000000
H   16.3753000000 -6.3042000000 -2.9929000000
H   14.4873000000 -6.7332000000 -1.5779000000
H   12.8783000000 -5.6272000000  0.4831000000
H   18.2613000000 -4.9422000000 -3.2189000000
C   10.0226231497 -5.4679265404  10.1786617387
O   12.3536231497 -5.8199265404  10.6666617387
C   11.3806231497 -5.3979265404  9.8206617387
O   7.7996231497 -4.9519265404  9.7066617387
C   11.8386231497 -4.7259265404  8.6406617387
O   6.5516231497 -2.9959265404  5.5066617387
C   10.8596231497 -4.2469265404  7.7836617387
O   4.8486231497 -4.2319265404  3.9396617387
C   9.4726231497 -4.3569265404  8.0506617387
O   6.7626231497 -6.5119265404  0.1196617387
C   9.0766231497 -4.9349265404  9.2696617387
C   8.3004231497 -3.9511265404  7.2569617387
C   8.6396231497 -3.9169265404  5.8996617387
C   7.4146231497 -3.7319265404  5.1216617387
C   7.2486231497 -4.5129265404  3.8126617387
C   8.3726231497 -5.0419265404  3.1206617387
C   5.9406231497 -4.6559265404  3.2426617387
C   8.1986231497 -5.8019265404  1.9516617387
C   5.7766231497 -5.4129265404  2.0496617387
C   6.9366231497 -5.8399265404  1.3636617387
C   4.3806231497 -5.7419265404  1.6326617387
C   3.9956231497 -7.1879265404  1.3436617387
C   4.1736231497 -8.2869265404  2.1486617387
C   3.7056231497 -9.6639265404  1.6976617387
C   4.8786231497 -8.1939265404  3.5196617387
H   9.6576231497 -5.7279265404  11.1676617387
H   12.9116231497 -4.5879265404  8.5456617387
H   11.1696231497 -3.8019265404  6.8426617387
H   11.8906231497 -6.2579265404  11.4016617387
H   7.7456231497 -5.5379265404  10.4816617387
H   7.4086231497 -3.9019265404  7.6376617387
H   8.9056231497 -4.9529265404  5.7236617387
H   9.3576231497 -4.9989265404  3.5746617387
H   9.0246231497 -6.1209265404  1.3226617387
H   5.2516231497 -3.8249265404  4.7266617387
H   5.8216231497 -6.6919265404 -0.0473382613
H   3.5156231497 -5.3659265404  2.1926617387
H   4.2616231497 -5.2539265404  0.6576617387
H   3.3626231497 -7.3679265404  0.4776617387
H   3.2036231497 -10.2149265404  2.5026617387
H   4.6366231497 -10.1849265404  1.4436617387
H   2.9236231497 -9.6259265404  0.9286617387
H   5.8596231497 -8.6659265404  3.6546617387
H   4.2316231497 -8.6609265404  4.2726617387
H   4.8796231497 -7.1739265404  3.9236617387
84
Scanning combination 8/256: [2.3000, 3.0000]  Energy = -385.9654721018
O   11.1233000000 -4.8002000000  5.0341000000
O   11.3873000000 -0.2652000000  3.3291000000
O   18.1143000000 -4.2382000000 -2.5629000000
O   15.0523000000 -3.1142000000  0.9841000000
C   13.0053000000 -3.3232000000  2.3291000000
C   12.6993000000 -1.9792000000  2.4491000000
C   12.3973000000 -4.3072000000  3.1831000000
C   11.6323000000 -1.5992000000  3.2951000000
C   11.4783000000 -3.8632000000  4.1231000000
C   11.0613000000 -2.4802000000  4.2331000000
C   10.1223000000 -1.9712000000  5.2561000000
C   10.5373000000 -1.3232000000  6.3251000000
C   9.8643000000 -1.0622000000  7.5921000000
C   8.6825000000 -1.0450000000  7.8959000000
C   10.8123000000 -0.2992000000  8.5731000000
C   14.6833000000 -4.8512000000 -0.4449000000
C   15.5183000000 -3.8012000000 -0.0889000000
C   16.6953000000 -3.5982000000 -0.8399000000
C   16.9703000000 -4.4882000000 -1.8899000000
C   16.1523000000 -5.5962000000 -2.2009000000
C   14.9513000000 -5.7522000000 -1.5279000000
C   13.6583000000 -4.8752000000  0.4711000000
C   13.8893000000 -3.7772000000  1.2511000000
H   13.1623000000 -1.2452000000  1.7971000000
H   12.5583000000 -5.3772000000  3.0881000000
H   11.7383000000 -5.5442000000  4.9131000000
H   11.8513000000  0.1658000000  2.5901000000
H   9.4643000000 -1.3292000000  4.6731000000
H   11.4933000000 -0.8182000000  6.2071000000
H   7.9073000000 -0.9712000000  7.1161000000
H   8.2313000000 -0.9072000000  8.8131000000
H   11.1183000000  0.6778000000  8.1811000000
H   11.7213000000 -0.7962000000  8.9311000000
H   10.3263000000 -0.0742000000  9.5301000000
H   17.3553000000 -2.7642000000 -0.6209000000
H   16.3753000000 -6.3042000000 -2.9929000000
H   14.4873000000 -6.7332000000 -1.5779000000
H   12.8783000000 -5.6272000000  0.4831000000
H   18.2613000000 -4.9422000000 -3.2189000000
C   10.1420776953 -5.4572614996  10.0779186367
O   12.4730776953 -5.8092614996  10.5659186367
C   11.5000776953 -5.3872614996  9.7199186367
O   7.9190776953 -4.9412614996  9.6059186367
C   11.9580776953 -4.7152614996  8.5399186367
O   6.6710776953 -2.9852614996  5.4059186367
C   10.9790776953 -4.2362614996  7.6829186367
O   4.9680776953 -4.2212614996  3.8389186367
C   9.5920776953 -4.3462614996  7.9499186367
O   6.8820776953 -6.5012614996  0.0189186367
C   9.1960776953 -4.9242614996  9.1689186367
C   8.4198776953 -3.9404614996  7.1562186367
C   8.7590776953 -3.9062614996  5.7989186367
C   7.5340776953 -3.7212614996  5.0209186367
C   7.3680776953 -4.5022614996  3.7119186367
C   8.4920776953 -5.0312614996  3.0199186367
C   6.0600776953 -4.6452614996  3.1419186367
C   8.3180776953 -5.7912614996  1.8509186367
C   5.8960776953 -5.4022614996  1.9489186367
C   7.0560776953 -5.8292614996  1.2629186367
C   4.5000776953 -5.7312614996  1.5319186367
C   4.1150776953 -7.1772614996  1.2429186367
C   4.2930776953 -8.2762614996  2.0479186367
C   3.8250776953 -9.6532614996  1.5969186367
C   4.9980776953 -8.1832614996  3.4189186367
H   9.7770776953 -5.7172614996  11.0669186367
H   13.0310776953 -4.5772614996  8.4449186367
H   11.2890776953 -3.7912614996  6.7419186367
H   12.0100776953 -6.2472614996  11.3009186367
H   7.8650776953 -5.5272614996  10.3809186367
H   7.5280776953 -3.8912614996  7.5369186367
H   9.0250776953 -4.9422614996  5.6229186367
H   9.4770776953 -4.9882614996  3.4739186367
H   9.1440776953 -6.1102614996  1.2219186367
H   5.3710776953 -3.8142614996  4.6259186367
H   5.9410776953 -6.6812614996 -0.1480813633
H   3.6350776953 -5.3552614996  2.0919186367
H   4.3810776953 -5.2432614996  0.5569186367
H   3.4820776953 -7.3572614996  0.3769186367
H   3.3230776953 -10.2042614996  2.4019186367
H   4.7560776953 -10.1742614996  1.3429186367
H   3.0430776953 -9.6152614996  0.8279186367
H   5.9790776953 -8.6552614996  3.5539186367
H   4.3510776953 -8.6502614996  4.1719186367
H   4.9990776953 -7.1632614996  3.8229186367
84
Scanning combination 9/256: [2.2000, 3.0000]  Energy = -385.9576252695
O   11.1233000000 -4.8002000000  5.0341000000
O   11.3873000000 -0.2652000000  3.3291000000
O   18.1143000000 -4.2382000000 -2.5629000000
O   15.0523000000 -3.1142000000  0.9841000000
C   13.0053000000 -3.3232000000  2.3291000000
C   12.6993000000 -1.9792000000  2.4491000000
C   12.3973000000 -4.3072000000  3.1831000000
C   11.6323000000 -1.5992000000  3.2951000000
C   11.4783000000 -3.8632000000  4.1231000000
C   11.0613000000 -2.4802000000  4.2331000000
C   10.1223000000 -1.9712000000  5.2561000000
C   10.5373000000 -1.3232000000  6.3251000000
C   9.8643000000 -1.0622000000  7.5921000000
C   8.6825000000 -1.0450000000  7.8959000000
C   10.8123000000 -0.2992000000  8.5731000000
C   14.6833000000 -4.8512000000 -0.4449000000
C   15.5183000000 -3.8012000000 -0.0889000000
C   16.6953000000 -3.5982000000 -0.8399000000
C   16.9703000000 -4.4882000000 -1.8899000000
C   16.1523000000 -5.5962000000 -2.2009000000
C   14.9513000000 -5.7522000000 -1.5279000000
C   13.6583000000 -4.8752000000  0.4711000000
C   13.8893000000 -3.7772000000  1.2511000000
H   13.1623000000 -1.2452000000  1.7971000000
H   12.5583000000 -5.3772000000  3.0881000000
H   11.7383000000 -5.5442000000  4.9131000000
H   11.8513000000  0.1658000000  2.5901000000
H   9.4643000000 -1.3292000000  4.6731000000
H   11.4933000000 -0.8182000000  6.2071000000
H   7.9073000000 -0.9712000000  7.1161000000
H   8.2313000000 -0.9072000000  8.8131000000
H   11.1183000000  0.6778000000  8.1811000000
H   11.7213000000 -0.7962000000  8.9311000000
H   10.3263000000 -0.0742000000  9.5301000000
H   17.3553000000 -2.7642000000 -0.6209000000
H   16.3753000000 -6.3042000000 -2.9929000000
H   14.4873000000 -6.7332000000 -1.5779000000
H   12.8783000000 -5.6272000000  0.4831000000
H   18.2613000000 -4.9422000000 -3.2189000000
C   10.2622119042 -5.4387105602  9.9792211709
O   12.5932119042 -5.7907105602  10.4672211709
C   11.6202119042 -5.3687105602  9.6212211709
O   8.0392119042 -4.9227105602  9.5072211709
C   12.0782119042 -4.6967105602  8.4412211709
O   6.7912119042 -2.9667105602  5.3072211709
C   11.0992119042 -4.2177105602  7.5842211709
O   5.0882119042 -4.2027105602  3.7402211709
C   9.7122119042 -4.3277105602  7.8512211709
O   7.0022119042 -6.4827105602 -0.0797788291
C   9.3162119042 -4.9057105602  9.0702211709
C   8.5400119042 -3.9219105602  7.0575211709
C   8.8792119042 -3.8877105602  5.7002211709
C   7.6542119042 -3.7027105602  4.9222211709
C   7.4882119042 -4.4837105602  3.6132211709
C   8.6122119042 -5.0127105602  2.9212211709
C   6.1802119042 -4.6267105602  3.0432211709
C   8.4382119042 -5.7727105602  1.7522211709
C   6.0162119042 -5.3837105602  1.8502211709
C   7.1762119042 -5.8107105602  1.1642211709
C   4.6202119042 -5.7127105602  1.4332211709
C   4.2352119042 -7.1587105602  1.1442211709
C   4.4132119042 -8.2577105602  1.9492211709
C   3.9452119042 -9.6347105602  1.4982211709
C   5.1182119042 -8.1647105602  3.3202211709
H   9.8972119042 -5.6987105602  10.9682211709
H   13.1512119042 -4.5587105602  8.3462211709
H   11.4092119042 -3.7727105602  6.6432211709
H   12.1302119042 -6.2287105602  11.2022211709
H   7.9852119042 -5.5087105602  10.2822211709
H   7.6482119042 -3.8727105602  7.4382211709
H   9.1452119042 -4.9237105602  5.5242211709
H   9.5972119042 -4.9697105602  3.3752211709
H   9.2642119042 -6.0917105602  1.1232211709
H   5.4912119042 -3.7957105602  4.5272211709
H   6.0612119042 -6.6627105602 -0.2467788291
H   3.7552119042 -5.3367105602  1.9932211709
H   4.5012119042 -5.2247105602  0.4582211709
H   3.6022119042 -7.3387105602  0.2782211709
H   3.4432119042 -10.1857105602  2.3032211709
H   4.8762119042 -10.1557105602  1.2442211709
H   3.1632119042 -9.5967105602  0.7292211709
H   6.0992119042 -8.6367105602  3.4552211709
H   4.4712119042 -8.6317105602  4.0732211709
H   5.1192119042 -7.1447105602  3.7242211709
84
Scanning combination 10/256: [2.1000, 3.0000]  Energy = -385.9474145170
O   11.1233000000 -4.8002000000  5.0341000000
O   11.3873000000 -0.2652000000  3.3291000000
O   18.1143000000 -4.2382000000 -2.5629000000
O   15.0523000000 -3.1142000000  0.9841000000
C   13.0053000000 -3.3232000000  2.3291000000
C   12.6993000000 -1.9792000000  2.4491000000
C   12.3973000000 -4.3072000000  3.1831000000
C   11.6323000000 -1.5992000000  3.2951000000
C   11.4783000000 -3.8632000000  4.1231000000
C   11.0613000000 -2.4802000000  4.2331000000
C   10.1223000000 -1.9712000000  5.2561000000
C   10.5373000000 -1.3232000000  6.3251000000
C   9.8643000000 -1.0622000000  7.5921000000
C   8.6825000000 -1.0450000000  7.8959000000
C   10.8123000000 -0.2992000000  8.5731000000
C   14.6833000000 -4.8512000000 -0.4449000000
C   15.5183000000 -3.8012000000 -0.0889000000
C   16.6953000000 -3.5982000000 -0.8399000000
C   16.9703000000 -4.4882000000 -1.8899000000
C   16.1523000000 -5.5962000000 -2.2009000000
C   14.9513000000 -5.7522000000 -1.5279000000
C   13.6583000000 -4.8752000000  0.4711000000
C   13.8893000000 -3.7772000000  1.2511000000
H   13.1623000000 -1.2452000000  1.7971000000
H   12.5583000000 -5.3772000000  3.0881000000
H   11.7383000000 -5.5442000000  4.9131000000
H   11.8513000000  0.1658000000  2.5901000000
H   9.4643000000 -1.3292000000  4.6731000000
H   11.4933000000 -0.8182000000  6.2071000000
H   7.9073000000 -0.9712000000  7.1161000000
H   8.2313000000 -0.9072000000  8.8131000000
H   11.1183000000  0.6778000000  8.1811000000
H   11.7213000000 -0.7962000000  8.9311000000
H   10.3263000000 -0.0742000000  9.5301000000
H   17.3553000000 -2.7642000000 -0.6209000000
H   16.3753000000 -6.3042000000 -2.9929000000
H   14.4873000000 -6.7332000000 -1.5779000000
H   12.8783000000 -5.6272000000  0.4831000000
H   18.2613000000 -4.9422000000 -3.2189000000
C   10.3822489067 -5.4124440589  9.8831907277
O   12.7132489067 -5.7644440589  10.3711907277
C   11.7402489067 -5.3424440589  9.5251907277
O   8.1592489067 -4.8964440589  9.4111907277
C   12.1982489067 -4.6704440589  8.3451907277
O   6.9112489067 -2.9404440589  5.2111907277
C   11.2192489067 -4.1914440589  7.4881907277
O   5.2082489067 -4.1764440589  3.6441907277
C   9.8322489067 -4.3014440589  7.7551907277
O   7.1222489067 -6.4564440589 -0.1758092723
C   9.4362489067 -4.8794440589  8.9741907277
C   8.6600489067 -3.8956440589  6.9614907277
C   8.9992489067 -3.8614440589  5.6041907277
C   7.7742489067 -3.6764440589  4.8261907277
C   7.6082489067 -4.4574440589  3.5171907277
C   8.7322489067 -4.9864440589  2.8251907277
C   6.3002489067 -4.6004440589  2.9471907277
C   8.5582489067 -5.7464440589  1.6561907277
C   6.1362489067 -5.3574440589  1.7541907277
C   7.2962489067 -5.7844440589  1.0681907277
C   4.7402489067 -5.6864440589  1.3371907277
C   4.3552489067 -7.1324440589  1.0481907277
C   4.5332489067 -8.2314440589  1.8531907277
C   4.0652489067 -9.6084440589  1.4021907277
C   5.2382489067 -8.1384440589  3.2241907277
H   10.0172489067 -5.6724440589  10.8721907277
H   13.2712489067 -4.5324440589  8.2501907277
H   11.5292489067 -3.7464440589  6.5471907277
H   12.2502489067 -6.2024440589  11.1061907277
H   8.1052489067 -5.4824440589  10.1861907277
H   7.7682489067 -3.8464440589  7.3421907277
H   9.2652489067 -4.8974440589  5.4281907277
H   9.7172489067 -4.9434440589  3.2791907277
H   9.3842489067 -6.0654440589  1.0271907277
H   5.6112489067 -3.7694440589  4.4311907277
H   6.1812489067 -6.6364440589 -0.3428092723
H   3.8752489067 -5.3104440589  1.8971907277
H   4.6212489067 -5.1984440589  0.3621907277
H   3.7222489067 -7.3124440589  0.1821907277
H   3.5632489067 -10.1594440589  2.2071907277
H   4.9962489067 -10.1294440589  1.1481907277
H   3.2832489067 -9.5704440589  0.6331907277
H   6.2192489067 -8.6104440589  3.3591907277
H   4.5912489067 -8.6054440589  3.9771907277
H   5.2392489067 -7.1184440589  3.6281907277
84
Scanning combination 11/256: [2.0000, 3.0000]  Energy = -385.9330810305
O   11.1233000000 -4.8002000000  5.0341000000
O   11.3873000000 -0.2652000000  3.3291000000
O   18.1143000000 -4.2382000000 -2.5629000000
O   15.0523000000 -3.1142000000  0.9841000000
C   13.0053000000 -3.3232000000  2.3291000000
C   12.6993000000 -1.9792000000  2.4491000000
C   12.3973000000 -4.3072000000  3.1831000000
C   11.6323000000 -1.5992000000  3.2951000000
C   11.4783000000 -3.8632000000  4.1231000000
C   11.0613000000 -2.4802000000  4.2331000000
C   10.1223000000 -1.9712000000  5.2561000000
C   10.5373000000 -1.3232000000  6.3251000000
C   9.8643000000 -1.0622000000  7.5921000000
C   8.6825000000 -1.0450000000  7.8959000000
C   10.8123000000 -0.2992000000  8.5731000000
C   14.6833000000 -4.8512000000 -0.4449000000
C   15.5183000000 -3.8012000000 -0.0889000000
C   16.6953000000 -3.5982000000 -0.8399000000
C   16.9703000000 -4.4882000000 -1.8899000000
C   16.1523000000 -5.5962000000 -2.2009000000
C   14.9513000000 -5.7522000000 -1.5279000000
C   13.6583000000 -4.8752000000  0.4711000000
C   13.8893000000 -3.7772000000  1.2511000000
H   13.1623000000 -1.2452000000  1.7971000000
H   12.5583000000 -5.3772000000  3.0881000000
H   11.7383000000 -5.5442000000  4.9131000000
H   11.8513000000  0.1658000000  2.5901000000
H   9.4643000000 -1.3292000000  4.6731000000
H   11.4933000000 -0.8182000000  6.2071000000
H   7.9073000000 -0.9712000000  7.1161000000
H   8.2313000000 -0.9072000000  8.8131000000
H   11.1183000000  0.6778000000  8.1811000000
H   11.7213000000 -0.7962000000  8.9311000000
H   10.3263000000 -0.0742000000  9.5301000000
H   17.3553000000 -2.7642000000 -0.6209000000
H   16.3753000000 -6.3042000000 -2.9929000000
H   14.4873000000 -6.7332000000 -1.5779000000
H   12.8783000000 -5.6272000000  0.4831000000
H   18.2613000000 -4.9422000000 -3.2189000000
C   10.5017326861 -5.3786673085  9.7901568075
O   12.8327326861 -5.7306673085  10.2781568075
C   11.8597326861 -5.3086673085  9.4321568075
O   8.2787326861 -4.8626673085  9.3181568075
C   12.3177326861 -4.6366673085  8.2521568075
O   7.0307326861 -2.9066673085  5.1181568075
C   11.3387326861 -4.1576673085  7.3951568075
O   5.3277326861 -4.1426673085  3.5511568075
C   9.9517326861 -4.2676673085  7.6621568075
O   7.2417326861 -6.4226673085 -0.2688431925
C   9.5557326861 -4.8456673085  8.8811568075
C   8.7795326861 -3.8618673085  6.8684568075
C   9.1187326861 -3.8276673085  5.5111568075
C   7.8937326861 -3.6426673085  4.7331568075
C   7.7277326861 -4.4236673085  3.4241568075
C   8.8517326861 -4.9526673085  2.7321568075
C   6.4197326861 -4.5666673085  2.8541568075
C   8.6777326861 -5.7126673085  1.5631568075
C   6.2557326861 -5.3236673085  1.6611568075
C   7.4157326861 -5.7506673085  0.9751568075
C   4.8597326861 -5.6526673085  1.2441568075
C   4.4747326861 -7.0986673085  0.9551568075
C   4.6527326861 -8.1976673085  1.7601568075
C   4.1847326861 -9.5746673085  1.3091568075
C   5.3577326861 -8.1046673085  3.1311568075
H   10.1367326861 -5.6386673085  10.7791568075
H   13.3907326861 -4.4986673085  8.1571568075
H   11.6487326861 -3.7126673085  6.4541568075
H   12.3697326861 -6.1686673085  11.0131568075
H   8.2247326861 -5.4486673085  10.0931568075
H   7.8877326861 -3.8126673085  7.2491568075
H   9.3847326861 -4.8636673085  5.3351568075
H   9.8367326861 -4.9096673085  3.1861568075
H   9.5037326861 -6.0316673085  0.9341568075
H   5.7307326861 -3.7356673085  4.3381568075
H   6.3007326861 -6.6026673085 -0.4358431925
H   3.9947326861 -5.2766673085  1.8041568075
H   4.7407326861 -5.1646673085  0.2691568075
H   3.8417326861 -7.2786673085  0.0891568075
H   3.6827326861 -10.1256673085  2.1141568075
H   5.1157326861 -10.0956673085  1.0551568075
H   3.4027326861 -9.5366673085  0.5401568075
H   6.3387326861 -8.5766673085  3.2661568075
H   4.7107326861 -8.5716673085  3.8841568075
H   5.3587326861 -7.0846673085  3.5351568075
84
Scanning combination 12/256: [1.9000, 3.0000]  Energy = -385.9109245535
O   11.1233000000 -4.8002000000  5.0341000000
O   11.3873000000 -0.2652000000  3.3291000000
O   18.1143000000 -4.2382000000 -2.5629000000
O   15.0523000000 -3.1142000000  0.9841000000
C   13.0053000000 -3.3232000000  2.3291000000
C   12.6993000000 -1.9792000000  2.4491000000
C   12.3973000000 -4.3072000000  3.1831000000
C   11.6323000000 -1.5992000000  3.2951000000
C   11.4783000000 -3.8632000000  4.1231000000
C   11.0613000000 -2.4802000000  4.2331000000
C   10.1223000000 -1.9712000000  5.2561000000
C   10.5373000000 -1.3232000000  6.3251000000
C   9.8643000000 -1.0622000000  7.5921000000
C   8.6825000000 -1.0450000000  7.8959000000
C   10.8123000000 -0.2992000000  8.5731000000
C   14.6833000000 -4.8512000000 -0.4449000000
C   15.5183000000 -3.8012000000 -0.0889000000
C   16.6953000000 -3.5982000000 -0.8399000000
C   16.9703000000 -4.4882000000 -1.8899000000
C   16.1523000000 -5.5962000000 -2.2009000000
C   14.9513000000 -5.7522000000 -1.5279000000
C   13.6583000000 -4.8752000000  0.4711000000
C   13.8893000000 -3.7772000000  1.2511000000
H   13.1623000000 -1.2452000000  1.7971000000
H   12.5583000000 -5.3772000000  3.0881000000
H   11.7383000000 -5.5442000000  4.9131000000
H   11.8513000000  0.1658000000  2.5901000000
H   9.4643000000 -1.3292000000  4.6731000000
H   11.4933000000 -0.8182000000  6.2071000000
H   7.9073000000 -0.9712000000  7.1161000000
H   8.2313000000 -0.9072000000  8.8131000000
H   11.1183000000  0.6778000000  8.1811000000
H   11.7213000000 -0.7962000000  8.9311000000
H   10.3263000000 -0.0742000000  9.5301000000
H   17.3553000000 -2.7642000000 -0.6209000000
H   16.3753000000 -6.3042000000 -2.9929000000
H   14.4873000000 -6.7332000000 -1.5779000000
H   12.8783000000 -5.6272000000  0.4831000000
H   18.2613000000 -4.9422000000 -3.2189000000
C   10.6203970853 -5.3375678778  9.7002890559
O   12.9513970853 -5.6895678778  10.1882890559
C   11.9783970853 -5.2675678778  9.3422890559
O   8.3973970853 -4.8215678778  9.2282890559
C   12.4363970853 -4.5955678778  8.1622890559
O   7.1493970853 -2.8655678778  5.0282890559
C   11.4573970853 -4.1165678778  7.3052890559
O   5.4463970853 -4.1015678778  3.4612890559
C   10.0703970853 -4.2265678778  7.5722890559
O   7.3603970853 -6.3815678778 -0.3587109441
C   9.6743970853 -4.8045678778  8.7912890559
C   8.8981970853 -3.8207678778  6.7785890559
C   9.2373970853 -3.7865678778  5.4212890559
C   8.0123970853 -3.6015678778  4.6432890559
C   7.8463970853 -4.3825678778  3.3342890559
C   8.9703970853 -4.9115678778  2.6422890559
C   6.5383970853 -4.5255678778  2.7642890559
C   8.7963970853 -5.6715678778  1.4732890559
C   6.3743970853 -5.2825678778  1.5712890559
C   7.5343970853 -5.7095678778  0.8852890559
C   4.9783970853 -5.6115678778  1.1542890559
C   4.5933970853 -7.0575678778  0.8652890559
C   4.7713970853 -8.1565678778  1.6702890559
C   4.3033970853 -9.5335678778  1.2192890559
C   5.4763970853 -8.0635678778  3.0412890559
H   10.2553970853 -5.5975678778  10.6892890559
H   13.5093970853 -4.4575678778  8.0672890559
H   11.7673970853 -3.6715678778  6.3642890559
H   12.4883970853 -6.1275678778  10.9232890559
H   8.3433970853 -5.4075678778  10.0032890559
H   8.0063970853 -3.7715678778  7.1592890559
H   9.5033970853 -4.8225678778  5.2452890559
H   9.9553970853 -4.8685678778  3.0962890559
H   9.6223970853 -5.9905678778  0.8442890559
H   5.8493970853 -3.6945678778  4.2482890559
H   6.4193970853 -6.5615678778 -0.5257109441
H   4.1133970853 -5.2355678778  1.7142890559
H   4.8593970853 -5.1235678778  0.1792890559
H   3.9603970853 -7.2375678778 -0.0007109441
H   3.8013970853 -10.0845678778  2.0242890559
H   5.2343970853 -10.0545678778  0.9652890559
H   3.5213970853 -9.4955678778  0.4502890559
H   6.4573970853 -8.5355678778  3.1762890559
H   4.8293970853 -8.5305678778  3.7942890559
H   5.4773970853 -7.0435678778  3.4452890559
84
Scanning combination 13/256: [1.8000, 3.0000]  Energy = -385.8772877451
O   11.1233000000 -4.8002000000  5.0341000000
O   11.3873000000 -0.2652000000  3.3291000000
O   18.1143000000 -4.2382000000 -2.5629000000
O   15.0523000000 -3.1142000000  0.9841000000
C   13.0053000000 -3.3232000000  2.3291000000
C   12.6993000000 -1.9792000000  2.4491000000
C   12.3973000000 -4.3072000000  3.1831000000
C   11.6323000000 -1.5992000000  3.2951000000
C   11.4783000000 -3.8632000000  4.1231000000
C   11.0613000000 -2.4802000000  4.2331000000
C   10.1223000000 -1.9712000000  5.2561000000
C   10.5373000000 -1.3232000000  6.3251000000
C   9.8643000000 -1.0622000000  7.5921000000
C   8.6825000000 -1.0450000000  7.8959000000
C   10.8123000000 -0.2992000000  8.5731000000
C   14.6833000000 -4.8512000000 -0.4449000000
C   15.5183000000 -3.8012000000 -0.0889000000
C   16.6953000000 -3.5982000000 -0.8399000000
C   16.9703000000 -4.4882000000 -1.8899000000
C   16.1523000000 -5.5962000000 -2.2009000000
C   14.9513000000 -5.7522000000 -1.5279000000
C   13.6583000000 -4.8752000000  0.4711000000
C   13.8893000000 -3.7772000000  1.2511000000
H   13.1623000000 -1.2452000000  1.7971000000
H   12.5583000000 -5.3772000000  3.0881000000
H   11.7383000000 -5.5442000000  4.9131000000
H   11.8513000000  0.1658000000  2.5901000000
H   9.4643000000 -1.3292000000  4.6731000000
H   11.4933000000 -0.8182000000  6.2071000000
H   7.9073000000 -0.9712000000  7.1161000000
H   8.2313000000 -0.9072000000  8.8131000000
H   11.1183000000  0.6778000000  8.1811000000
H   11.7213000000 -0.7962000000  8.9311000000
H   10.3263000000 -0.0742000000  9.5301000000
H   17.3553000000 -2.7642000000 -0.6209000000
H   16.3753000000 -6.3042000000 -2.9929000000
H   14.4873000000 -6.7332000000 -1.5779000000
H   12.8783000000 -5.6272000000  0.4831000000
H   18.2613000000 -4.9422000000 -3.2189000000
C   10.7380831837 -5.2892935154  9.6136768022
O   13.0690831837 -5.6412935154  10.1016768022
C   12.0960831837 -5.2192935154  9.2556768022
O   8.5150831837 -4.7732935154  9.1416768022
C   12.5540831837 -4.5472935154  8.0756768022
O   7.2670831837 -2.8172935154  4.9416768022
C   11.5750831837 -4.0682935154  7.2186768022
O   5.5640831837 -4.0532935154  3.3746768022
C   10.1880831837 -4.1782935154  7.4856768022
O   7.4780831837 -6.3332935154 -0.4453231978
C   9.7920831837 -4.7562935154  8.7046768022
C   9.0158831837 -3.7724935154  6.6919768022
C   9.3550831837 -3.7382935154  5.3346768022
C   8.1300831837 -3.5532935154  4.5566768022
C   7.9640831837 -4.3342935154  3.2476768022
C   9.0880831837 -4.8632935154  2.5556768022
C   6.6560831837 -4.4772935154  2.6776768022
C   8.9140831837 -5.6232935154  1.3866768022
C   6.4920831837 -5.2342935154  1.4846768022
C   7.6520831837 -5.6612935154  0.7986768022
C   5.0960831837 -5.5632935154  1.0676768022
C   4.7110831837 -7.0092935154  0.7786768022
C   4.8890831837 -8.1082935154  1.5836768022
C   4.4210831837 -9.4852935154  1.1326768022
C   5.5940831837 -8.0152935154  2.9546768022
H   10.3730831837 -5.5492935154  10.6026768022
H   13.6270831837 -4.4092935154  7.9806768022
H   11.8850831837 -3.6232935154  6.2776768022
H   12.6060831837 -6.0792935154  10.8366768022
H   8.4610831837 -5.3592935154  9.9166768022
H   8.1240831837 -3.7232935154  7.0726768022
H   9.6210831837 -4.7742935154  5.1586768022
H   10.0730831837 -4.8202935154  3.0096768022
H   9.7400831837 -5.9422935154  0.7576768022
H   5.9670831837 -3.6462935154  4.1616768022
H   6.5370831837 -6.5132935154 -0.6123231978
H   4.2310831837 -5.1872935154  1.6276768022
H   4.9770831837 -5.0752935154  0.0926768022
H   4.0780831837 -7.1892935154 -0.0873231978
H   3.9190831837 -10.0362935154  1.9376768022
H   5.3520831837 -10.0062935154  0.8786768022
H   3.6390831837 -9.4472935154  0.3636768022
H   6.5750831837 -8.4872935154  3.0896768022
H   4.9470831837 -8.4822935154  3.7076768022
H   5.5950831837 -6.9952935154  3.3586768022
84
Scanning combination 14/256: [1.7000, 3.0000]  Energy = -385.8307141062
O   11.1233000000 -4.8002000000  5.0341000000
O   11.3873000000 -0.2652000000  3.3291000000
O   18.1143000000 -4.2382000000 -2.5629000000
O   15.0523000000 -3.1142000000  0.9841000000
C   13.0053000000 -3.3232000000  2.3291000000
C   12.6993000000 -1.9792000000  2.4491000000
C   12.3973000000 -4.3072000000  3.1831000000
C   11.6323000000 -1.5992000000  3.2951000000
C   11.4783000000 -3.8632000000  4.1231000000
C   11.0613000000 -2.4802000000  4.2331000000
C   10.1223000000 -1.9712000000  5.2561000000
C   10.5373000000 -1.3232000000  6.3251000000
C   9.8643000000 -1.0622000000  7.5921000000
C   8.6825000000 -1.0450000000  7.8959000000
C   10.8123000000 -0.2992000000  8.5731000000
C   14.6833000000 -4.8512000000 -0.4449000000
C   15.5183000000 -3.8012000000 -0.0889000000
C   16.6953000000 -3.5982000000 -0.8399000000
C   16.9703000000 -4.4882000000 -1.8899000000
C   16.1523000000 -5.5962000000 -2.2009000000
C   14.9513000000 -5.7522000000 -1.5279000000
C   13.6583000000 -4.8752000000  0.4711000000
C   13.8893000000 -3.7772000000  1.2511000000
H   13.1623000000 -1.2452000000  1.7971000000
H   12.5583000000 -5.3772000000  3.0881000000
H   11.7383000000 -5.5442000000  4.9131000000
H   11.8513000000  0.1658000000  2.5901000000
H   9.4643000000 -1.3292000000  4.6731000000
H   11.4933000000 -0.8182000000  6.2071000000
H   7.9073000000 -0.9712000000  7.1161000000
H   8.2313000000 -0.9072000000  8.8131000000
H   11.1183000000  0.6778000000  8.1811000000
H   11.7213000000 -0.7962000000  8.9311000000
H   10.3263000000 -0.0742000000  9.5301000000
H   17.3553000000 -2.7642000000 -0.6209000000
H   16.3753000000 -6.3042000000 -2.9929000000
H   14.4873000000 -6.7332000000 -1.5779000000
H   12.8783000000 -5.6272000000  0.4831000000
H   18.2613000000 -4.9422000000 -3.2189000000
C   10.8546882665 -5.2339453799  9.5303758864
O   13.1856882665 -5.5859453799  10.0183758864
C   12.2126882665 -5.1639453799  9.1723758864
O   8.6316882665 -4.7179453799  9.0583758864
C   12.6706882665 -4.4919453799  7.9923758864
O   7.3836882665 -2.7619453799  4.8583758864
C   11.6916882665 -4.0129453799  7.1353758864
O   5.6806882665 -3.9979453799  3.2913758864
C   10.3046882665 -4.1229453799  7.4023758864
O   7.5946882665 -6.2779453799 -0.5286241136
C   9.9086882665 -4.7009453799  8.6213758864
C   9.1324882665 -3.7171453799  6.6086758864
C   9.4716882665 -3.6829453799  5.2513758864
C   8.2466882665 -3.4979453799  4.4733758864
C   8.0806882665 -4.2789453799  3.1643758864
C   9.2046882665 -4.8079453799  2.4723758864
C   6.7726882665 -4.4219453799  2.5943758864
C   9.0306882665 -5.5679453799  1.3033758864
C   6.6086882665 -5.1789453799  1.4013758864
C   7.7686882665 -5.6059453799  0.7153758864
C   5.2126882665 -5.5079453799  0.9843758864
C   4.8276882665 -6.9539453799  0.6953758864
C   5.0056882665 -8.0529453799  1.5003758864
C   4.5376882665 -9.4299453799  1.0493758864
C   5.7106882665 -7.9599453799  2.8713758864
H   10.4896882665 -5.4939453799  10.5193758864
H   13.7436882665 -4.3539453799  7.8973758864
H   12.0016882665 -3.5679453799  6.1943758864
H   12.7226882665 -6.0239453799  10.7533758864
H   8.5776882665 -5.3039453799  9.8333758864
H   8.2406882665 -3.6679453799  6.9893758864
H   9.7376882665 -4.7189453799  5.0753758864
H   10.1896882665 -4.7649453799  2.9263758864
H   9.8566882665 -5.8869453799  0.6743758864
H   6.0836882665 -3.5909453799  4.0783758864
H   6.6536882665 -6.4579453799 -0.6956241136
H   4.3476882665 -5.1319453799  1.5443758864
H   5.0936882665 -5.0199453799  0.0093758864
H   4.1946882665 -7.1339453799 -0.1706241136
H   4.0356882665 -9.9809453799  1.8543758864
H   5.4686882665 -9.9509453799  0.7953758864
H   3.7556882665 -9.3919453799  0.2803758864
H   6.6916882665 -8.4319453799  3.0063758864
H   5.0636882665 -8.4269453799  3.6243758864
H   5.7116882665 -6.9399453799  3.2753758864
84
Scanning combination 15/256: [1.6000, 3.0000]  Energy = -385.7700620886
O   11.1233000000 -4.8002000000  5.0341000000
O   11.3873000000 -0.2652000000  3.3291000000
O   18.1143000000 -4.2382000000 -2.5629000000
O   15.0523000000 -3.1142000000  0.9841000000
C   13.0053000000 -3.3232000000  2.3291000000
C   12.6993000000 -1.9792000000  2.4491000000
C   12.3973000000 -4.3072000000  3.1831000000
C   11.6323000000 -1.5992000000  3.2951000000
C   11.4783000000 -3.8632000000  4.1231000000
C   11.0613000000 -2.4802000000  4.2331000000
C   10.1223000000 -1.9712000000  5.2561000000
C   10.5373000000 -1.3232000000  6.3251000000
C   9.8643000000 -1.0622000000  7.5921000000
C   8.6825000000 -1.0450000000  7.8959000000
C   10.8123000000 -0.2992000000  8.5731000000
C   14.6833000000 -4.8512000000 -0.4449000000
C   15.5183000000 -3.8012000000 -0.0889000000
C   16.6953000000 -3.5982000000 -0.8399000000
C   16.9703000000 -4.4882000000 -1.8899000000
C   16.1523000000 -5.5962000000 -2.2009000000
C   14.9513000000 -5.7522000000 -1.5279000000
C   13.6583000000 -4.8752000000  0.4711000000
C   13.8893000000 -3.7772000000  1.2511000000
H   13.1623000000 -1.2452000000  1.7971000000
H   12.5583000000 -5.3772000000  3.0881000000
H   11.7383000000 -5.5442000000  4.9131000000
H   11.8513000000  0.1658000000  2.5901000000
H   9.4643000000 -1.3292000000  4.6731000000
H   11.4933000000 -0.8182000000  6.2071000000
H   7.9073000000 -0.9712000000  7.1161000000
H   8.2313000000 -0.9072000000  8.8131000000
H   11.1183000000  0.6778000000  8.1811000000
H   11.7213000000 -0.7962000000  8.9311000000
H   10.3263000000 -0.0742000000  9.5301000000
H   17.3553000000 -2.7642000000 -0.6209000000
H   16.3753000000 -6.3042000000 -2.9929000000
H   14.4873000000 -6.7332000000 -1.5779000000
H   12.8783000000 -5.6272000000  0.4831000000
H   18.2613000000 -4.9422000000 -3.2189000000
C   10.9701330771 -5.1715790733  9.4504369103
O   13.3011330771 -5.5235790733  9.9384369103
C   12.3281330771 -5.1015790733  9.0924369103
O   8.7471330771 -4.6555790733  8.9784369103
C   12.7861330771 -4.4295790733  7.9124369103
O   7.4991330771 -2.6995790733  4.7784369103
C   11.8071330771 -3.9505790733  7.0554369103
O   5.7961330771 -3.9355790733  3.2114369103
C   10.4201330771 -4.0605790733  7.3224369103
O   7.7101330771 -6.2155790733 -0.6085630897
C   10.0241330771 -4.6385790733  8.5414369103
C   9.2479330771 -3.6547790733  6.5287369103
C   9.5871330771 -3.6205790733  5.1714369103
C   8.3621330771 -3.4355790733  4.3934369103
C   8.1961330771 -4.2165790733  3.0844369103
C   9.3201330771 -4.7455790733  2.3924369103
C   6.8881330771 -4.3595790733  2.5144369103
C   9.1461330771 -5.5055790733  1.2234369103
C   6.7241330771 -5.1165790733  1.3214369103
C   7.8841330771 -5.5435790733  0.6354369103
C   5.3281330771 -5.4455790733  0.9044369103
C   4.9431330771 -6.8915790733  0.6154369103
C   5.1211330771 -7.9905790733  1.4204369103
C   4.6531330771 -9.3675790733  0.9694369103
C   5.8261330771 -7.8975790733  2.7914369103
H   10.6051330771 -5.4315790733  10.4394369103
H   13.8591330771 -4.2915790733  7.8174369103
H   12.1171330771 -3.5055790733  6.1144369103
H   12.8381330771 -5.9615790733  10.6734369103
H   8.6931330771 -5.2415790733  9.7534369103
H   8.3561330771 -3.6055790733  6.9094369103
H   9.8531330771 -4.6565790733  4.9954369103
H   10.3051330771 -4.7025790733  2.8464369103
H   9.9721330771 -5.8245790733  0.5944369103
H   6.1991330771 -3.5285790733  3.9984369103
H   6.7691330771 -6.3955790733 -0.7755630897
H   4.4631330771 -5.0695790733  1.4644369103
H   5.2091330771 -4.9575790733 -0.0705630897
H   4.3101330771 -7.0715790733 -0.2505630897
H   4.1511330771 -9.9185790733  1.7744369103
H   5.5841330771 -9.8885790733  0.7154369103
H   3.8711330771 -9.3295790733  0.2004369103
H   6.8071330771 -8.3695790733  2.9264369103
H   5.1791330771 -8.3645790733  3.5444369103
H   5.8271330771 -6.8775790733  3.1954369103
84
Scanning combination 16/256: [1.5000, 3.0000]  Energy = -385.6993333097
O   11.1233000000 -4.8002000000  5.0341000000
O   11.3873000000 -0.2652000000  3.3291000000
O   18.1143000000 -4.2382000000 -2.5629000000
O   15.0523000000 -3.1142000000  0.9841000000
C   13.0053000000 -3.3232000000  2.3291000000
C   12.6993000000 -1.9792000000  2.4491000000
C   12.3973000000 -4.3072000000  3.1831000000
C   11.6323000000 -1.5992000000  3.2951000000
C   11.4783000000 -3.8632000000  4.1231000000
C   11.0613000000 -2.4802000000  4.2331000000
C   10.1223000000 -1.9712000000  5.2561000000
C   10.5373000000 -1.3232000000  6.3251000000
C   9.8643000000 -1.0622000000  7.5921000000
C   8.6825000000 -1.0450000000  7.8959000000
C   10.8123000000 -0.2992000000  8.5731000000
C   14.6833000000 -4.8512000000 -0.4449000000
C   15.5183000000 -3.8012000000 -0.0889000000
C   16.6953000000 -3.5982000000 -0.8399000000
C   16.9703000000 -4.4882000000 -1.8899000000
C   16.1523000000 -5.5962000000 -2.2009000000
C   14.9513000000 -5.7522000000 -1.5279000000
C   13.6583000000 -4.8752000000  0.4711000000
C   13.8893000000 -3.7772000000  1.2511000000
H   13.1623000000 -1.2452000000  1.7971000000
H   12.5583000000 -5.3772000000  3.0881000000
H   11.7383000000 -5.5442000000  4.9131000000
H   11.8513000000  0.1658000000  2.5901000000
H   9.4643000000 -1.3292000000  4.6731000000
H   11.4933000000 -0.8182000000  6.2071000000
H   7.9073000000 -0.9712000000  7.1161000000
H   8.2313000000 -0.9072000000  8.8131000000
H   11.1183000000  0.6778000000  8.1811000000
H   11.7213000000 -0.7962000000  8.9311000000
H   10.3263000000 -0.0742000000  9.5301000000
H   17.3553000000 -2.7642000000 -0.6209000000
H   16.3753000000 -6.3042000000 -2.9929000000
H   14.4873000000 -6.7332000000 -1.5779000000
H   12.8783000000 -5.6272000000  0.4831000000
H   18.2613000000 -4.9422000000 -3.2189000000
C   11.0843371395 -5.1022115142  9.3739244868
O   13.4153371395 -5.4542115142  9.8619244868
C   12.4423371395 -5.0322115142  9.0159244868
O   8.8613371395 -4.5862115142  8.9019244868
C   12.9003371395 -4.3602115142  7.8359244868
O   7.6133371395 -2.6302115142  4.7019244868
C   11.9213371395 -3.8812115142  6.9789244868
O   5.9103371395 -3.8662115142  3.1349244868
C   10.5343371395 -3.9912115142  7.2459244868
O   7.8243371395 -6.1462115142 -0.6850755132
C   10.1383371395 -4.5692115142  8.4649244868
C   9.3621371395 -3.5854115142  6.4522244868
C   9.7013371395 -3.5512115142  5.0949244868
C   8.4763371395 -3.3662115142  4.3169244868
C   8.3103371395 -4.1472115142  3.0079244868
C   9.4343371395 -4.6762115142  2.3159244868
C   7.0023371395 -4.2902115142  2.4379244868
C   9.2603371395 -5.4362115142  1.1469244868
C   6.8383371395 -5.0472115142  1.2449244868
C   7.9983371395 -5.4742115142  0.5589244868
C   5.4423371395 -5.3762115142  0.8279244868
C   5.0573371395 -6.8222115142  0.5389244868
C   5.2353371395 -7.9212115142  1.3439244868
C   4.7673371395 -9.2982115142  0.8929244868
C   5.9403371395 -7.8282115142  2.7149244868
H   10.7193371395 -5.3622115142  10.3629244868
H   13.9733371395 -4.2222115142  7.7409244868
H   12.2313371395 -3.4362115142  6.0379244868
H   12.9523371395 -5.8922115142  10.5969244868
H   8.8073371395 -5.1722115142  9.6769244868
H   8.4703371395 -3.5362115142  6.8329244868
H   9.9673371395 -4.5872115142  4.9189244868
H   10.4193371395 -4.6332115142  2.7699244868
H   10.0863371395 -5.7552115142  0.5179244868
H   6.3133371395 -3.4592115142  3.9219244868
H   6.8833371395 -6.3262115142 -0.8520755132
H   4.5773371395 -5.0002115142  1.3879244868
H   5.3233371395 -4.8882115142 -0.1470755132
H   4.4243371395 -7.0022115142 -0.3270755132
H   4.2653371395 -9.8492115142  1.6979244868
H   5.6983371395 -9.8192115142  0.6389244868
H   3.9853371395 -9.2602115142  0.1239244868
H   6.9213371395 -8.3002115142  2.8499244868
H   5.2933371395 -8.2952115142  3.4679244868
H   5.9413371395 -6.8082115142  3.1189244868
84
Scanning combination 17/256: [3.0000, 2.9000]  Energy = -385.9832025763
O   11.1233000000 -4.8002000000  5.0341000000
O   11.3873000000 -0.2652000000  3.3291000000
O   18.1143000000 -4.2382000000 -2.5629000000
O   15.0523000000 -3.1142000000  0.9841000000
C   13.0053000000 -3.3232000000  2.3291000000
C   12.6993000000 -1.9792000000  2.4491000000
C   12.3973000000 -4.3072000000  3.1831000000
C   11.6323000000 -1.5992000000  3.2951000000
C   11.4783000000 -3.8632000000  4.1231000000
C   11.0613000000 -2.4802000000  4.2331000000
C   10.1223000000 -1.9712000000  5.2561000000
C   10.5373000000 -1.3232000000  6.3251000000
C   9.8643000000 -1.0622000000  7.5921000000
C   8.6825000000 -1.0450000000  7.8959000000
C   10.8123000000 -0.2992000000  8.5731000000
C   14.6833000000 -4.8512000000 -0.4449000000
C   15.5183000000 -3.8012000000 -0.0889000000
C   16.6953000000 -3.5982000000 -0.8399000000
C   16.9703000000 -4.4882000000 -1.8899000000
C   16.1523000000 -5.5962000000 -2.2009000000
C   14.9513000000 -5.7522000000 -1.5279000000
C   13.6583000000 -4.8752000000  0.4711000000
C   13.8893000000 -3.7772000000  1.2511000000
H   13.1623000000 -1.2452000000  1.7971000000
H   12.5583000000 -5.3772000000  3.0881000000
H   11.7383000000 -5.5442000000  4.9131000000
H   11.8513000000  0.1658000000  2.5901000000
H   9.4643000000 -1.3292000000  4.6731000000
H   11.4933000000 -0.8182000000  6.2071000000
H   7.9073000000 -0.9712000000  7.1161000000
H   8.2313000000 -0.9072000000  8.8131000000
H   11.1183000000  0.6778000000  8.1811000000
H   11.7213000000 -0.7962000000  8.9311000000
H   10.3263000000 -0.0742000000  9.5301000000
H   17.3553000000 -2.7642000000 -0.6209000000
H   16.3753000000 -6.3042000000 -2.9929000000
H   14.4873000000 -6.7332000000 -1.5779000000
H   12.8783000000 -5.6272000000  0.4831000000
H   18.2613000000 -4.9422000000 -3.2189000000
C   9.5040570181 -5.3150589255  10.6826533860
O   11.8350570181 -5.6670589255  11.1706533860
C   10.8620570181 -5.2450589255  10.3246533860
O   7.2810570181 -4.7990589255  10.2106533860
C   11.3200570181 -4.5730589255  9.1446533860
O   6.0330570181 -2.8430589255  6.0106533860
C   10.3410570181 -4.0940589255  8.2876533860
O   4.3300570181 -4.0790589255  4.4436533860
C   8.9540570181 -4.2040589255  8.5546533860
O   6.2440570181 -6.3590589255  0.6236533860
C   8.5580570181 -4.7820589255  9.7736533860
C   7.7818570181 -3.7982589255  7.7609533860
C   8.1210570181 -3.7640589255  6.4036533860
C   6.8960570181 -3.5790589255  5.6256533860
C   6.7300570181 -4.3600589255  4.3166533860
C   7.8540570181 -4.8890589255  3.6246533860
C   5.4220570181 -4.5030589255  3.7466533860
C   7.6800570181 -5.6490589255  2.4556533860
C   5.2580570181 -5.2600589255  2.5536533860
C   6.4180570181 -5.6870589255  1.8676533860
C   3.8620570181 -5.5890589255  2.1366533860
C   3.4770570181 -7.0350589255  1.8476533860
C   3.6550570181 -8.1340589255  2.6526533860
C   3.1870570181 -9.5110589255  2.2016533860
C   4.3600570181 -8.0410589255  4.0236533860
H   9.1390570181 -5.5750589255  11.6716533860
H   12.3930570181 -4.4350589255  9.0496533860
H   10.6510570181 -3.6490589255  7.3466533860
H   11.3720570181 -6.1050589255  11.9056533860
H   7.2270570181 -5.3850589255  10.9856533860
H   6.8900570181 -3.7490589255  8.1416533860
H   8.3870570181 -4.8000589255  6.2276533860
H   8.8390570181 -4.8460589255  4.0786533860
H   8.5060570181 -5.9680589255  1.8266533860
H   4.7330570181 -3.6720589255  5.2306533860
H   5.3030570181 -6.5390589255  0.4566533860
H   2.9970570181 -5.2130589255  2.6966533860
H   3.7430570181 -5.1010589255  1.1616533860
H   2.8440570181 -7.2150589255  0.9816533860
H   2.6850570181 -10.0620589255  3.0066533860
H   4.1180570181 -10.0320589255  1.9476533860
H   2.4050570181 -9.4730589255  1.4326533860
H   5.3410570181 -8.5130589255  4.1586533860
H   3.7130570181 -8.5080589255  4.7766533860
H   4.3610570181 -7.0210589255  4.4276533860
84
Scanning combination 18/256: [3.0000, 2.8000]  Energy = -385.9781285521
O   11.1233000000 -4.8002000000  5.0341000000
O   11.3873000000 -0.2652000000  3.3291000000
O   18.1143000000 -4.2382000000 -2.5629000000
O   15.0523000000 -3.1142000000  0.9841000000
C   13.0053000000 -3.3232000000  2.3291000000
C   12.6993000000 -1.9792000000  2.4491000000
C   12.3973000000 -4.3072000000  3.1831000000
C   11.6323000000 -1.5992000000  3.2951000000
C   11.4783000000 -3.8632000000  4.1231000000
C   11.0613000000 -2.4802000000  4.2331000000
C   10.1223000000 -1.9712000000  5.2561000000
C   10.5373000000 -1.3232000000  6.3251000000
C   9.8643000000 -1.0622000000  7.5921000000
C   8.6825000000 -1.0450000000  7.8959000000
C   10.8123000000 -0.2992000000  8.5731000000
C   14.6833000000 -4.8512000000 -0.4449000000
C   15.5183000000 -3.8012000000 -0.0889000000
C   16.6953000000 -3.5982000000 -0.8399000000
C   16.9703000000 -4.4882000000 -1.8899000000
C   16.1523000000 -5.5962000000 -2.2009000000
C   14.9513000000 -5.7522000000 -1.5279000000
C   13.6583000000 -4.8752000000  0.4711000000
C   13.8893000000 -3.7772000000  1.2511000000
H   13.1623000000 -1.2452000000  1.7971000000
H   12.5583000000 -5.3772000000  3.0881000000
H   11.7383000000 -5.5442000000  4.9131000000
H   11.8513000000  0.1658000000  2.5901000000
H   9.4643000000 -1.3292000000  4.6731000000
H   11.4933000000 -0.8182000000  6.2071000000
H   7.9073000000 -0.9712000000  7.1161000000
H   8.2313000000 -0.9072000000  8.8131000000
H   11.1183000000  0.6778000000  8.1811000000
H   11.7213000000 -0.7962000000  8.9311000000
H   10.3263000000 -0.0742000000  9.5301000000
H   17.3553000000 -2.7642000000 -0.6209000000
H   16.3753000000 -6.3042000000 -2.9929000000
H   14.4873000000 -6.7332000000 -1.5779000000
H   12.8783000000 -5.6272000000  0.4831000000
H   18.2613000000 -4.9422000000 -3.2189000000
C   9.5023627842 -5.2105537804  10.7191072046
O   11.8333627842 -5.5625537804  11.2071072046
C   10.8603627842 -5.1405537804  10.3611072046
O   7.2793627842 -4.6945537804  10.2471072046
C   11.3183627842 -4.4685537804  9.1811072046
O   6.0313627842 -2.7385537804  6.0471072046
C   10.3393627842 -3.9895537804  8.3241072046
O   4.3283627842 -3.9745537804  4.4801072046
C   8.9523627842 -4.0995537804  8.5911072046
O   6.2423627842 -6.2545537804  0.6601072046
C   8.5563627842 -4.6775537804  9.8101072046
C   7.7801627842 -3.6937537804  7.7974072046
C   8.1193627842 -3.6595537804  6.4401072046
C   6.8943627842 -3.4745537804  5.6621072046
C   6.7283627842 -4.2555537804  4.3531072046
C   7.8523627842 -4.7845537804  3.6611072046
C   5.4203627842 -4.3985537804  3.7831072046
C   7.6783627842 -5.5445537804  2.4921072046
C   5.2563627842 -5.1555537804  2.5901072046
C   6.4163627842 -5.5825537804  1.9041072046
C   3.8603627842 -5.4845537804  2.1731072046
C   3.4753627842 -6.9305537804  1.8841072046
C   3.6533627842 -8.0295537804  2.6891072046
C   3.1853627842 -9.4065537804  2.2381072046
C   4.3583627842 -7.9365537804  4.0601072046
H   9.1373627842 -5.4705537804  11.7081072046
H   12.3913627842 -4.3305537804  9.0861072046
H   10.6493627842 -3.5445537804  7.3831072046
H   11.3703627842 -6.0005537804  11.9421072046
H   7.2253627842 -5.2805537804  11.0221072046
H   6.8883627842 -3.6445537804  8.1781072046
H   8.3853627842 -4.6955537804  6.2641072046
H   8.8373627842 -4.7415537804  4.1151072046
H   8.5043627842 -5.8635537804  1.8631072046
H   4.7313627842 -3.5675537804  5.2671072046
H   5.3013627842 -6.4345537804  0.4931072046
H   2.9953627842 -5.1085537804  2.7331072046
H   3.7413627842 -4.9965537804  1.1981072046
H   2.8423627842 -7.1105537804  1.0181072046
H   2.6833627842 -9.9575537804  3.0431072046
H   4.1163627842 -9.9275537804  1.9841072046
H   2.4033627842 -9.3685537804  1.4691072046
H   5.3393627842 -8.4085537804  4.1951072046
H   3.7113627842 -8.4035537804  4.8131072046
H   4.3593627842 -6.9165537804  4.4641072046
84
Scanning combination 19/256: [3.0000, 2.7000]  Energy = -385.9712957140
O   11.1233000000 -4.8002000000  5.0341000000
O   11.3873000000 -0.2652000000  3.3291000000
O   18.1143000000 -4.2382000000 -2.5629000000
O   15.0523000000 -3.1142000000  0.9841000000
C   13.0053000000 -3.3232000000  2.3291000000
C   12.6993000000 -1.9792000000  2.4491000000
C   12.3973000000 -4.3072000000  3.1831000000
C   11.6323000000 -1.5992000000  3.2951000000
C   11.4783000000 -3.8632000000  4.1231000000
C   11.0613000000 -2.4802000000  4.2331000000
C   10.1223000000 -1.9712000000  5.2561000000
C   10.5373000000 -1.3232000000  6.3251000000
C   9.8643000000 -1.0622000000  7.5921000000
C   8.6825000000 -1.0450000000  7.8959000000
C   10.8123000000 -0.2992000000  8.5731000000
C   14.6833000000 -4.8512000000 -0.4449000000
C   15.5183000000 -3.8012000000 -0.0889000000
C   16.6953000000 -3.5982000000 -0.8399000000
C   16.9703000000 -4.4882000000 -1.8899000000
C   16.1523000000 -5.5962000000 -2.2009000000
C   14.9513000000 -5.7522000000 -1.5279000000
C   13.6583000000 -4.8752000000  0.4711000000
C   13.8893000000 -3.7772000000  1.2511000000
H   13.1623000000 -1.2452000000  1.7971000000
H   12.5583000000 -5.3772000000  3.0881000000
H   11.7383000000 -5.5442000000  4.9131000000
H   11.8513000000  0.1658000000  2.5901000000
H   9.4643000000 -1.3292000000  4.6731000000
H   11.4933000000 -0.8182000000  6.2071000000
H   7.9073000000 -0.9712000000  7.1161000000
H   8.2313000000 -0.9072000000  8.8131000000
H   11.1183000000  0.6778000000  8.1811000000
H   11.7213000000 -0.7962000000  8.9311000000
H   10.3263000000 -0.0742000000  9.5301000000
H   17.3553000000 -2.7642000000 -0.6209000000
H   16.3753000000 -6.3042000000 -2.9929000000
H   14.4873000000 -6.7332000000 -1.5779000000
H   12.8783000000 -5.6272000000  0.4831000000
H   18.2613000000 -4.9422000000 -3.2189000000
C   9.4823789693 -5.0989698787  10.7739012139
O   11.8133789693 -5.4509698787  11.2619012139
C   10.8403789693 -5.0289698787  10.4159012139
O   7.2593789693 -4.5829698787  10.3019012139
C   11.2983789693 -4.3569698787  9.2359012139
O   6.0113789693 -2.6269698787  6.1019012139
C   10.3193789693 -3.8779698787  8.3789012139
O   4.3083789693 -3.8629698787  4.5349012139
C   8.9323789693 -3.9879698787  8.6459012139
O   6.2223789693 -6.1429698787  0.7149012139
C   8.5363789693 -4.5659698787  9.8649012139
C   7.7601789693 -3.5821698787  7.8522012139
C   8.0993789693 -3.5479698787  6.4949012139
C   6.8743789693 -3.3629698787  5.7169012139
C   6.7083789693 -4.1439698787  4.4079012139
C   7.8323789693 -4.6729698787  3.7159012139
C   5.4003789693 -4.2869698787  3.8379012139
C   7.6583789693 -5.4329698787  2.5469012139
C   5.2363789693 -5.0439698787  2.6449012139
C   6.3963789693 -5.4709698787  1.9589012139
C   3.8403789693 -5.3729698787  2.2279012139
C   3.4553789693 -6.8189698787  1.9389012139
C   3.6333789693 -7.9179698787  2.7439012139
C   3.1653789693 -9.2949698787  2.2929012139
C   4.3383789693 -7.8249698787  4.1149012139
H   9.1173789693 -5.3589698787  11.7629012139
H   12.3713789693 -4.2189698787  9.1409012139
H   10.6293789693 -3.4329698787  7.4379012139
H   11.3503789693 -5.8889698787  11.9969012139
H   7.2053789693 -5.1689698787  11.0769012139
H   6.8683789693 -3.5329698787  8.2329012139
H   8.3653789693 -4.5839698787  6.3189012139
H   8.8173789693 -4.6299698787  4.1699012139
H   8.4843789693 -5.7519698787  1.9179012139
H   4.7113789693 -3.4559698787  5.3219012139
H   5.2813789693 -6.3229698787  0.5479012139
H   2.9753789693 -4.9969698787  2.7879012139
H   3.7213789693 -4.8849698787  1.2529012139
H   2.8223789693 -6.9989698787  1.0729012139
H   2.6633789693 -9.8459698787  3.0979012139
H   4.0963789693 -9.8159698787  2.0389012139
H   2.3833789693 -9.2569698787  1.5239012139
H   5.3193789693 -8.2969698787  4.2499012139
H   3.6913789693 -8.2919698787  4.8679012139
H   4.3393789693 -6.8049698787  4.5189012139
84
Scanning combination 20/256: [3.0000, 2.6000]  Energy = -385.9624983068
O   11.1233000000 -4.8002000000  5.0341000000
O   11.3873000000 -0.2652000000  3.3291000000
O   18.1143000000 -4.2382000000 -2.5629000000
O   15.0523000000 -3.1142000000  0.9841000000
C   13.0053000000 -3.3232000000  2.3291000000
C   12.6993000000 -1.9792000000  2.4491000000
C   12.3973000000 -4.3072000000  3.1831000000
C   11.6323000000 -1.5992000000  3.2951000000
C   11.4783000000 -3.8632000000  4.1231000000
C   11.0613000000 -2.4802000000  4.2331000000
C   10.1223000000 -1.9712000000  5.2561000000
C   10.5373000000 -1.3232000000  6.3251000000
C   9.8643000000 -1.0622000000  7.5921000000
C   8.6825000000 -1.0450000000  7.8959000000
C   10.8123000000 -0.2992000000  8.5731000000
C   14.6833000000 -4.8512000000 -0.4449000000
C   15.5183000000 -3.8012000000 -0.0889000000
C   16.6953000000 -3.5982000000 -0.8399000000
C   16.9703000000 -4.4882000000 -1.8899000000
C   16.1523000000 -5.5962000000 -2.2009000000
C   14.9513000000 -5.7522000000 -1.5279000000
C   13.6583000000 -4.8752000000  0.4711000000
C   13.8893000000 -3.7772000000  1.2511000000
H   13.1623000000 -1.2452000000  1.7971000000
H   12.5583000000 -5.3772000000  3.0881000000
H   11.7383000000 -5.5442000000  4.9131000000
H   11.8513000000  0.1658000000  2.5901000000
H   9.4643000000 -1.3292000000  4.6731000000
H   11.4933000000 -0.8182000000  6.2071000000
H   7.9073000000 -0.9712000000  7.1161000000
H   8.2313000000 -0.9072000000  8.8131000000
H   11.1183000000  0.6778000000  8.1811000000
H   11.7213000000 -0.7962000000  8.9311000000
H   10.3263000000 -0.0742000000  9.5301000000
H   17.3553000000 -2.7642000000 -0.6209000000
H   16.3753000000 -6.3042000000 -2.9929000000
H   14.4873000000 -6.7332000000 -1.5779000000
H   12.8783000000 -5.6272000000  0.4831000000
H   18.2613000000 -4.9422000000 -3.2189000000
C   9.4537864434 -4.9815445801  10.8381676015
O   11.7847864434 -5.3335445801  11.3261676015
C   10.8117864434 -4.9115445801  10.4801676015
O   7.2307864434 -4.4655445801  10.3661676015
C   11.2697864434 -4.2395445801  9.3001676015
O   5.9827864434 -2.5095445801  6.1661676015
C   10.2907864434 -3.7605445801  8.4431676015
O   4.2797864434 -3.7455445801  4.5991676015
C   8.9037864434 -3.8705445801  8.7101676015
O   6.1937864434 -6.0255445801  0.7791676015
C   8.5077864434 -4.4485445801  9.9291676015
C   7.7315864434 -3.4647445801  7.9164676015
C   8.0707864434 -3.4305445801  6.5591676015
C   6.8457864434 -3.2455445801  5.7811676015
C   6.6797864434 -4.0265445801  4.4721676015
C   7.8037864434 -4.5555445801  3.7801676015
C   5.3717864434 -4.1695445801  3.9021676015
C   7.6297864434 -5.3155445801  2.6111676015
C   5.2077864434 -4.9265445801  2.7091676015
C   6.3677864434 -5.3535445801  2.0231676015
C   3.8117864434 -5.2555445801  2.2921676015
C   3.4267864434 -6.7015445801  2.0031676015
C   3.6047864434 -7.8005445801  2.8081676015
C   3.1367864434 -9.1775445801  2.3571676015
C   4.3097864434 -7.7075445801  4.1791676015
H   9.0887864434 -5.2415445801  11.8271676015
H   12.3427864434 -4.1015445801  9.2051676015
H   10.6007864434 -3.3155445801  7.5021676015
H   11.3217864434 -5.7715445801  12.0611676015
H   7.1767864434 -5.0515445801  11.1411676015
H   6.8397864434 -3.4155445801  8.2971676015
H   8.3367864434 -4.4665445801  6.3831676015
H   8.7887864434 -4.5125445801  4.2341676015
H   8.4557864434 -5.6345445801  1.9821676015
H   4.6827864434 -3.3385445801  5.3861676015
H   5.2527864434 -6.2055445801  0.6121676015
H   2.9467864434 -4.8795445801  2.8521676015
H   3.6927864434 -4.7675445801  1.3171676015
H   2.7937864434 -6.8815445801  1.1371676015
H   2.6347864434 -9.7285445801  3.1621676015
H   4.0677864434 -9.6985445801  2.1031676015
H   2.3547864434 -9.1395445801  1.5881676015
H   5.2907864434 -8.1795445801  4.3141676015
H   3.6627864434 -8.1745445801  4.9321676015
H   4.3107864434 -6.6875445801  4.5831676015
84
Scanning combination 21/256: [3.0000, 2.5000]  Energy = -385.9517267939
O   11.1233000000 -4.8002000000  5.0341000000
O   11.3873000000 -0.2652000000  3.3291000000
O   18.1143000000 -4.2382000000 -2.5629000000
O   15.0523000000 -3.1142000000  0.9841000000
C   13.0053000000 -3.3232000000  2.3291000000
C   12.6993000000 -1.9792000000  2.4491000000
C   12.3973000000 -4.3072000000  3.1831000000
C   11.6323000000 -1.5992000000  3.2951000000
C   11.4783000000 -3.8632000000  4.1231000000
C   11.0613000000 -2.4802000000  4.2331000000
C   10.1223000000 -1.9712000000  5.2561000000
C   10.5373000000 -1.3232000000  6.3251000000
C   9.8643000000 -1.0622000000  7.5921000000
C   8.6825000000 -1.0450000000  7.8959000000
C   10.8123000000 -0.2992000000  8.5731000000
C   14.6833000000 -4.8512000000 -0.4449000000
C   15.5183000000 -3.8012000000 -0.0889000000
C   16.6953000000 -3.5982000000 -0.8399000000
C   16.9703000000 -4.4882000000 -1.8899000000
C   16.1523000000 -5.5962000000 -2.2009000000
C   14.9513000000 -5.7522000000 -1.5279000000
C   13.6583000000 -4.8752000000  0.4711000000
C   13.8893000000 -3.7772000000  1.2511000000
H   13.1623000000 -1.2452000000  1.7971000000
H   12.5583000000 -5.3772000000  3.0881000000
H   11.7383000000 -5.5442000000  4.9131000000
H   11.8513000000  0.1658000000  2.5901000000
H   9.4643000000 -1.3292000000  4.6731000000
H   11.4933000000 -0.8182000000  6.2071000000
H   7.9073000000 -0.9712000000  7.1161000000
H   8.2313000000 -0.9072000000  8.8131000000
H   11.1183000000  0.6778000000  8.1811000000
H   11.7213000000 -0.7962000000  8.9311000000
H   10.3263000000 -0.0742000000  9.5301000000
H   17.3553000000 -2.7642000000 -0.6209000000
H   16.3753000000 -6.3042000000 -2.9929000000
H   14.4873000000 -6.7332000000 -1.5779000000
H   12.8783000000 -5.6272000000  0.4831000000
H   18.2613000000 -4.9422000000 -3.2189000000
C   9.4228730953 -4.8591924889  10.9061094522
O   11.7538730953 -5.2111924889  11.3941094522
C   10.7808730953 -4.7891924889  10.5481094522
O   7.1998730953 -4.3431924889  10.4341094522
C   11.2388730953 -4.1171924889  9.3681094522
O   5.9518730953 -2.3871924889  6.2341094522
C   10.2598730953 -3.6381924889  8.5111094522
O   4.2488730953 -3.6231924889  4.6671094522
C   8.8728730953 -3.7481924889  8.7781094522
O   6.1628730953 -5.9031924889  0.8471094522
C   8.4768730953 -4.3261924889  9.9971094522
C   7.7006730953 -3.3423924889  7.9844094522
C   8.0398730953 -3.3081924889  6.6271094522
C   6.8148730953 -3.1231924889  5.8491094522
C   6.6488730953 -3.9041924889  4.5401094522
C   7.7728730953 -4.4331924889  3.8481094522
C   5.3408730953 -4.0471924889  3.9701094522
C   7.5988730953 -5.1931924889  2.6791094522
C   5.1768730953 -4.8041924889  2.7771094522
C   6.3368730953 -5.2311924889  2.0911094522
C   3.7808730953 -5.1331924889  2.3601094522
C   3.3958730953 -6.5791924889  2.0711094522
C   3.5738730953 -7.6781924889  2.8761094522
C   3.1058730953 -9.0551924889  2.4251094522
C   4.2788730953 -7.5851924889  4.2471094522
H   9.0578730953 -5.1191924889  11.8951094522
H   12.3118730953 -3.9791924889  9.2731094522
H   10.5698730953 -3.1931924889  7.5701094522
H   11.2908730953 -5.6491924889  12.1291094522
H   7.1458730953 -4.9291924889  11.2091094522
H   6.8088730953 -3.2931924889  8.3651094522
H   8.3058730953 -4.3441924889  6.4511094522
H   8.7578730953 -4.3901924889  4.3021094522
H   8.4248730953 -5.5121924889  2.0501094522
H   4.6518730953 -3.2161924889  5.4541094522
H   5.2218730953 -6.0831924889  0.6801094522
H   2.9158730953 -4.7571924889  2.9201094522
H   3.6618730953 -4.6451924889  1.3851094522
H   2.7628730953 -6.7591924889  1.2051094522
H   2.6038730953 -9.6061924889  3.2301094522
H   4.0368730953 -9.5761924889  2.1711094522
H   2.3238730953 -9.0171924889  1.6561094522
H   5.2598730953 -8.0571924889  4.3821094522
H   3.6318730953 -8.0521924889  5.0001094522
H   4.2798730953 -6.5651924889  4.6511094522
84
Scanning combination 22/256: [3.0000, 2.4000]  Energy = -385.9381462332
O   11.1233000000 -4.8002000000  5.0341000000
O   11.3873000000 -0.2652000000  3.3291000000
O   18.1143000000 -4.2382000000 -2.5629000000
O   15.0523000000 -3.1142000000  0.9841000000
C   13.0053000000 -3.3232000000  2.3291000000
C   12.6993000000 -1.9792000000  2.4491000000
C   12.3973000000 -4.3072000000  3.1831000000
C   11.6323000000 -1.5992000000  3.2951000000
C   11.4783000000 -3.8632000000  4.1231000000
C   11.0613000000 -2.4802000000  4.2331000000
C   10.1223000000 -1.9712000000  5.2561000000
C   10.5373000000 -1.3232000000  6.3251000000
C   9.8643000000 -1.0622000000  7.5921000000
C   8.6825000000 -1.0450000000  7.8959000000
C   10.8123000000 -0.2992000000  8.5731000000
C   14.6833000000 -4.8512000000 -0.4449000000
C   15.5183000000 -3.8012000000 -0.0889000000
C   16.6953000000 -3.5982000000 -0.8399000000
C   16.9703000000 -4.4882000000 -1.8899000000
C   16.1523000000 -5.5962000000 -2.2009000000
C   14.9513000000 -5.7522000000 -1.5279000000
C   13.6583000000 -4.8752000000  0.4711000000
C   13.8893000000 -3.7772000000  1.2511000000
H   13.1623000000 -1.2452000000  1.7971000000
H   12.5583000000 -5.3772000000  3.0881000000
H   11.7383000000 -5.5442000000  4.9131000000
H   11.8513000000  0.1658000000  2.5901000000
H   9.4643000000 -1.3292000000  4.6731000000
H   11.4933000000 -0.8182000000  6.2071000000
H   7.9073000000 -0.9712000000  7.1161000000
H   8.2313000000 -0.9072000000  8.8131000000
H   11.1183000000  0.6778000000  8.1811000000
H   11.7213000000 -0.7962000000  8.9311000000
H   10.3263000000 -0.0742000000  9.5301000000
H   17.3553000000 -2.7642000000 -0.6209000000
H   16.3753000000 -6.3042000000 -2.9929000000
H   14.4873000000 -6.7332000000 -1.5779000000
H   12.8783000000 -5.6272000000  0.4831000000
H   18.2613000000 -4.9422000000 -3.2189000000
C   9.3935626137 -4.7327374756  10.9740247275
O   11.7245626137 -5.0847374756  11.4620247275
C   10.7515626137 -4.6627374756  10.6160247275
O   7.1705626137 -4.2167374756  10.5020247275
C   11.2095626137 -3.9907374756  9.4360247275
O   5.9225626137 -2.2607374756  6.3020247275
C   10.2305626137 -3.5117374756  8.5790247275
O   4.2195626137 -3.4967374756  4.7350247275
C   8.8435626137 -3.6217374756  8.8460247275
O   6.1335626137 -5.7767374756  0.9150247275
C   8.4475626137 -4.1997374756  10.0650247275
C   7.6713626137 -3.2159374756  8.0523247275
C   8.0105626137 -3.1817374756  6.6950247275
C   6.7855626137 -2.9967374756  5.9170247275
C   6.6195626137 -3.7777374756  4.6080247275
C   7.7435626137 -4.3067374756  3.9160247275
C   5.3115626137 -3.9207374756  4.0380247275
C   7.5695626137 -5.0667374756  2.7470247275
C   5.1475626137 -4.6777374756  2.8450247275
C   6.3075626137 -5.1047374756  2.1590247275
C   3.7515626137 -5.0067374756  2.4280247275
C   3.3665626137 -6.4527374756  2.1390247275
C   3.5445626137 -7.5517374756  2.9440247275
C   3.0765626137 -8.9287374756  2.4930247275
C   4.2495626137 -7.4587374756  4.3150247275
H   9.0285626137 -4.9927374756  11.9630247275
H   12.2825626137 -3.8527374756  9.3410247275
H   10.5405626137 -3.0667374756  7.6380247275
H   11.2615626137 -5.5227374756  12.1970247275
H   7.1165626137 -4.8027374756  11.2770247275
H   6.7795626137 -3.1667374756  8.4330247275
H   8.2765626137 -4.2177374756  6.5190247275
H   8.7285626137 -4.2637374756  4.3700247275
H   8.3955626137 -5.3857374756  2.1180247275
H   4.6225626137 -3.0897374756  5.5220247275
H   5.1925626137 -5.9567374756  0.7480247275
H   2.8865626137 -4.6307374756  2.9880247275
H   3.6325626137 -4.5187374756  1.4530247275
H   2.7335626137 -6.6327374756  1.2730247275
H   2.5745626137 -9.4797374756  3.2980247275
H   4.0075626137 -9.4497374756  2.2390247275
H   2.2945626137 -8.8907374756  1.7240247275
H   5.2305626137 -7.9307374756  4.4500247275
H   3.6025626137 -7.9257374756  5.0680247275
H   4.2505626137 -6.4387374756  4.7190247275
84
Scanning combination 23/256: [3.0000, 2.3000]  Energy = -385.9197109934
O   11.1233000000 -4.8002000000  5.0341000000
O   11.3873000000 -0.2652000000  3.3291000000
O   18.1143000000 -4.2382000000 -2.5629000000
O   15.0523000000 -3.1142000000  0.9841000000
C   13.0053000000 -3.3232000000  2.3291000000
C   12.6993000000 -1.9792000000  2.4491000000
C   12.3973000000 -4.3072000000  3.1831000000
C   11.6323000000 -1.5992000000  3.2951000000
C   11.4783000000 -3.8632000000  4.1231000000
C   11.0613000000 -2.4802000000  4.2331000000
C   10.1223000000 -1.9712000000  5.2561000000
C   10.5373000000 -1.3232000000  6.3251000000
C   9.8643000000 -1.0622000000  7.5921000000
C   8.6825000000 -1.0450000000  7.8959000000
C   10.8123000000 -0.2992000000  8.5731000000
C   14.6833000000 -4.8512000000 -0.4449000000
C   15.5183000000 -3.8012000000 -0.0889000000
C   16.6953000000 -3.5982000000 -0.8399000000
C   16.9703000000 -4.4882000000 -1.8899000000
C   16.1523000000 -5.5962000000 -2.2009000000
C   14.9513000000 -5.7522000000 -1.5279000000
C   13.6583000000 -4.8752000000  0.4711000000
C   13.8893000000 -3.7772000000  1.2511000000
H   13.1623000000 -1.2452000000  1.7971000000
H   12.5583000000 -5.3772000000  3.0881000000
H   11.7383000000 -5.5442000000  4.9131000000
H   11.8513000000  0.1658000000  2.5901000000
H   9.4643000000 -1.3292000000  4.6731000000
H   11.4933000000 -0.8182000000  6.2071000000
H   7.9073000000 -0.9712000000  7.1161000000
H   8.2313000000 -0.9072000000  8.8131000000
H   11.1183000000  0.6778000000  8.1811000000
H   11.7213000000 -0.7962000000  8.9311000000
H   10.3263000000 -0.0742000000  9.5301000000
H   17.3553000000 -2.7642000000 -0.6209000000
H   16.3753000000 -6.3042000000 -2.9929000000
H   14.4873000000 -6.7332000000 -1.5779000000
H   12.8783000000 -5.6272000000  0.4831000000
H   18.2613000000 -4.9422000000 -3.2189000000
C   9.3681890367 -4.6029255428  11.0396255930
O   11.6991890367 -4.9549255428  11.5276255930
C   10.7261890367 -4.5329255428  10.6816255930
O   7.1451890367 -4.0869255428  10.5676255930
C   11.1841890367 -3.8609255428  9.5016255930
O   5.8971890367 -2.1309255428  6.3676255930
C   10.2051890367 -3.3819255428  8.6446255930
O   4.1941890367 -3.3669255428  4.8006255930
C   8.8181890367 -3.4919255428  8.9116255930
O   6.1081890367 -5.6469255428  0.9806255930
C   8.4221890367 -4.0699255428  10.1306255930
C   7.6459890367 -3.0861255428  8.1179255930
C   7.9851890367 -3.0519255428  6.7606255930
C   6.7601890367 -2.8669255428  5.9826255930
C   6.5941890367 -3.6479255428  4.6736255930
C   7.7181890367 -4.1769255428  3.9816255930
C   5.2861890367 -3.7909255428  4.1036255930
C   7.5441890367 -4.9369255428  2.8126255930
C   5.1221890367 -4.5479255428  2.9106255930
C   6.2821890367 -4.9749255428  2.2246255930
C   3.7261890367 -4.8769255428  2.4936255930
C   3.3411890367 -6.3229255428  2.2046255930
C   3.5191890367 -7.4219255428  3.0096255930
C   3.0511890367 -8.7989255428  2.5586255930
C   4.2241890367 -7.3289255428  4.3806255930
H   9.0031890367 -4.8629255428  12.0286255930
H   12.2571890367 -3.7229255428  9.4066255930
H   10.5151890367 -2.9369255428  7.7036255930
H   11.2361890367 -5.3929255428  12.2626255930
H   7.0911890367 -4.6729255428  11.3426255930
H   6.7541890367 -3.0369255428  8.4986255930
H   8.2511890367 -4.0879255428  6.5846255930
H   8.7031890367 -4.1339255428  4.4356255930
H   8.3701890367 -5.2559255428  2.1836255930
H   4.5971890367 -2.9599255428  5.5876255930
H   5.1671890367 -5.8269255428  0.8136255930
H   2.8611890367 -4.5009255428  3.0536255930
H   3.6071890367 -4.3889255428  1.5186255930
H   2.7081890367 -6.5029255428  1.3386255930
H   2.5491890367 -9.3499255428  3.3636255930
H   3.9821890367 -9.3199255428  2.3046255930
H   2.2691890367 -8.7609255428  1.7896255930
H   5.2051890367 -7.8009255428  4.5156255930
H   3.5771890367 -7.7959255428  5.1336255930
H   4.2251890367 -6.3089255428  4.7846255930
84
Scanning combination 24/256: [3.0000, 2.2000]  Energy = -385.8959294554
O   11.1233000000 -4.8002000000  5.0341000000
O   11.3873000000 -0.2652000000  3.3291000000
O   18.1143000000 -4.2382000000 -2.5629000000
O   15.0523000000 -3.1142000000  0.9841000000
C   13.0053000000 -3.3232000000  2.3291000000
C   12.6993000000 -1.9792000000  2.4491000000
C   12.3973000000 -4.3072000000  3.1831000000
C   11.6323000000 -1.5992000000  3.2951000000
C   11.4783000000 -3.8632000000  4.1231000000
C   11.0613000000 -2.4802000000  4.2331000000
C   10.1223000000 -1.9712000000  5.2561000000
C   10.5373000000 -1.3232000000  6.3251000000
C   9.8643000000 -1.0622000000  7.5921000000
C   8.6825000000 -1.0450000000  7.8959000000
C   10.8123000000 -0.2992000000  8.5731000000
C   14.6833000000 -4.8512000000 -0.4449000000
C   15.5183000000 -3.8012000000 -0.0889000000
C   16.6953000000 -3.5982000000 -0.8399000000
C   16.9703000000 -4.4882000000 -1.8899000000
C   16.1523000000 -5.5962000000 -2.2009000000
C   14.9513000000 -5.7522000000 -1.5279000000
C   13.6583000000 -4.8752000000  0.4711000000
C   13.8893000000 -3.7772000000  1.2511000000
H   13.1623000000 -1.2452000000  1.7971000000
H   12.5583000000 -5.3772000000  3.0881000000
H   11.7383000000 -5.5442000000  4.9131000000
H   11.8513000000  0.1658000000  2.5901000000
H   9.4643000000 -1.3292000000  4.6731000000
H   11.4933000000 -0.8182000000  6.2071000000
H   7.9073000000 -0.9712000000  7.1161000000
H   8.2313000000 -0.9072000000  8.8131000000
H   11.1183000000  0.6778000000  8.1811000000
H   11.7213000000 -0.7962000000  8.9311000000
H   10.3263000000 -0.0742000000  9.5301000000
H   17.3553000000 -2.7642000000 -0.6209000000
H   16.3753000000 -6.3042000000 -2.9929000000
H   14.4873000000 -6.7332000000 -1.5779000000
H   12.8783000000 -5.6272000000  0.4831000000
H   18.2613000000 -4.9422000000 -3.2189000000
C   9.3480685869 -4.4704001643  11.1015473234
O   11.6790685869 -4.8224001643  11.5895473234
C   10.7060685869 -4.4004001643  10.7435473234
O   7.1250685869 -3.9544001643  10.6295473234
C   11.1640685869 -3.7284001643  9.5635473234
O   5.8770685869 -1.9984001643  6.4295473234
C   10.1850685869 -3.2494001643  8.7065473234
O   4.1740685869 -3.2344001643  4.8625473234
C   8.7980685869 -3.3594001643  8.9735473234
O   6.0880685869 -5.5144001643  1.0425473234
C   8.4020685869 -3.9374001643  10.1925473234
C   7.6258685869 -2.9536001643  8.1798473234
C   7.9650685869 -2.9194001643  6.8225473234
C   6.7400685869 -2.7344001643  6.0445473234
C   6.5740685869 -3.5154001643  4.7355473234
C   7.6980685869 -4.0444001643  4.0435473234
C   5.2660685869 -3.6584001643  4.1655473234
C   7.5240685869 -4.8044001643  2.8745473234
C   5.1020685869 -4.4154001643  2.9725473234
C   6.2620685869 -4.8424001643  2.2865473234
C   3.7060685869 -4.7444001643  2.5555473234
C   3.3210685869 -6.1904001643  2.2665473234
C   3.4990685869 -7.2894001643  3.0715473234
C   3.0310685869 -8.6664001643  2.6205473234
C   4.2040685869 -7.1964001643  4.4425473234
H   8.9830685869 -4.7304001643  12.0905473234
H   12.2370685869 -3.5904001643  9.4685473234
H   10.4950685869 -2.8044001643  7.7655473234
H   11.2160685869 -5.2604001643  12.3245473234
H   7.0710685869 -4.5404001643  11.4045473234
H   6.7340685869 -2.9044001643  8.5605473234
H   8.2310685869 -3.9554001643  6.6465473234
H   8.6830685869 -4.0014001643  4.4975473234
H   8.3500685869 -5.1234001643  2.2455473234
H   4.5770685869 -2.8274001643  5.6495473234
H   5.1470685869 -5.6944001643  0.8755473234
H   2.8410685869 -4.3684001643  3.1155473234
H   3.5870685869 -4.2564001643  1.5805473234
H   2.6880685869 -6.3704001643  1.4005473234
H   2.5290685869 -9.2174001643  3.4255473234
H   3.9620685869 -9.1874001643  2.3665473234
H   2.2490685869 -8.6284001643  1.8515473234
H   5.1850685869 -7.6684001643  4.5775473234
H   3.5570685869 -7.6634001643  5.1955473234
H   4.2050685869 -6.1764001643  4.8465473234
84
Scanning combination 25/256: [3.0000, 2.1000]  Energy = -385.8655318018
O   11.1233000000 -4.8002000000  5.0341000000
O   11.3873000000 -0.2652000000  3.3291000000
O   18.1143000000 -4.2382000000 -2.5629000000
O   15.0523000000 -3.1142000000  0.9841000000
C   13.0053000000 -3.3232000000  2.3291000000
C   12.6993000000 -1.9792000000  2.4491000000
C   12.3973000000 -4.3072000000  3.1831000000
C   11.6323000000 -1.5992000000  3.2951000000
C   11.4783000000 -3.8632000000  4.1231000000
C   11.0613000000 -2.4802000000  4.2331000000
C   10.1223000000 -1.9712000000  5.2561000000
C   10.5373000000 -1.3232000000  6.3251000000
C   9.8643000000 -1.0622000000  7.5921000000
C   8.6825000000 -1.0450000000  7.8959000000
C   10.8123000000 -0.2992000000  8.5731000000
C   14.6833000000 -4.8512000000 -0.4449000000
C   15.5183000000 -3.8012000000 -0.0889000000
C   16.6953000000 -3.5982000000 -0.8399000000
C   16.9703000000 -4.4882000000 -1.8899000000
C   16.1523000000 -5.5962000000 -2.2009000000
C   14.9513000000 -5.7522000000 -1.5279000000
C   13.6583000000 -4.8752000000  0.4711000000
C   13.8893000000 -3.7772000000  1.2511000000
H   13.1623000000 -1.2452000000  1.7971000000
H   12.5583000000 -5.3772000000  3.0881000000
H   11.7383000000 -5.5442000000  4.9131000000
H   11.8513000000  0.1658000000  2.5901000000
H   9.4643000000 -1.3292000000  4.6731000000
H   11.4933000000 -0.8182000000  6.2071000000
H   7.9073000000 -0.9712000000  7.1161000000
H   8.2313000000 -0.9072000000  8.8131000000
H   11.1183000000  0.6778000000  8.1811000000
H   11.7213000000 -0.7962000000  8.9311000000
H   10.3263000000 -0.0742000000  9.5301000000
H   17.3553000000 -2.7642000000 -0.6209000000
H   16.3753000000 -6.3042000000 -2.9929000000
H   14.4873000000 -6.7332000000 -1.5779000000
H   12.8783000000 -5.6272000000  0.4831000000
H   18.2613000000 -4.9422000000 -3.2189000000
C   9.3339031171 -4.3356935166  11.1589989321
O   11.6649031171 -4.6876935166  11.6469989321
C   10.6919031171 -4.2656935166  10.8009989321
O   7.1109031171 -3.8196935166  10.6869989321
C   11.1499031171 -3.5936935166  9.6209989321
O   5.8629031171 -1.8636935166  6.4869989321
C   10.1709031171 -3.1146935166  8.7639989321
O   4.1599031171 -3.0996935166  4.9199989321
C   8.7839031171 -3.2246935166  9.0309989321
O   6.0739031171 -5.3796935166  1.0999989321
C   8.3879031171 -3.8026935166  10.2499989321
C   7.6117031171 -2.8188935166  8.2372989321
C   7.9509031171 -2.7846935166  6.8799989321
C   6.7259031171 -2.5996935166  6.1019989321
C   6.5599031171 -3.3806935166  4.7929989321
C   7.6839031171 -3.9096935166  4.1009989321
C   5.2519031171 -3.5236935166  4.2229989321
C   7.5099031171 -4.6696935166  2.9319989321
C   5.0879031171 -4.2806935166  3.0299989321
C   6.2479031171 -4.7076935166  2.3439989321
C   3.6919031171 -4.6096935166  2.6129989321
C   3.3069031171 -6.0556935166  2.3239989321
C   3.4849031171 -7.1546935166  3.1289989321
C   3.0169031171 -8.5316935166  2.6779989321
C   4.1899031171 -7.0616935166  4.4999989321
H   8.9689031171 -4.5956935166  12.1479989321
H   12.2229031171 -3.4556935166  9.5259989321
H   10.4809031171 -2.6696935166  7.8229989321
H   11.2019031171 -5.1256935166  12.3819989321
H   7.0569031171 -4.4056935166  11.4619989321
H   6.7199031171 -2.7696935166  8.6179989321
H   8.2169031171 -3.8206935166  6.7039989321
H   8.6689031171 -3.8666935166  4.5549989321
H   8.3359031171 -4.9886935166  2.3029989321
H   4.5629031171 -2.6926935166  5.7069989321
H   5.1329031171 -5.5596935166  0.9329989321
H   2.8269031171 -4.2336935166  3.1729989321
H   3.5729031171 -4.1216935166  1.6379989321
H   2.6739031171 -6.2356935166  1.4579989321
H   2.5149031171 -9.0826935166  3.4829989321
H   3.9479031171 -9.0526935166  2.4239989321
H   2.2349031171 -8.4936935166  1.9089989321
H   5.1709031171 -7.5336935166  4.6349989321
H   3.5429031171 -7.5286935166  5.2529989321
H   4.1909031171 -6.0416935166  4.9039989321
84
Scanning combination 26/256: [3.0000, 2.0000]  Energy = -385.8268810507
O   11.1233000000 -4.8002000000  5.0341000000
O   11.3873000000 -0.2652000000  3.3291000000
O   18.1143000000 -4.2382000000 -2.5629000000
O   15.0523000000 -3.1142000000  0.9841000000
C   13.0053000000 -3.3232000000  2.3291000000
C   12.6993000000 -1.9792000000  2.4491000000
C   12.3973000000 -4.3072000000  3.1831000000
C   11.6323000000 -1.5992000000  3.2951000000
C   11.4783000000 -3.8632000000  4.1231000000
C   11.0613000000 -2.4802000000  4.2331000000
C   10.1223000000 -1.9712000000  5.2561000000
C   10.5373000000 -1.3232000000  6.3251000000
C   9.8643000000 -1.0622000000  7.5921000000
C   8.6825000000 -1.0450000000  7.8959000000
C   10.8123000000 -0.2992000000  8.5731000000
C   14.6833000000 -4.8512000000 -0.4449000000
C   15.5183000000 -3.8012000000 -0.0889000000
C   16.6953000000 -3.5982000000 -0.8399000000
C   16.9703000000 -4.4882000000 -1.8899000000
C   16.1523000000 -5.5962000000 -2.2009000000
C   14.9513000000 -5.7522000000 -1.5279000000
C   13.6583000000 -4.8752000000  0.4711000000
C   13.8893000000 -3.7772000000  1.2511000000
H   13.1623000000 -1.2452000000  1.7971000000
H   12.5583000000 -5.3772000000  3.0881000000
H   11.7383000000 -5.5442000000  4.9131000000
H   11.8513000000  0.1658000000  2.5901000000
H   9.4643000000 -1.3292000000  4.6731000000
H   11.4933000000 -0.8182000000  6.2071000000
H   7.9073000000 -0.9712000000  7.1161000000
H   8.2313000000 -0.9072000000  8.8131000000
H   11.1183000000  0.6778000000  8.1811000000
H   11.7213000000 -0.7962000000  8.9311000000
H   10.3263000000 -0.0742000000  9.5301000000
H   17.3553000000 -2.7642000000 -0.6209000000
H   16.3753000000 -6.3042000000 -2.9929000000
H   14.4873000000 -6.7332000000 -1.5779000000
H   12.8783000000 -5.6272000000  0.4831000000
H   18.2613000000 -4.9422000000 -3.2189000000
C   9.3260499802 -4.1992377605  11.2115237351
O   11.6570499802 -4.5512377605  11.6995237351
C   10.6840499802 -4.1292377605  10.8535237351
O   7.1030499802 -3.6832377605  10.7395237351
C   11.1420499802 -3.4572377605  9.6735237351
O   5.8550499802 -1.7272377605  6.5395237351
C   10.1630499802 -2.9782377605  8.8165237351
O   4.1520499802 -2.9632377605  4.9725237351
C   8.7760499802 -3.0882377605  9.0835237351
O   6.0660499802 -5.2432377605  1.1525237351
C   8.3800499802 -3.6662377605  10.3025237351
C   7.6038499802 -2.6824377605  8.2898237351
C   7.9430499802 -2.6482377605  6.9325237351
C   6.7180499802 -2.4632377605  6.1545237351
C   6.5520499802 -3.2442377605  4.8455237351
C   7.6760499802 -3.7732377605  4.1535237351
C   5.2440499802 -3.3872377605  4.2755237351
C   7.5020499802 -4.5332377605  2.9845237351
C   5.0800499802 -4.1442377605  3.0825237351
C   6.2400499802 -4.5712377605  2.3965237351
C   3.6840499802 -4.4732377605  2.6655237351
C   3.2990499802 -5.9192377605  2.3765237351
C   3.4770499802 -7.0182377605  3.1815237351
C   3.0090499802 -8.3952377605  2.7305237351
C   4.1820499802 -6.9252377605  4.5525237351
H   8.9610499802 -4.4592377605  12.2005237351
H   12.2150499802 -3.3192377605  9.5785237351
H   10.4730499802 -2.5332377605  7.8755237351
H   11.1940499802 -4.9892377605  12.4345237351
H   7.0490499802 -4.2692377605  11.5145237351
H   6.7120499802 -2.6332377605  8.6705237351
H   8.2090499802 -3.6842377605  6.7565237351
H   8.6610499802 -3.7302377605  4.6075237351
H   8.3280499802 -4.8522377605  2.3555237351
H   4.5550499802 -2.5562377605  5.7595237351
H   5.1250499802 -5.4232377605  0.9855237351
H   2.8190499802 -4.0972377605  3.2255237351
H   3.5650499802 -3.9852377605  1.6905237351
H   2.6660499802 -6.0992377605  1.5105237351
H   2.5070499802 -8.9462377605  3.5355237351
H   3.9400499802 -8.9162377605  2.4765237351
H   2.2270499802 -8.3572377605  1.9615237351
H   5.1630499802 -7.3972377605  4.6875237351
H   3.5350499802 -7.3922377605  5.3055237351
H   4.1830499802 -5.9052377605  4.9565237351
84
Scanning combination 27/256: [3.0000, 1.9000]  Energy = -385.7790695425
O   11.1233000000 -4.8002000000  5.0341000000
O   11.3873000000 -0.2652000000  3.3291000000
O   18.1143000000 -4.2382000000 -2.5629000000
O   15.0523000000 -3.1142000000  0.9841000000
C   13.0053000000 -3.3232000000  2.3291000000
C   12.6993000000 -1.9792000000  2.4491000000
C   12.3973000000 -4.3072000000  3.1831000000
C   11.6323000000 -1.5992000000  3.2951000000
C   11.4783000000 -3.8632000000  4.1231000000
C   11.0613000000 -2.4802000000  4.2331000000
C   10.1223000000 -1.9712000000  5.2561000000
C   10.5373000000 -1.3232000000  6.3251000000
C   9.8643000000 -1.0622000000  7.5921000000
C   8.6825000000 -1.0450000000  7.8959000000
C   10.8123000000 -0.2992000000  8.5731000000
C   14.6833000000 -4.8512000000 -0.4449000000
C   15.5183000000 -3.8012000000 -0.0889000000
C   16.6953000000 -3.5982000000 -0.8399000000
C   16.9703000000 -4.4882000000 -1.8899000000
C   16.1523000000 -5.5962000000 -2.2009000000
C   14.9513000000 -5.7522000000 -1.5279000000
C   13.6583000000 -4.8752000000  0.4711000000
C   13.8893000000 -3.7772000000  1.2511000000
H   13.1623000000 -1.2452000000  1.7971000000
H   12.5583000000 -5.3772000000  3.0881000000
H   11.7383000000 -5.5442000000  4.9131000000
H   11.8513000000  0.1658000000  2.5901000000
H   9.4643000000 -1.3292000000  4.6731000000
H   11.4933000000 -0.8182000000  6.2071000000
H   7.9073000000 -0.9712000000  7.1161000000
H   8.2313000000 -0.9072000000  8.8131000000
H   11.1183000000  0.6778000000  8.1811000000
H   11.7213000000 -0.7962000000  8.9311000000
H   10.3263000000 -0.0742000000  9.5301000000
H   17.3553000000 -2.7642000000 -0.6209000000
H   16.3753000000 -6.3042000000 -2.9929000000
H   14.4873000000 -6.7332000000 -1.5779000000
H   12.8783000000 -5.6272000000  0.4831000000
H   18.2613000000 -4.9422000000 -3.2189000000
C   9.3246938897 -4.0613878054  11.2588416571
O   11.6556938897 -4.4133878054  11.7468416571
C   10.6826938897 -3.9913878054  10.9008416571
O   7.1016938897 -3.5453878054  10.7868416571
C   11.1406938897 -3.3193878054  9.7208416571
O   5.8536938897 -1.5893878054  6.5868416571
C   10.1616938897 -2.8403878054  8.8638416571
O   4.1506938897 -2.8253878054  5.0198416571
C   8.7746938897 -2.9503878054  9.1308416571
O   6.0646938897 -5.1053878054  1.1998416571
C   8.3786938897 -3.5283878054  10.3498416571
C   7.6024938897 -2.5445878054  8.3371416571
C   7.9416938897 -2.5103878054  6.9798416571
C   6.7166938897 -2.3253878054  6.2018416571
C   6.5506938897 -3.1063878054  4.8928416571
C   7.6746938897 -3.6353878054  4.2008416571
C   5.2426938897 -3.2493878054  4.3228416571
C   7.5006938897 -4.3953878054  3.0318416571
C   5.0786938897 -4.0063878054  3.1298416571
C   6.2386938897 -4.4333878054  2.4438416571
C   3.6826938897 -4.3353878054  2.7128416571
C   3.2976938897 -5.7813878054  2.4238416571
C   3.4756938897 -6.8803878054  3.2288416571
C   3.0076938897 -8.2573878054  2.7778416571
C   4.1806938897 -6.7873878054  4.5998416571
H   8.9596938897 -4.3213878054  12.2478416571
H   12.2136938897 -3.1813878054  9.6258416571
H   10.4716938897 -2.3953878054  7.9228416571
H   11.1926938897 -4.8513878054  12.4818416571
H   7.0476938897 -4.1313878054  11.5618416571
H   6.7106938897 -2.4953878054  8.7178416571
H   8.2076938897 -3.5463878054  6.8038416571
H   8.6596938897 -3.5923878054  4.6548416571
H   8.3266938897 -4.7143878054  2.4028416571
H   4.5536938897 -2.4183878054  5.8068416571
H   5.1236938897 -5.2853878054  1.0328416571
H   2.8176938897 -3.9593878054  3.2728416571
H   3.5636938897 -3.8473878054  1.7378416571
H   2.6646938897 -5.9613878054  1.5578416571
H   2.5056938897 -8.8083878054  3.5828416571
H   3.9386938897 -8.7783878054  2.5238416571
H   2.2256938897 -8.2193878054  2.0088416571
H   5.1616938897 -7.2593878054  4.7348416571
H   3.5336938897 -7.2543878054  5.3528416571
H   4.1816938897 -5.7673878054  5.0038416571
84
Scanning combination 28/256: [3.0000, 1.8000]  Energy = -385.7243221994
O   11.1233000000 -4.8002000000  5.0341000000
O   11.3873000000 -0.2652000000  3.3291000000
O   18.1143000000 -4.2382000000 -2.5629000000
O   15.0523000000 -3.1142000000  0.9841000000
C   13.0053000000 -3.3232000000  2.3291000000
C   12.6993000000 -1.9792000000  2.4491000000
C   12.3973000000 -4.3072000000  3.1831000000
C   11.6323000000 -1.5992000000  3.2951000000
C   11.4783000000 -3.8632000000  4.1231000000
C   11.0613000000 -2.4802000000  4.2331000000
C   10.1223000000 -1.9712000000  5.2561000000
C   10.5373000000 -1.3232000000  6.3251000000
C   9.8643000000 -1.0622000000  7.5921000000
C   8.6825000000 -1.0450000000  7.8959000000
C   10.8123000000 -0.2992000000  8.5731000000
C   14.6833000000 -4.8512000000 -0.4449000000
C   15.5183000000 -3.8012000000 -0.0889000000
C   16.6953000000 -3.5982000000 -0.8399000000
C   16.9703000000 -4.4882000000 -1.8899000000
C   16.1523000000 -5.5962000000 -2.2009000000
C   14.9513000000 -5.7522000000 -1.5279000000
C   13.6583000000 -4.8752000000  0.4711000000
C   13.8893000000 -3.7772000000  1.2511000000
H   13.1623000000 -1.2452000000  1.7971000000
H   12.5583000000 -5.3772000000  3.0881000000
H   11.7383000000 -5.5442000000  4.9131000000
H   11.8513000000  0.1658000000  2.5901000000
H   9.4643000000 -1.3292000000  4.6731000000
H   11.4933000000 -0.8182000000  6.2071000000
H   7.9073000000 -0.9712000000  7.1161000000
H   8.2313000000 -0.9072000000  8.8131000000
H   11.1183000000  0.6778000000  8.1811000000
H   11.7213000000 -0.7962000000  8.9311000000
H   10.3263000000 -0.0742000000  9.5301000000
H   17.3553000000 -2.7642000000 -0.6209000000
H   16.3753000000 -6.3042000000 -2.9929000000
H   14.4873000000 -6.7332000000 -1.5779000000
H   12.8783000000 -5.6272000000  0.4831000000
H   18.2613000000 -4.9422000000 -3.2189000000
C   9.3299524648 -3.9224481715  11.3007480759
O   11.6609524648 -4.2744481715  11.7887480759
C   10.6879524648 -3.8524481715  10.9427480759
O   7.1069524648 -3.4064481715  10.8287480759
C   11.1459524648 -3.1804481715  9.7627480759
O   5.8589524648 -1.4504481715  6.6287480759
C   10.1669524648 -2.7014481715  8.9057480759
O   4.1559524648 -2.6864481715  5.0617480759
C   8.7799524648 -2.8114481715  9.1727480759
O   6.0699524648 -4.9664481715  1.2417480759
C   8.3839524648 -3.3894481715  10.3917480759
C   7.6077524648 -2.4056481715  8.3790480759
C   7.9469524648 -2.3714481715  7.0217480759
C   6.7219524648 -2.1864481715  6.2437480759
C   6.5559524648 -2.9674481715  4.9347480759
C   7.6799524648 -3.4964481715  4.2427480759
C   5.2479524648 -3.1104481715  4.3647480759
C   7.5059524648 -4.2564481715  3.0737480759
C   5.0839524648 -3.8674481715  3.1717480759
C   6.2439524648 -4.2944481715  2.4857480759
C   3.6879524648 -4.1964481715  2.7547480759
C   3.3029524648 -5.6424481715  2.4657480759
C   3.4809524648 -6.7414481715  3.2707480759
C   3.0129524648 -8.1184481715  2.8197480759
C   4.1859524648 -6.6484481715  4.6417480759
H   8.9649524648 -4.1824481715  12.2897480759
H   12.2189524648 -3.0424481715  9.6677480759
H   10.4769524648 -2.2564481715  7.9647480759
H   11.1979524648 -4.7124481715  12.5237480759
H   7.0529524648 -3.9924481715  11.6037480759
H   6.7159524648 -2.3564481715  8.7597480759
H   8.2129524648 -3.4074481715  6.8457480759
H   8.6649524648 -3.4534481715  4.6967480759
H   8.3319524648 -4.5754481715  2.4447480759
H   4.5589524648 -2.2794481715  5.8487480759
H   5.1289524648 -5.1464481715  1.0747480759
H   2.8229524648 -3.8204481715  3.3147480759
H   3.5689524648 -3.7084481715  1.7797480759
H   2.6699524648 -5.8224481715  1.5997480759
H   2.5109524648 -8.6694481715  3.6247480759
H   3.9439524648 -8.6394481715  2.5657480759
H   2.2309524648 -8.0804481715  2.0507480759
H   5.1669524648 -7.1204481715  4.7767480759
H   3.5389524648 -7.1154481715  5.3947480759
H   4.1869524648 -5.6284481715  5.0457480759
84
Scanning combination 29/256: [3.0000, 1.7000]  Energy = -385.6462515589
O   11.1233000000 -4.8002000000  5.0341000000
O   11.3873000000 -0.2652000000  3.3291000000
O   18.1143000000 -4.2382000000 -2.5629000000
O   15.0523000000 -3.1142000000  0.9841000000
C   13.0053000000 -3.3232000000  2.3291000000
C   12.6993000000 -1.9792000000  2.4491000000
C   12.3973000000 -4.3072000000  3.1831000000
C   11.6323000000 -1.5992000000  3.2951000000
C   11.4783000000 -3.8632000000  4.1231000000
C   11.0613000000 -2.4802000000  4.2331000000
C   10.1223000000 -1.9712000000  5.2561000000
C   10.5373000000 -1.3232000000  6.3251000000
C   9.8643000000 -1.0622000000  7.5921000000
C   8.6825000000 -1.0450000000  7.8959000000
C   10.8123000000 -0.2992000000  8.5731000000
C   14.6833000000 -4.8512000000 -0.4449000000
C   15.5183000000 -3.8012000000 -0.0889000000
C   16.6953000000 -3.5982000000 -0.8399000000
C   16.9703000000 -4.4882000000 -1.8899000000
C   16.1523000000 -5.5962000000 -2.2009000000
C   14.9513000000 -5.7522000000 -1.5279000000
C   13.6583000000 -4.8752000000  0.4711000000
C   13.8893000000 -3.7772000000  1.2511000000
H   13.1623000000 -1.2452000000  1.7971000000
H   12.5583000000 -5.3772000000  3.0881000000
H   11.7383000000 -5.5442000000  4.9131000000
H   11.8513000000  0.1658000000  2.5901000000
H   9.4643000000 -1.3292000000  4.6731000000
H   11.4933000000 -0.8182000000  6.2071000000
H   7.9073000000 -0.9712000000  7.1161000000
H   8.2313000000 -0.9072000000  8.8131000000
H   11.1183000000  0.6778000000  8.1811000000
H   11.7213000000 -0.7962000000  8.9311000000
H   10.3263000000 -0.0742000000  9.5301000000
H   17.3553000000 -2.7642000000 -0.6209000000
H   16.3753000000 -6.3042000000 -2.9929000000
H   14.4873000000 -6.7332000000 -1.5779000000
H   12.8783000000 -5.6272000000  0.4831000000
H   18.2613000000 -4.9422000000 -3.2189000000
C   9.3419402082 -3.7827010528  11.3370485625
O   11.6729402082 -4.1347010528  11.8250485625
C   10.6999402082 -3.7127010528  10.9790485625
O   7.1189402082 -3.2667010528  10.8650485625
C   11.1579402082 -3.0407010528  9.7990485625
O   5.8709402082 -1.3107010528  6.6650485625
C   10.1789402082 -2.5617010528  8.9420485625
O   4.1679402082 -2.5467010528  5.0980485625
C   8.7919402082 -2.6717010528  9.2090485625
O   6.0819402082 -4.8267010528  1.2780485625
C   8.3959402082 -3.2497010528  10.4280485625
C   7.6197402082 -2.2659010528  8.4153485625
C   7.9589402082 -2.2317010528  7.0580485625
C   6.7339402082 -2.0467010528  6.2800485625
C   6.5679402082 -2.8277010528  4.9710485625
C   7.6919402082 -3.3567010528  4.2790485625
C   5.2599402082 -2.9707010528  4.4010485625
C   7.5179402082 -4.1167010528  3.1100485625
C   5.0959402082 -3.7277010528  3.2080485625
C   6.2559402082 -4.1547010528  2.5220485625
C   3.6999402082 -4.0567010528  2.7910485625
C   3.3149402082 -5.5027010528  2.5020485625
C   3.4929402082 -6.6017010528  3.3070485625
C   3.0249402082 -7.9787010528  2.8560485625
C   4.1979402082 -6.5087010528  4.6780485625
H   8.9769402082 -4.0427010528  12.3260485625
H   12.2309402082 -2.9027010528  9.7040485625
H   10.4889402082 -2.1167010528  8.0010485625
H   11.2099402082 -4.5727010528  12.5600485625
H   7.0649402082 -3.8527010528  11.6400485625
H   6.7279402082 -2.2167010528  8.7960485625
H   8.2249402082 -3.2677010528  6.8820485625
H   8.6769402082 -3.3137010528  4.7330485625
H   8.3439402082 -4.4357010528  2.4810485625
H   4.5709402082 -2.1397010528  5.8850485625
H   5.1409402082 -5.0067010528  1.1110485625
H   2.8349402082 -3.6807010528  3.3510485625
H   3.5809402082 -3.5687010528  1.8160485625
H   2.6819402082 -5.6827010528  1.6360485625
H   2.5229402082 -8.5297010528  3.6610485625
H   3.9559402082 -8.4997010528  2.6020485625
H   2.2429402082 -7.9407010528  2.0870485625
H   5.1789402082 -6.9807010528  4.8130485625
H   3.5509402082 -6.9757010528  5.4310485625
H   4.1989402082 -5.4887010528  5.0820485625
84
Scanning combination 30/256: [3.0000, 1.6000]  Energy = -385.5345233675
O   11.1233000000 -4.8002000000  5.0341000000
O   11.3873000000 -0.2652000000  3.3291000000
O   18.1143000000 -4.2382000000 -2.5629000000
O   15.0523000000 -3.1142000000  0.9841000000
C   13.0053000000 -3.3232000000  2.3291000000
C   12.6993000000 -1.9792000000  2.4491000000
C   12.3973000000 -4.3072000000  3.1831000000
C   11.6323000000 -1.5992000000  3.2951000000
C   11.4783000000 -3.8632000000  4.1231000000
C   11.0613000000 -2.4802000000  4.2331000000
C   10.1223000000 -1.9712000000  5.2561000000
C   10.5373000000 -1.3232000000  6.3251000000
C   9.8643000000 -1.0622000000  7.5921000000
C   8.6825000000 -1.0450000000  7.8959000000
C   10.8123000000 -0.2992000000  8.5731000000
C   14.6833000000 -4.8512000000 -0.4449000000
C   15.5183000000 -3.8012000000 -0.0889000000
C   16.6953000000 -3.5982000000 -0.8399000000
C   16.9703000000 -4.4882000000 -1.8899000000
C   16.1523000000 -5.5962000000 -2.2009000000
C   14.9513000000 -5.7522000000 -1.5279000000
C   13.6583000000 -4.8752000000  0.4711000000
C   13.8893000000 -3.7772000000  1.2511000000
H   13.1623000000 -1.2452000000  1.7971000000
H   12.5583000000 -5.3772000000  3.0881000000
H   11.7383000000 -5.5442000000  4.9131000000
H   11.8513000000  0.1658000000  2.5901000000
H   9.4643000000 -1.3292000000  4.6731000000
H   11.4933000000 -0.8182000000  6.2071000000
H   7.9073000000 -0.9712000000  7.1161000000
H   8.2313000000 -0.9072000000  8.8131000000
H   11.1183000000  0.6778000000  8.1811000000
H   11.7213000000 -0.7962000000  8.9311000000
H   10.3263000000 -0.0742000000  9.5301000000
H   17.3553000000 -2.7642000000 -0.6209000000
H   16.3753000000 -6.3042000000 -2.9929000000
H   14.4873000000 -6.7332000000 -1.5779000000
H   12.8783000000 -5.6272000000  0.4831000000
H   18.2613000000 -4.9422000000 -3.2189000000
C   9.3608082165 -3.6424367975  11.3675140038
O   11.6918082165 -3.9944367975  11.8555140038
C   10.7188082165 -3.5724367975  11.0095140038
O   7.1378082165 -3.1264367975  10.8955140038
C   11.1768082165 -2.9004367975  9.8295140038
O   5.8898082165 -1.1704367975  6.6955140038
C   10.1978082165 -2.4214367975  8.9725140038
O   4.1868082165 -2.4064367975  5.1285140038
C   8.8108082165 -2.5314367975  9.2395140038
O   6.1008082165 -4.6864367975  1.3085140038
C   8.4148082165 -3.1094367975  10.4585140038
C   7.6386082165 -2.1256367975  8.4458140038
C   7.9778082165 -2.0914367975  7.0885140038
C   6.7528082165 -1.9064367975  6.3105140038
C   6.5868082165 -2.6874367975  5.0015140038
C   7.7108082165 -3.2164367975  4.3095140038
C   5.2788082165 -2.8304367975  4.4315140038
C   7.5368082165 -3.9764367975  3.1405140038
C   5.1148082165 -3.5874367975  3.2385140038
C   6.2748082165 -4.0144367975  2.5525140038
C   3.7188082165 -3.9164367975  2.8215140038
C   3.3338082165 -5.3624367975  2.5325140038
C   3.5118082165 -6.4614367975  3.3375140038
C   3.0438082165 -7.8384367975  2.8865140038
C   4.2168082165 -6.3684367975  4.7085140038
H   8.9958082165 -3.9024367975  12.3565140038
H   12.2498082165 -2.7624367975  9.7345140038
H   10.5078082165 -1.9764367975  8.0315140038
H   11.2288082165 -4.4324367975  12.5905140038
H   7.0838082165 -3.7124367975  11.6705140038
H   6.7468082165 -2.0764367975  8.8265140038
H   8.2438082165 -3.1274367975  6.9125140038
H   8.6958082165 -3.1734367975  4.7635140038
H   8.3628082165 -4.2954367975  2.5115140038
H   4.5898082165 -1.9994367975  5.9155140038
H   5.1598082165 -4.8664367975  1.1415140038
H   2.8538082165 -3.5404367975  3.3815140038
H   3.5998082165 -3.4284367975  1.8465140038
H   2.7008082165 -5.5424367975  1.6665140038
H   2.5418082165 -8.3894367975  3.6915140038
H   3.9748082165 -8.3594367975  2.6325140038
H   2.2618082165 -7.8004367975  2.1175140038
H   5.1978082165 -6.8404367975  4.8435140038
H   3.5698082165 -6.8354367975  5.4615140038
H   4.2178082165 -5.3484367975  5.1125140038
84
Scanning combination 31/256: [3.0000, 1.5000]  Energy = -385.3699322935
O   11.1233000000 -4.8002000000  5.0341000000
O   11.3873000000 -0.2652000000  3.3291000000
O   18.1143000000 -4.2382000000 -2.5629000000
O   15.0523000000 -3.1142000000  0.9841000000
C   13.0053000000 -3.3232000000  2.3291000000
C   12.6993000000 -1.9792000000  2.4491000000
C   12.3973000000 -4.3072000000  3.1831000000
C   11.6323000000 -1.5992000000  3.2951000000
C   11.4783000000 -3.8632000000  4.1231000000
C   11.0613000000 -2.4802000000  4.2331000000
C   10.1223000000 -1.9712000000  5.2561000000
C   10.5373000000 -1.3232000000  6.3251000000
C   9.8643000000 -1.0622000000  7.5921000000
C   8.6825000000 -1.0450000000  7.8959000000
C   10.8123000000 -0.2992000000  8.5731000000
C   14.6833000000 -4.8512000000 -0.4449000000
C   15.5183000000 -3.8012000000 -0.0889000000
C   16.6953000000 -3.5982000000 -0.8399000000
C   16.9703000000 -4.4882000000 -1.8899000000
C   16.1523000000 -5.5962000000 -2.2009000000
C   14.9513000000 -5.7522000000 -1.5279000000
C   13.6583000000 -4.8752000000  0.4711000000
C   13.8893000000 -3.7772000000  1.2511000000
H   13.1623000000 -1.2452000000  1.7971000000
H   12.5583000000 -5.3772000000  3.0881000000
H   11.7383000000 -5.5442000000  4.9131000000
H   11.8513000000  0.1658000000  2.5901000000
H   9.4643000000 -1.3292000000  4.6731000000
H   11.4933000000 -0.8182000000  6.2071000000
H   7.9073000000 -0.9712000000  7.1161000000
H   8.2313000000 -0.9072000000  8.8131000000
H   11.1183000000  0.6778000000  8.1811000000
H   11.7213000000 -0.7962000000  8.9311000000
H   10.3263000000 -0.0742000000  9.5301000000
H   17.3553000000 -2.7642000000 -0.6209000000
H   16.3753000000 -6.3042000000 -2.9929000000
H   14.4873000000 -6.7332000000 -1.5779000000
H   12.8783000000 -5.6272000000  0.4831000000
H   18.2613000000 -4.9422000000 -3.2189000000
C   9.3867703462 -3.5019913602  11.3918452192
O   11.7177703462 -3.8539913602  11.8798452192
C   10.7447703462 -3.4319913602  11.0338452192
O   7.1637703462 -2.9859913602  10.9198452192
C   11.2027703462 -2.7599913602  9.8538452192
O   5.9157703462 -1.0299913602  6.7198452192
C   10.2237703462 -2.2809913602  8.9968452192
O   4.2127703462 -2.2659913602  5.1528452192
C   8.8367703462 -2.3909913602  9.2638452192
O   6.1267703462 -4.5459913602  1.3328452192
C   8.4407703462 -2.9689913602  10.4828452192
C   7.6645703462 -1.9851913602  8.4701452192
C   8.0037703462 -1.9509913602  7.1128452192
C   6.7787703462 -1.7659913602  6.3348452192
C   6.6127703462 -2.5469913602  5.0258452192
C   7.7367703462 -3.0759913602  4.3338452192
C   5.3047703462 -2.6899913602  4.4558452192
C   7.5627703462 -3.8359913602  3.1648452192
C   5.1407703462 -3.4469913602  3.2628452192
C   6.3007703462 -3.8739913602  2.5768452192
C   3.7447703462 -3.7759913602  2.8458452192
C   3.3597703462 -5.2219913602  2.5568452192
C   3.5377703462 -6.3209913602  3.3618452192
C   3.0697703462 -7.6979913602  2.9108452192
C   4.2427703462 -6.2279913602  4.7328452192
H   9.0217703462 -3.7619913602  12.3808452192
H   12.2757703462 -2.6219913602  9.7588452192
H   10.5337703462 -1.8359913602  8.0558452192
H   11.2547703462 -4.2919913602  12.6148452192
H   7.1097703462 -3.5719913602  11.6948452192
H   6.7727703462 -1.9359913602  8.8508452192
H   8.2697703462 -2.9869913602  6.9368452192
H   8.7217703462 -3.0329913602  4.7878452192
H   8.3887703462 -4.1549913602  2.5358452192
H   4.6157703462 -1.8589913602  5.9398452192
H   5.1857703462 -4.7259913602  1.1658452192
H   2.8797703462 -3.3999913602  3.4058452192
H   3.6257703462 -3.2879913602  1.8708452192
H   2.7267703462 -5.4019913602  1.6908452192
H   2.5677703462 -8.2489913602  3.7158452192
H   4.0007703462 -8.2189913602  2.6568452192
H   2.2877703462 -7.6599913602  2.1418452192
H   5.2237703462 -6.6999913602  4.8678452192
H   3.5957703462 -6.6949913602  5.4858452192
H   4.2437703462 -5.2079913602  5.1368452192
84
Scanning combination 32/256: [2.9000, 2.9000]  Energy = -385.9827822443
O   11.1233000000 -4.8002000000  5.0341000000
O   11.3873000000 -0.2652000000  3.3291000000
O   18.1143000000 -4.2382000000 -2.5629000000
O   15.0523000000 -3.1142000000  0.9841000000
C   13.0053000000 -3.3232000000  2.3291000000
C   12.6993000000 -1.9792000000  2.4491000000
C   12.3973000000 -4.3072000000  3.1831000000
C   11.6323000000 -1.5992000000  3.2951000000
C   11.4783000000 -3.8632000000  4.1231000000
C   11.0613000000 -2.4802000000  4.2331000000
C   10.1223000000 -1.9712000000  5.2561000000
C   10.5373000000 -1.3232000000  6.3251000000
C   9.8643000000 -1.0622000000  7.5921000000
C   8.6825000000 -1.0450000000  7.8959000000
C   10.8123000000 -0.2992000000  8.5731000000
C   14.6833000000 -4.8512000000 -0.4449000000
C   15.5183000000 -3.8012000000 -0.0889000000
C   16.6953000000 -3.5982000000 -0.8399000000
C   16.9703000000 -4.4882000000 -1.8899000000
C   16.1523000000 -5.5962000000 -2.2009000000
C   14.9513000000 -5.7522000000 -1.5279000000
C   13.6583000000 -4.8752000000  0.4711000000
C   13.8893000000 -3.7772000000  1.2511000000
H   13.1623000000 -1.2452000000  1.7971000000
H   12.5583000000 -5.3772000000  3.0881000000
H   11.7383000000 -5.5442000000  4.9131000000
H   11.8513000000  0.1658000000  2.5901000000
H   9.4643000000 -1.3292000000  4.6731000000
H   11.4933000000 -0.8182000000  6.2071000000
H   7.9073000000 -0.9712000000  7.1161000000
H   8.2313000000 -0.9072000000  8.8131000000
H   11.1183000000  0.6778000000  8.1811000000
H   11.7213000000 -0.7962000000  8.9311000000
H   10.3263000000 -0.0742000000  9.5301000000
H   17.3553000000 -2.7642000000 -0.6209000000
H   16.3753000000 -6.3042000000 -2.9929000000
H   14.4873000000 -6.7332000000 -1.5779000000
H   12.8783000000 -5.6272000000  0.4831000000
H   18.2613000000 -4.9422000000 -3.2189000000
C   9.5736114350 -5.3328004621  10.6159782839
O   11.9046114350 -5.6848004621  11.1039782839
C   10.9316114350 -5.2628004621  10.2579782839
O   7.3506114350 -4.8168004621  10.1439782839
C   11.3896114350 -4.5908004621  9.0779782839
O   6.1026114350 -2.8608004621  5.9439782839
C   10.4106114350 -4.1118004621  8.2209782839
O   4.3996114350 -4.0968004621  4.3769782839
C   9.0236114350 -4.2218004621  8.4879782839
O   6.3136114350 -6.3768004621  0.5569782839
C   8.6276114350 -4.7998004621  9.7069782839
C   7.8514114350 -3.8160004621  7.6942782839
C   8.1906114350 -3.7818004621  6.3369782839
C   6.9656114350 -3.5968004621  5.5589782839
C   6.7996114350 -4.3778004621  4.2499782839
C   7.9236114350 -4.9068004621  3.5579782839
C   5.4916114350 -4.5208004621  3.6799782839
C   7.7496114350 -5.6668004621  2.3889782839
C   5.3276114350 -5.2778004621  2.4869782839
C   6.4876114350 -5.7048004621  1.8009782839
C   3.9316114350 -5.6068004621  2.0699782839
C   3.5466114350 -7.0528004621  1.7809782839
C   3.7246114350 -8.1518004621  2.5859782839
C   3.2566114350 -9.5288004621  2.1349782839
C   4.4296114350 -8.0588004621  3.9569782839
H   9.2086114350 -5.5928004621  11.6049782839
H   12.4626114350 -4.4528004621  8.9829782839
H   10.7206114350 -3.6668004621  7.2799782839
H   11.4416114350 -6.1228004621  11.8389782839
H   7.2966114350 -5.4028004621  10.9189782839
H   6.9596114350 -3.7668004621  8.0749782839
H   8.4566114350 -4.8178004621  6.1609782839
H   8.9086114350 -4.8638004621  4.0119782839
H   8.5756114350 -5.9858004621  1.7599782839
H   4.8026114350 -3.6898004621  5.1639782839
H   5.3726114350 -6.5568004621  0.3899782839
H   3.0666114350 -5.2308004621  2.6299782839
H   3.8126114350 -5.1188004621  1.0949782839
H   2.9136114350 -7.2328004621  0.9149782839
H   2.7546114350 -10.0798004621  2.9399782839
H   4.1876114350 -10.0498004621  1.8809782839
H   2.4746114350 -9.4908004621  1.3659782839
H   5.4106114350 -8.5308004621  4.0919782839
H   3.7826114350 -8.5258004621  4.7099782839
H   4.4306114350 -7.0388004621  4.3609782839
84
Scanning combination 33/256: [2.9000, 2.8000]  Energy = -385.9776688810
O   11.1233000000 -4.8002000000  5.0341000000
O   11.3873000000 -0.2652000000  3.3291000000
O   18.1143000000 -4.2382000000 -2.5629000000
O   15.0523000000 -3.1142000000  0.9841000000
C   13.0053000000 -3.3232000000  2.3291000000
C   12.6993000000 -1.9792000000  2.4491000000
C   12.3973000000 -4.3072000000  3.1831000000
C   11.6323000000 -1.5992000000  3.2951000000
C   11.4783000000 -3.8632000000  4.1231000000
C   11.0613000000 -2.4802000000  4.2331000000
C   10.1223000000 -1.9712000000  5.2561000000
C   10.5373000000 -1.3232000000  6.3251000000
C   9.8643000000 -1.0622000000  7.5921000000
C   8.6825000000 -1.0450000000  7.8959000000
C   10.8123000000 -0.2992000000  8.5731000000
C   14.6833000000 -4.8512000000 -0.4449000000
C   15.5183000000 -3.8012000000 -0.0889000000
C   16.6953000000 -3.5982000000 -0.8399000000
C   16.9703000000 -4.4882000000 -1.8899000000
C   16.1523000000 -5.5962000000 -2.2009000000
C   14.9513000000 -5.7522000000 -1.5279000000
C   13.6583000000 -4.8752000000  0.4711000000
C   13.8893000000 -3.7772000000  1.2511000000
H   13.1623000000 -1.2452000000  1.7971000000
H   12.5583000000 -5.3772000000  3.0881000000
H   11.7383000000 -5.5442000000  4.9131000000
H   11.8513000000  0.1658000000  2.5901000000
H   9.4643000000 -1.3292000000  4.6731000000
H   11.4933000000 -0.8182000000  6.2071000000
H   7.9073000000 -0.9712000000  7.1161000000
H   8.2313000000 -0.9072000000  8.8131000000
H   11.1183000000  0.6778000000  8.1811000000
H   11.7213000000 -0.7962000000  8.9311000000
H   10.3263000000 -0.0742000000  9.5301000000
H   17.3553000000 -2.7642000000 -0.6209000000
H   16.3753000000 -6.3042000000 -2.9929000000
H   14.4873000000 -6.7332000000 -1.5779000000
H   12.8783000000 -5.6272000000  0.4831000000
H   18.2613000000 -4.9422000000 -3.2189000000
C   9.5848076894 -5.2331086541  10.6395647675
O   11.9158076894 -5.5851086541  11.1275647675
C   10.9428076894 -5.1631086541  10.2815647675
O   7.3618076894 -4.7171086541  10.1675647675
C   11.4008076894 -4.4911086541  9.1015647675
O   6.1138076894 -2.7611086541  5.9675647675
C   10.4218076894 -4.0121086541  8.2445647675
O   4.4108076894 -3.9971086541  4.4005647675
C   9.0348076894 -4.1221086541  8.5115647675
O   6.3248076894 -6.2771086541  0.5805647675
C   8.6388076894 -4.7001086541  9.7305647675
C   7.8626076894 -3.7163086541  7.7178647675
C   8.2018076894 -3.6821086541  6.3605647675
C   6.9768076894 -3.4971086541  5.5825647675
C   6.8108076894 -4.2781086541  4.2735647675
C   7.9348076894 -4.8071086541  3.5815647675
C   5.5028076894 -4.4211086541  3.7035647675
C   7.7608076894 -5.5671086541  2.4125647675
C   5.3388076894 -5.1781086541  2.5105647675
C   6.4988076894 -5.6051086541  1.8245647675
C   3.9428076894 -5.5071086541  2.0935647675
C   3.5578076894 -6.9531086541  1.8045647675
C   3.7358076894 -8.0521086541  2.6095647675
C   3.2678076894 -9.4291086541  2.1585647675
C   4.4408076894 -7.9591086541  3.9805647675
H   9.2198076894 -5.4931086541  11.6285647675
H   12.4738076894 -4.3531086541  9.0065647675
H   10.7318076894 -3.5671086541  7.3035647675
H   11.4528076894 -6.0231086541  11.8625647675
H   7.3078076894 -5.3031086541  10.9425647675
H   6.9708076894 -3.6671086541  8.0985647675
H   8.4678076894 -4.7181086541  6.1845647675
H   8.9198076894 -4.7641086541  4.0355647675
H   8.5868076894 -5.8861086541  1.7835647675
H   4.8138076894 -3.5901086541  5.1875647675
H   5.3838076894 -6.4571086541  0.4135647675
H   3.0778076894 -5.1311086541  2.6535647675
H   3.8238076894 -5.0191086541  1.1185647675
H   2.9248076894 -7.1331086541  0.9385647675
H   2.7658076894 -9.9801086541  2.9635647675
H   4.1988076894 -9.9501086541  1.9045647675
H   2.4858076894 -9.3911086541  1.3895647675
H   5.4218076894 -8.4311086541  4.1155647675
H   3.7938076894 -8.4261086541  4.7335647675
H   4.4418076894 -6.9391086541  4.3845647675
84
Scanning combination 34/256: [2.9000, 2.7000]  Energy = -385.9711412188
O   11.1233000000 -4.8002000000  5.0341000000
O   11.3873000000 -0.2652000000  3.3291000000
O   18.1143000000 -4.2382000000 -2.5629000000
O   15.0523000000 -3.1142000000  0.9841000000
C   13.0053000000 -3.3232000000  2.3291000000
C   12.6993000000 -1.9792000000  2.4491000000
C   12.3973000000 -4.3072000000  3.1831000000
C   11.6323000000 -1.5992000000  3.2951000000
C   11.4783000000 -3.8632000000  4.1231000000
C   11.0613000000 -2.4802000000  4.2331000000
C   10.1223000000 -1.9712000000  5.2561000000
C   10.5373000000 -1.3232000000  6.3251000000
C   9.8643000000 -1.0622000000  7.5921000000
C   8.6825000000 -1.0450000000  7.8959000000
C   10.8123000000 -0.2992000000  8.5731000000
C   14.6833000000 -4.8512000000 -0.4449000000
C   15.5183000000 -3.8012000000 -0.0889000000
C   16.6953000000 -3.5982000000 -0.8399000000
C   16.9703000000 -4.4882000000 -1.8899000000
C   16.1523000000 -5.5962000000 -2.2009000000
C   14.9513000000 -5.7522000000 -1.5279000000
C   13.6583000000 -4.8752000000  0.4711000000
C   13.8893000000 -3.7772000000  1.2511000000
H   13.1623000000 -1.2452000000  1.7971000000
H   12.5583000000 -5.3772000000  3.0881000000
H   11.7383000000 -5.5442000000  4.9131000000
H   11.8513000000  0.1658000000  2.5901000000
H   9.4643000000 -1.3292000000  4.6731000000
H   11.4933000000 -0.8182000000  6.2071000000
H   7.9073000000 -0.9712000000  7.1161000000
H   8.2313000000 -0.9072000000  8.8131000000
H   11.1183000000  0.6778000000  8.1811000000
H   11.7213000000 -0.7962000000  8.9311000000
H   10.3263000000 -0.0742000000  9.5301000000
H   17.3553000000 -2.7642000000 -0.6209000000
H   16.3753000000 -6.3042000000 -2.9929000000
H   14.4873000000 -6.7332000000 -1.5779000000
H   12.8783000000 -5.6272000000  0.4831000000
H   18.2613000000 -4.9422000000 -3.2189000000
C   9.5703882907 -5.1263496001  10.6878849996
O   11.9013882907 -5.4783496001  11.1758849996
C   10.9283882907 -5.0563496001  10.3298849996
O   7.3473882907 -4.6103496001  10.2158849996
C   11.3863882907 -4.3843496001  9.1498849996
O   6.0993882907 -2.6543496001  6.0158849996
C   10.4073882907 -3.9053496001  8.2928849996
O   4.3963882907 -3.8903496001  4.4488849996
C   9.0203882907 -4.0153496001  8.5598849996
O   6.3103882907 -6.1703496001  0.6288849996
C   8.6243882907 -4.5933496001  9.7788849996
C   7.8481882907 -3.6095496001  7.7661849996
C   8.1873882907 -3.5753496001  6.4088849996
C   6.9623882907 -3.3903496001  5.6308849996
C   6.7963882907 -4.1713496001  4.3218849996
C   7.9203882907 -4.7003496001  3.6298849996
C   5.4883882907 -4.3143496001  3.7518849996
C   7.7463882907 -5.4603496001  2.4608849996
C   5.3243882907 -5.0713496001  2.5588849996
C   6.4843882907 -5.4983496001  1.8728849996
C   3.9283882907 -5.4003496001  2.1418849996
C   3.5433882907 -6.8463496001  1.8528849996
C   3.7213882907 -7.9453496001  2.6578849996
C   3.2533882907 -9.3223496001  2.2068849996
C   4.4263882907 -7.8523496001  4.0288849996
H   9.2053882907 -5.3863496001  11.6768849996
H   12.4593882907 -4.2463496001  9.0548849996
H   10.7173882907 -3.4603496001  7.3518849996
H   11.4383882907 -5.9163496001  11.9108849996
H   7.2933882907 -5.1963496001  10.9908849996
H   6.9563882907 -3.5603496001  8.1468849996
H   8.4533882907 -4.6113496001  6.2328849996
H   8.9053882907 -4.6573496001  4.0838849996
H   8.5723882907 -5.7793496001  1.8318849996
H   4.7993882907 -3.4833496001  5.2358849996
H   5.3693882907 -6.3503496001  0.4618849996
H   3.0633882907 -5.0243496001  2.7018849996
H   3.8093882907 -4.9123496001  1.1668849996
H   2.9103882907 -7.0263496001  0.9868849996
H   2.7513882907 -9.8733496001  3.0118849996
H   4.1843882907 -9.8433496001  1.9528849996
H   2.4713882907 -9.2843496001  1.4378849996
H   5.4073882907 -8.3243496001  4.1638849996
H   3.7793882907 -8.3193496001  4.7818849996
H   4.4273882907 -6.8323496001  4.4328849996
84
Scanning combination 35/256: [2.9000, 2.6000]  Energy = -385.9629281755
O   11.1233000000 -4.8002000000  5.0341000000
O   11.3873000000 -0.2652000000  3.3291000000
O   18.1143000000 -4.2382000000 -2.5629000000
O   15.0523000000 -3.1142000000  0.9841000000
C   13.0053000000 -3.3232000000  2.3291000000
C   12.6993000000 -1.9792000000  2.4491000000
C   12.3973000000 -4.3072000000  3.1831000000
C   11.6323000000 -1.5992000000  3.2951000000
C   11.4783000000 -3.8632000000  4.1231000000
C   11.0613000000 -2.4802000000  4.2331000000
C   10.1223000000 -1.9712000000  5.2561000000
C   10.5373000000 -1.3232000000  6.3251000000
C   9.8643000000 -1.0622000000  7.5921000000
C   8.6825000000 -1.0450000000  7.8959000000
C   10.8123000000 -0.2992000000  8.5731000000
C   14.6833000000 -4.8512000000 -0.4449000000
C   15.5183000000 -3.8012000000 -0.0889000000
C   16.6953000000 -3.5982000000 -0.8399000000
C   16.9703000000 -4.4882000000 -1.8899000000
C   16.1523000000 -5.5962000000 -2.2009000000
C   14.9513000000 -5.7522000000 -1.5279000000
C   13.6583000000 -4.8752000000  0.4711000000
C   13.8893000000 -3.7772000000  1.2511000000
H   13.1623000000 -1.2452000000  1.7971000000
H   12.5583000000 -5.3772000000  3.0881000000
H   11.7383000000 -5.5442000000  4.9131000000
H   11.8513000000  0.1658000000  2.5901000000
H   9.4643000000 -1.3292000000  4.6731000000
H   11.4933000000 -0.8182000000  6.2071000000
H   7.9073000000 -0.9712000000  7.1161000000
H   8.2313000000 -0.9072000000  8.8131000000
H   11.1183000000  0.6778000000  8.1811000000
H   11.7213000000 -0.7962000000  8.9311000000
H   10.3263000000 -0.0742000000  9.5301000000
H   17.3553000000 -2.7642000000 -0.6209000000
H   16.3753000000 -6.3042000000 -2.9929000000
H   14.4873000000 -6.7332000000 -1.5779000000
H   12.8783000000 -5.6272000000  0.4831000000
H   18.2613000000 -4.9422000000 -3.2189000000
C   9.5430236509 -5.0138784989  10.7494211467
O   11.8740236509 -5.3658784989  11.2374211467
C   10.9010236509 -4.9438784989  10.3914211467
O   7.3200236509 -4.4978784989  10.2774211467
C   11.3590236509 -4.2718784989  9.2114211467
O   6.0720236509 -2.5418784989  6.0774211467
C   10.3800236509 -3.7928784989  8.3544211467
O   4.3690236509 -3.7778784989  4.5104211467
C   8.9930236509 -3.9028784989  8.6214211467
O   6.2830236509 -6.0578784989  0.6904211467
C   8.5970236509 -4.4808784989  9.8404211467
C   7.8208236509 -3.4970784989  7.8277211467
C   8.1600236509 -3.4628784989  6.4704211467
C   6.9350236509 -3.2778784989  5.6924211467
C   6.7690236509 -4.0588784989  4.3834211467
C   7.8930236509 -4.5878784989  3.6914211467
C   5.4610236509 -4.2018784989  3.8134211467
C   7.7190236509 -5.3478784989  2.5224211467
C   5.2970236509 -4.9588784989  2.6204211467
C   6.4570236509 -5.3858784989  1.9344211467
C   3.9010236509 -5.2878784989  2.2034211467
C   3.5160236509 -6.7338784989  1.9144211467
C   3.6940236509 -7.8328784989  2.7194211467
C   3.2260236509 -9.2098784989  2.2684211467
C   4.3990236509 -7.7398784989  4.0904211467
H   9.1780236509 -5.2738784989  11.7384211467
H   12.4320236509 -4.1338784989  9.1164211467
H   10.6900236509 -3.3478784989  7.4134211467
H   11.4110236509 -5.8038784989  11.9724211467
H   7.2660236509 -5.0838784989  11.0524211467
H   6.9290236509 -3.4478784989  8.2084211467
H   8.4260236509 -4.4988784989  6.2944211467
H   8.8780236509 -4.5448784989  4.1454211467
H   8.5450236509 -5.6668784989  1.8934211467
H   4.7720236509 -3.3708784989  5.2974211467
H   5.3420236509 -6.2378784989  0.5234211467
H   3.0360236509 -4.9118784989  2.7634211467
H   3.7820236509 -4.7998784989  1.2284211467
H   2.8830236509 -6.9138784989  1.0484211467
H   2.7240236509 -9.7608784989  3.0734211467
H   4.1570236509 -9.7308784989  2.0144211467
H   2.4440236509 -9.1718784989  1.4994211467
H   5.3800236509 -8.2118784989  4.2254211467
H   3.7520236509 -8.2068784989  4.8434211467
H   4.4000236509 -6.7198784989  4.4944211467
84
Scanning combination 36/256: [2.9000, 2.5000]  Energy = -385.9528955217
O   11.1233000000 -4.8002000000  5.0341000000
O   11.3873000000 -0.2652000000  3.3291000000
O   18.1143000000 -4.2382000000 -2.5629000000
O   15.0523000000 -3.1142000000  0.9841000000
C   13.0053000000 -3.3232000000  2.3291000000
C   12.6993000000 -1.9792000000  2.4491000000
C   12.3973000000 -4.3072000000  3.1831000000
C   11.6323000000 -1.5992000000  3.2951000000
C   11.4783000000 -3.8632000000  4.1231000000
C   11.0613000000 -2.4802000000  4.2331000000
C   10.1223000000 -1.9712000000  5.2561000000
C   10.5373000000 -1.3232000000  6.3251000000
C   9.8643000000 -1.0622000000  7.5921000000
C   8.6825000000 -1.0450000000  7.8959000000
C   10.8123000000 -0.2992000000  8.5731000000
C   14.6833000000 -4.8512000000 -0.4449000000
C   15.5183000000 -3.8012000000 -0.0889000000
C   16.6953000000 -3.5982000000 -0.8399000000
C   16.9703000000 -4.4882000000 -1.8899000000
C   16.1523000000 -5.5962000000 -2.2009000000
C   14.9513000000 -5.7522000000 -1.5279000000
C   13.6583000000 -4.8752000000  0.4711000000
C   13.8893000000 -3.7772000000  1.2511000000
H   13.1623000000 -1.2452000000  1.7971000000
H   12.5583000000 -5.3772000000  3.0881000000
H   11.7383000000 -5.5442000000  4.9131000000
H   11.8513000000  0.1658000000  2.5901000000
H   9.4643000000 -1.3292000000  4.6731000000
H   11.4933000000 -0.8182000000  6.2071000000
H   7.9073000000 -0.9712000000  7.1161000000
H   8.2313000000 -0.9072000000  8.8131000000
H   11.1183000000  0.6778000000  8.1811000000
H   11.7213000000 -0.7962000000  8.9311000000
H   10.3263000000 -0.0742000000  9.5301000000
H   17.3553000000 -2.7642000000 -0.6209000000
H   16.3753000000 -6.3042000000 -2.9929000000
H   14.4873000000 -6.7332000000 -1.5779000000
H   12.8783000000 -5.6272000000  0.4831000000
H   18.2613000000 -4.9422000000 -3.2189000000
C   9.5108593510 -4.8965116471  10.8167869854
O   11.8418593510 -5.2485116471  11.3047869854
C   10.8688593510 -4.8265116471  10.4587869854
O   7.2878593510 -4.3805116471  10.3447869854
C   11.3268593510 -4.1545116471  9.2787869854
O   6.0398593510 -2.4245116471  6.1447869854
C   10.3478593510 -3.6755116471  8.4217869854
O   4.3368593510 -3.6605116471  4.5777869854
C   8.9608593510 -3.7855116471  8.6887869854
O   6.2508593510 -5.9405116471  0.7577869854
C   8.5648593510 -4.3635116471  9.9077869854
C   7.7886593510 -3.3797116471  7.8950869854
C   8.1278593510 -3.3455116471  6.5377869854
C   6.9028593510 -3.1605116471  5.7597869854
C   6.7368593510 -3.9415116471  4.4507869854
C   7.8608593510 -4.4705116471  3.7587869854
C   5.4288593510 -4.0845116471  3.8807869854
C   7.6868593510 -5.2305116471  2.5897869854
C   5.2648593510 -4.8415116471  2.6877869854
C   6.4248593510 -5.2685116471  2.0017869854
C   3.8688593510 -5.1705116471  2.2707869854
C   3.4838593510 -6.6165116471  1.9817869854
C   3.6618593510 -7.7155116471  2.7867869854
C   3.1938593510 -9.0925116471  2.3357869854
C   4.3668593510 -7.6225116471  4.1577869854
H   9.1458593510 -5.1565116471  11.8057869854
H   12.3998593510 -4.0165116471  9.1837869854
H   10.6578593510 -3.2305116471  7.4807869854
H   11.3788593510 -5.6865116471  12.0397869854
H   7.2338593510 -4.9665116471  11.1197869854
H   6.8968593510 -3.3305116471  8.2757869854
H   8.3938593510 -4.3815116471  6.3617869854
H   8.8458593510 -4.4275116471  4.2127869854
H   8.5128593510 -5.5495116471  1.9607869854
H   4.7398593510 -3.2535116471  5.3647869854
H   5.3098593510 -6.1205116471  0.5907869854
H   3.0038593510 -4.7945116471  2.8307869854
H   3.7498593510 -4.6825116471  1.2957869854
H   2.8508593510 -6.7965116471  1.1157869854
H   2.6918593510 -9.6435116471  3.1407869854
H   4.1248593510 -9.6135116471  2.0817869854
H   2.4118593510 -9.0545116471  1.5667869854
H   5.3478593510 -8.0945116471  4.2927869854
H   3.7198593510 -8.0895116471  4.9107869854
H   4.3678593510 -6.6025116471  4.5617869854
84
Scanning combination 37/256: [2.9000, 2.4000]  Energy = -385.9407614466
O   11.1233000000 -4.8002000000  5.0341000000
O   11.3873000000 -0.2652000000  3.3291000000
O   18.1143000000 -4.2382000000 -2.5629000000
O   15.0523000000 -3.1142000000  0.9841000000
C   13.0053000000 -3.3232000000  2.3291000000
C   12.6993000000 -1.9792000000  2.4491000000
C   12.3973000000 -4.3072000000  3.1831000000
C   11.6323000000 -1.5992000000  3.2951000000
C   11.4783000000 -3.8632000000  4.1231000000
C   11.0613000000 -2.4802000000  4.2331000000
C   10.1223000000 -1.9712000000  5.2561000000
C   10.5373000000 -1.3232000000  6.3251000000
C   9.8643000000 -1.0622000000  7.5921000000
C   8.6825000000 -1.0450000000  7.8959000000
C   10.8123000000 -0.2992000000  8.5731000000
C   14.6833000000 -4.8512000000 -0.4449000000
C   15.5183000000 -3.8012000000 -0.0889000000
C   16.6953000000 -3.5982000000 -0.8399000000
C   16.9703000000 -4.4882000000 -1.8899000000
C   16.1523000000 -5.5962000000 -2.2009000000
C   14.9513000000 -5.7522000000 -1.5279000000
C   13.6583000000 -4.8752000000  0.4711000000
C   13.8893000000 -3.7772000000  1.2511000000
H   13.1623000000 -1.2452000000  1.7971000000
H   12.5583000000 -5.3772000000  3.0881000000
H   11.7383000000 -5.5442000000  4.9131000000
H   11.8513000000  0.1658000000  2.5901000000
H   9.4643000000 -1.3292000000  4.6731000000
H   11.4933000000 -0.8182000000  6.2071000000
H   7.9073000000 -0.9712000000  7.1161000000
H   8.2313000000 -0.9072000000  8.8131000000
H   11.1183000000  0.6778000000  8.1811000000
H   11.7213000000 -0.7962000000  8.9311000000
H   10.3263000000 -0.0742000000  9.5301000000
H   17.3553000000 -2.7642000000 -0.6209000000
H   16.3753000000 -6.3042000000 -2.9929000000
H   14.4873000000 -6.7332000000 -1.5779000000
H   12.8783000000 -5.6272000000  0.4831000000
H   18.2613000000 -4.9422000000 -3.2189000000
C   9.4789385138 -4.7749912052  10.8853302895
O   11.8099385138 -5.1269912052  11.3733302895
C   10.8369385138 -4.7049912052  10.5273302895
O   7.2559385138 -4.2589912052  10.4133302895
C   11.2949385138 -4.0329912052  9.3473302895
O   6.0079385138 -2.3029912052  6.2133302895
C   10.3159385138 -3.5539912052  8.4903302895
O   4.3049385138 -3.5389912052  4.6463302895
C   8.9289385138 -3.6639912052  8.7573302895
O   6.2189385138 -5.8189912052  0.8263302895
C   8.5329385138 -4.2419912052  9.9763302895
C   7.7567385138 -3.2581912052  7.9636302895
C   8.0959385138 -3.2239912052  6.6063302895
C   6.8709385138 -3.0389912052  5.8283302895
C   6.7049385138 -3.8199912052  4.5193302895
C   7.8289385138 -4.3489912052  3.8273302895
C   5.3969385138 -3.9629912052  3.9493302895
C   7.6549385138 -5.1089912052  2.6583302895
C   5.2329385138 -4.7199912052  2.7563302895
C   6.3929385138 -5.1469912052  2.0703302895
C   3.8369385138 -5.0489912052  2.3393302895
C   3.4519385138 -6.4949912052  2.0503302895
C   3.6299385138 -7.5939912052  2.8553302895
C   3.1619385138 -8.9709912052  2.4043302895
C   4.3349385138 -7.5009912052  4.2263302895
H   9.1139385138 -5.0349912052  11.8743302895
H   12.3679385138 -3.8949912052  9.2523302895
H   10.6259385138 -3.1089912052  7.5493302895
H   11.3469385138 -5.5649912052  12.1083302895
H   7.2019385138 -4.8449912052  11.1883302895
H   6.8649385138 -3.2089912052  8.3443302895
H   8.3619385138 -4.2599912052  6.4303302895
H   8.8139385138 -4.3059912052  4.2813302895
H   8.4809385138 -5.4279912052  2.0293302895
H   4.7079385138 -3.1319912052  5.4333302895
H   5.2779385138 -5.9989912052  0.6593302895
H   2.9719385138 -4.6729912052  2.8993302895
H   3.7179385138 -4.5609912052  1.3643302895
H   2.8189385138 -6.6749912052  1.1843302895
H   2.6599385138 -9.5219912052  3.2093302895
H   4.0929385138 -9.4919912052  2.1503302895
H   2.3799385138 -8.9329912052  1.6353302895
H   5.3159385138 -7.9729912052  4.3613302895
H   3.6879385138 -7.9679912052  4.9793302895
H   4.3359385138 -6.4809912052  4.6303302895
84
Scanning combination 38/256: [2.9000, 2.3000]  Energy = -385.9244652983
O   11.1233000000 -4.8002000000  5.0341000000
O   11.3873000000 -0.2652000000  3.3291000000
O   18.1143000000 -4.2382000000 -2.5629000000
O   15.0523000000 -3.1142000000  0.9841000000
C   13.0053000000 -3.3232000000  2.3291000000
C   12.6993000000 -1.9792000000  2.4491000000
C   12.3973000000 -4.3072000000  3.1831000000
C   11.6323000000 -1.5992000000  3.2951000000
C   11.4783000000 -3.8632000000  4.1231000000
C   11.0613000000 -2.4802000000  4.2331000000
C   10.1223000000 -1.9712000000  5.2561000000
C   10.5373000000 -1.3232000000  6.3251000000
C   9.8643000000 -1.0622000000  7.5921000000
C   8.6825000000 -1.0450000000  7.8959000000
C   10.8123000000 -0.2992000000  8.5731000000
C   14.6833000000 -4.8512000000 -0.4449000000
C   15.5183000000 -3.8012000000 -0.0889000000
C   16.6953000000 -3.5982000000 -0.8399000000
C   16.9703000000 -4.4882000000 -1.8899000000
C   16.1523000000 -5.5962000000 -2.2009000000
C   14.9513000000 -5.7522000000 -1.5279000000
C   13.6583000000 -4.8752000000  0.4711000000
C   13.8893000000 -3.7772000000  1.2511000000
H   13.1623000000 -1.2452000000  1.7971000000
H   12.5583000000 -5.3772000000  3.0881000000
H   11.7383000000 -5.5442000000  4.9131000000
H   11.8513000000  0.1658000000  2.5901000000
H   9.4643000000 -1.3292000000  4.6731000000
H   11.4933000000 -0.8182000000  6.2071000000
H   7.9073000000 -0.9712000000  7.1161000000
H   8.2313000000 -0.9072000000  8.8131000000
H   11.1183000000  0.6778000000  8.1811000000
H   11.7213000000 -0.7962000000  8.9311000000
H   10.3263000000 -0.0742000000  9.5301000000
H   17.3553000000 -2.7642000000 -0.6209000000
H   16.3753000000 -6.3042000000 -2.9929000000
H   14.4873000000 -6.7332000000 -1.5779000000
H   12.8783000000 -5.6272000000  0.4831000000
H   18.2613000000 -4.9422000000 -3.2189000000
C   9.4502327574 -4.6500323695  10.9522167752
O   11.7812327574 -5.0020323695  11.4402167752
C   10.8082327574 -4.5800323695  10.5942167752
O   7.2272327574 -4.1340323695  10.4802167752
C   11.2662327574 -3.9080323695  9.4142167752
O   5.9792327574 -2.1780323695  6.2802167752
C   10.2872327574 -3.4290323695  8.5572167752
O   4.2762327574 -3.4140323695  4.7132167752
C   8.9002327574 -3.5390323695  8.8242167752
O   6.1902327574 -5.6940323695  0.8932167752
C   8.5042327574 -4.1170323695  10.0432167752
C   7.7280327574 -3.1332323695  8.0305167752
C   8.0672327574 -3.0990323695  6.6732167752
C   6.8422327574 -2.9140323695  5.8952167752
C   6.6762327574 -3.6950323695  4.5862167752
C   7.8002327574 -4.2240323695  3.8942167752
C   5.3682327574 -3.8380323695  4.0162167752
C   7.6262327574 -4.9840323695  2.7252167752
C   5.2042327574 -4.5950323695  2.8232167752
C   6.3642327574 -5.0220323695  2.1372167752
C   3.8082327574 -4.9240323695  2.4062167752
C   3.4232327574 -6.3700323695  2.1172167752
C   3.6012327574 -7.4690323695  2.9222167752
C   3.1332327574 -8.8460323695  2.4712167752
C   4.3062327574 -7.3760323695  4.2932167752
H   9.0852327574 -4.9100323695  11.9412167752
H   12.3392327574 -3.7700323695  9.3192167752
H   10.5972327574 -2.9840323695  7.6162167752
H   11.3182327574 -5.4400323695  12.1752167752
H   7.1732327574 -4.7200323695  11.2552167752
H   6.8362327574 -3.0840323695  8.4112167752
H   8.3332327574 -4.1350323695  6.4972167752
H   8.7852327574 -4.1810323695  4.3482167752
H   8.4522327574 -5.3030323695  2.0962167752
H   4.6792327574 -3.0070323695  5.5002167752
H   5.2492327574 -5.8740323695  0.7262167752
H   2.9432327574 -4.5480323695  2.9662167752
H   3.6892327574 -4.4360323695  1.4312167752
H   2.7902327574 -6.5500323695  1.2512167752
H   2.6312327574 -9.3970323695  3.2762167752
H   4.0642327574 -9.3670323695  2.2172167752
H   2.3512327574 -8.8080323695  1.7022167752
H   5.2872327574 -7.8480323695  4.4282167752
H   3.6592327574 -7.8430323695  5.0462167752
H   4.3072327574 -6.3560323695  4.6972167752
84
Scanning combination 39/256: [2.9000, 2.2000]  Energy = -385.9028784033
O   11.1233000000 -4.8002000000  5.0341000000
O   11.3873000000 -0.2652000000  3.3291000000
O   18.1143000000 -4.2382000000 -2.5629000000
O   15.0523000000 -3.1142000000  0.9841000000
C   13.0053000000 -3.3232000000  2.3291000000
C   12.6993000000 -1.9792000000  2.4491000000
C   12.3973000000 -4.3072000000  3.1831000000
C   11.6323000000 -1.5992000000  3.2951000000
C   11.4783000000 -3.8632000000  4.1231000000
C   11.0613000000 -2.4802000000  4.2331000000
C   10.1223000000 -1.9712000000  5.2561000000
C   10.5373000000 -1.3232000000  6.3251000000
C   9.8643000000 -1.0622000000  7.5921000000
C   8.6825000000 -1.0450000000  7.8959000000
C   10.8123000000 -0.2992000000  8.5731000000
C   14.6833000000 -4.8512000000 -0.4449000000
C   15.5183000000 -3.8012000000 -0.0889000000
C   16.6953000000 -3.5982000000 -0.8399000000
C   16.9703000000 -4.4882000000 -1.8899000000
C   16.1523000000 -5.5962000000 -2.2009000000
C   14.9513000000 -5.7522000000 -1.5279000000
C   13.6583000000 -4.8752000000  0.4711000000
C   13.8893000000 -3.7772000000  1.2511000000
H   13.1623000000 -1.2452000000  1.7971000000
H   12.5583000000 -5.3772000000  3.0881000000
H   11.7383000000 -5.5442000000  4.9131000000
H   11.8513000000  0.1658000000  2.5901000000
H   9.4643000000 -1.3292000000  4.6731000000
H   11.4933000000 -0.8182000000  6.2071000000
H   7.9073000000 -0.9712000000  7.1161000000
H   8.2313000000 -0.9072000000  8.8131000000
H   11.1183000000  0.6778000000  8.1811000000
H   11.7213000000 -0.7962000000  8.9311000000
H   10.3263000000 -0.0742000000  9.5301000000
H   17.3553000000 -2.7642000000 -0.6209000000
H   16.3753000000 -6.3042000000 -2.9929000000
H   14.4873000000 -6.7332000000 -1.5779000000
H   12.8783000000 -5.6272000000  0.4831000000
H   18.2613000000 -4.9422000000 -3.2189000000
C   9.4263917774 -4.5222806620  11.0157898297
O   11.7573917774 -4.8742806620  11.5037898297
C   10.7843917774 -4.4522806620  10.6577898297
O   7.2033917774 -4.0062806620  10.5437898297
C   11.2423917774 -3.7802806620  9.4777898297
O   5.9553917774 -2.0502806620  6.3437898297
C   10.2633917774 -3.3012806620  8.6207898297
O   4.2523917774 -3.2862806620  4.7767898297
C   8.8763917774 -3.4112806620  8.8877898297
O   6.1663917774 -5.5662806620  0.9567898297
C   8.4803917774 -3.9892806620  10.1067898297
C   7.7041917774 -3.0054806620  8.0940898297
C   8.0433917774 -2.9712806620  6.7367898297
C   6.8183917774 -2.7862806620  5.9587898297
C   6.6523917774 -3.5672806620  4.6497898297
C   7.7763917774 -4.0962806620  3.9577898297
C   5.3443917774 -3.7102806620  4.0797898297
C   7.6023917774 -4.8562806620  2.7887898297
C   5.1803917774 -4.4672806620  2.8867898297
C   6.3403917774 -4.8942806620  2.2007898297
C   3.7843917774 -4.7962806620  2.4697898297
C   3.3993917774 -6.2422806620  2.1807898297
C   3.5773917774 -7.3412806620  2.9857898297
C   3.1093917774 -8.7182806620  2.5347898297
C   4.2823917774 -7.2482806620  4.3567898297
H   9.0613917774 -4.7822806620  12.0047898297
H   12.3153917774 -3.6422806620  9.3827898297
H   10.5733917774 -2.8562806620  7.6797898297
H   11.2943917774 -5.3122806620  12.2387898297
H   7.1493917774 -4.5922806620  11.3187898297
H   6.8123917774 -2.9562806620  8.4747898297
H   8.3093917774 -4.0072806620  6.5607898297
H   8.7613917774 -4.0532806620  4.4117898297
H   8.4283917774 -5.1752806620  2.1597898297
H   4.6553917774 -2.8792806620  5.5637898297
H   5.2253917774 -5.7462806620  0.7897898297
H   2.9193917774 -4.4202806620  3.0297898297
H   3.6653917774 -4.3082806620  1.4947898297
H   2.7663917774 -6.4222806620  1.3147898297
H   2.6073917774 -9.2692806620  3.3397898297
H   4.0403917774 -9.2392806620  2.2807898297
H   2.3273917774 -8.6802806620  1.7657898297
H   5.2633917774 -7.7202806620  4.4917898297
H   3.6353917774 -7.7152806620  5.1097898297
H   4.2833917774 -6.2282806620  4.7607898297
84
Scanning combination 40/256: [2.9000, 2.1000]  Energy = -385.8755873438
O   11.1233000000 -4.8002000000  5.0341000000
O   11.3873000000 -0.2652000000  3.3291000000
O   18.1143000000 -4.2382000000 -2.5629000000
O   15.0523000000 -3.1142000000  0.9841000000
C   13.0053000000 -3.3232000000  2.3291000000
C   12.6993000000 -1.9792000000  2.4491000000
C   12.3973000000 -4.3072000000  3.1831000000
C   11.6323000000 -1.5992000000  3.2951000000
C   11.4783000000 -3.8632000000  4.1231000000
C   11.0613000000 -2.4802000000  4.2331000000
C   10.1223000000 -1.9712000000  5.2561000000
C   10.5373000000 -1.3232000000  6.3251000000
C   9.8643000000 -1.0622000000  7.5921000000
C   8.6825000000 -1.0450000000  7.8959000000
C   10.8123000000 -0.2992000000  8.5731000000
C   14.6833000000 -4.8512000000 -0.4449000000
C   15.5183000000 -3.8012000000 -0.0889000000
C   16.6953000000 -3.5982000000 -0.8399000000
C   16.9703000000 -4.4882000000 -1.8899000000
C   16.1523000000 -5.5962000000 -2.2009000000
C   14.9513000000 -5.7522000000 -1.5279000000
C   13.6583000000 -4.8752000000  0.4711000000
C   13.8893000000 -3.7772000000  1.2511000000
H   13.1623000000 -1.2452000000  1.7971000000
H   12.5583000000 -5.3772000000  3.0881000000
H   11.7383000000 -5.5442000000  4.9131000000
H   11.8513000000  0.1658000000  2.5901000000
H   9.4643000000 -1.3292000000  4.6731000000
H   11.4933000000 -0.8182000000  6.2071000000
H   7.9073000000 -0.9712000000  7.1161000000
H   8.2313000000 -0.9072000000  8.8131000000
H   11.1183000000  0.6778000000  8.1811000000
H   11.7213000000 -0.7962000000  8.9311000000
H   10.3263000000 -0.0742000000  9.5301000000
H   17.3553000000 -2.7642000000 -0.6209000000
H   16.3753000000 -6.3042000000 -2.9929000000
H   14.4873000000 -6.7332000000 -1.5779000000
H   12.8783000000 -5.6272000000  0.4831000000
H   18.2613000000 -4.9422000000 -3.2189000000
C   9.4082688795 -4.3922821982  11.0751215474
O   11.7392688795 -4.7442821982  11.5631215474
C   10.7662688795 -4.3222821982  10.7171215474
O   7.1852688795 -3.8762821982  10.6031215474
C   11.2242688795 -3.6502821982  9.5371215474
O   5.9372688795 -1.9202821982  6.4031215474
C   10.2452688795 -3.1712821982  8.6801215474
O   4.2342688795 -3.1562821982  4.8361215474
C   8.8582688795 -3.2812821982  8.9471215474
O   6.1482688795 -5.4362821982  1.0161215474
C   8.4622688795 -3.8592821982  10.1661215474
C   7.6860688795 -2.8754821982  8.1534215474
C   8.0252688795 -2.8412821982  6.7961215474
C   6.8002688795 -2.6562821982  6.0181215474
C   6.6342688795 -3.4372821982  4.7091215474
C   7.7582688795 -3.9662821982  4.0171215474
C   5.3262688795 -3.5802821982  4.1391215474
C   7.5842688795 -4.7262821982  2.8481215474
C   5.1622688795 -4.3372821982  2.9461215474
C   6.3222688795 -4.7642821982  2.2601215474
C   3.7662688795 -4.6662821982  2.5291215474
C   3.3812688795 -6.1122821982  2.2401215474
C   3.5592688795 -7.2112821982  3.0451215474
C   3.0912688795 -8.5882821982  2.5941215474
C   4.2642688795 -7.1182821982  4.4161215474
H   9.0432688795 -4.6522821982  12.0641215474
H   12.2972688795 -3.5122821982  9.4421215474
H   10.5552688795 -2.7262821982  7.7391215474
H   11.2762688795 -5.1822821982  12.2981215474
H   7.1312688795 -4.4622821982  11.3781215474
H   6.7942688795 -2.8262821982  8.5341215474
H   8.2912688795 -3.8772821982  6.6201215474
H   8.7432688795 -3.9232821982  4.4711215474
H   8.4102688795 -5.0452821982  2.2191215474
H   4.6372688795 -2.7492821982  5.6231215474
H   5.2072688795 -5.6162821982  0.8491215474
H   2.9012688795 -4.2902821982  3.0891215474
H   3.6472688795 -4.1782821982  1.5541215474
H   2.7482688795 -6.2922821982  1.3741215474
H   2.5892688795 -9.1392821982  3.3991215474
H   4.0222688795 -9.1092821982  2.3401215474
H   2.3092688795 -8.5502821982  1.8251215474
H   5.2452688795 -7.5902821982  4.5511215474
H   3.6172688795 -7.5852821982  5.1691215474
H   4.2652688795 -6.0982821982  4.8201215474
84
Scanning combination 41/256: [2.9000, 2.0000]  Energy = -385.8409069773
O   11.1233000000 -4.8002000000  5.0341000000
O   11.3873000000 -0.2652000000  3.3291000000
O   18.1143000000 -4.2382000000 -2.5629000000
O   15.0523000000 -3.1142000000  0.9841000000
C   13.0053000000 -3.3232000000  2.3291000000
C   12.6993000000 -1.9792000000  2.4491000000
C   12.3973000000 -4.3072000000  3.1831000000
C   11.6323000000 -1.5992000000  3.2951000000
C   11.4783000000 -3.8632000000  4.1231000000
C   11.0613000000 -2.4802000000  4.2331000000
C   10.1223000000 -1.9712000000  5.2561000000
C   10.5373000000 -1.3232000000  6.3251000000
C   9.8643000000 -1.0622000000  7.5921000000
C   8.6825000000 -1.0450000000  7.8959000000
C   10.8123000000 -0.2992000000  8.5731000000
C   14.6833000000 -4.8512000000 -0.4449000000
C   15.5183000000 -3.8012000000 -0.0889000000
C   16.6953000000 -3.5982000000 -0.8399000000
C   16.9703000000 -4.4882000000 -1.8899000000
C   16.1523000000 -5.5962000000 -2.2009000000
C   14.9513000000 -5.7522000000 -1.5279000000
C   13.6583000000 -4.8752000000  0.4711000000
C   13.8893000000 -3.7772000000  1.2511000000
H   13.1623000000 -1.2452000000  1.7971000000
H   12.5583000000 -5.3772000000  3.0881000000
H   11.7383000000 -5.5442000000  4.9131000000
H   11.8513000000  0.1658000000  2.5901000000
H   9.4643000000 -1.3292000000  4.6731000000
H   11.4933000000 -0.8182000000  6.2071000000
H   7.9073000000 -0.9712000000  7.1161000000
H   8.2313000000 -0.9072000000  8.8131000000
H   11.1183000000  0.6778000000  8.1811000000
H   11.7213000000 -0.7962000000  8.9311000000
H   10.3263000000 -0.0742000000  9.5301000000
H   17.3553000000 -2.7642000000 -0.6209000000
H   16.3753000000 -6.3042000000 -2.9929000000
H   14.4873000000 -6.7332000000 -1.5779000000
H   12.8783000000 -5.6272000000  0.4831000000
H   18.2613000000 -4.9422000000 -3.2189000000
C   9.3962698919 -4.2604821849  11.1297085475
O   11.7272698919 -4.6124821849  11.6177085475
C   10.7542698919 -4.1904821849  10.7717085475
O   7.1732698919 -3.7444821849  10.6577085475
C   11.2122698919 -3.5184821849  9.5917085475
O   5.9252698919 -1.7884821849  6.4577085475
C   10.2332698919 -3.0394821849  8.7347085475
O   4.2222698919 -3.0244821849  4.8907085475
C   8.8462698919 -3.1494821849  9.0017085475
O   6.1362698919 -5.3044821849  1.0707085475
C   8.4502698919 -3.7274821849  10.2207085475
C   7.6740698919 -2.7436821849  8.2080085475
C   8.0132698919 -2.7094821849  6.8507085475
C   6.7882698919 -2.5244821849  6.0727085475
C   6.6222698919 -3.3054821849  4.7637085475
C   7.7462698919 -3.8344821849  4.0717085475
C   5.3142698919 -3.4484821849  4.1937085475
C   7.5722698919 -4.5944821849  2.9027085475
C   5.1502698919 -4.2054821849  3.0007085475
C   6.3102698919 -4.6324821849  2.3147085475
C   3.7542698919 -4.5344821849  2.5837085475
C   3.3692698919 -5.9804821849  2.2947085475
C   3.5472698919 -7.0794821849  3.0997085475
C   3.0792698919 -8.4564821849  2.6487085475
C   4.2522698919 -6.9864821849  4.4707085475
H   9.0312698919 -4.5204821849  12.1187085475
H   12.2852698919 -3.3804821849  9.4967085475
H   10.5432698919 -2.5944821849  7.7937085475
H   11.2642698919 -5.0504821849  12.3527085475
H   7.1192698919 -4.3304821849  11.4327085475
H   6.7822698919 -2.6944821849  8.5887085475
H   8.2792698919 -3.7454821849  6.6747085475
H   8.7312698919 -3.7914821849  4.5257085475
H   8.3982698919 -4.9134821849  2.2737085475
H   4.6252698919 -2.6174821849  5.6777085475
H   5.1952698919 -5.4844821849  0.9037085475
H   2.8892698919 -4.1584821849  3.1437085475
H   3.6352698919 -4.0464821849  1.6087085475
H   2.7362698919 -6.1604821849  1.4287085475
H   2.5772698919 -9.0074821849  3.4537085475
H   4.0102698919 -8.9774821849  2.3947085475
H   2.2972698919 -8.4184821849  1.8797085475
H   5.2332698919 -7.4584821849  4.6057085475
H   3.6052698919 -7.4534821849  5.2237085475
H   4.2532698919 -5.9664821849  4.8747085475
84
Scanning combination 42/256: [2.9000, 1.9000]  Energy = -385.7962318655
O   11.1233000000 -4.8002000000  5.0341000000
O   11.3873000000 -0.2652000000  3.3291000000
O   18.1143000000 -4.2382000000 -2.5629000000
O   15.0523000000 -3.1142000000  0.9841000000
C   13.0053000000 -3.3232000000  2.3291000000
C   12.6993000000 -1.9792000000  2.4491000000
C   12.3973000000 -4.3072000000  3.1831000000
C   11.6323000000 -1.5992000000  3.2951000000
C   11.4783000000 -3.8632000000  4.1231000000
C   11.0613000000 -2.4802000000  4.2331000000
C   10.1223000000 -1.9712000000  5.2561000000
C   10.5373000000 -1.3232000000  6.3251000000
C   9.8643000000 -1.0622000000  7.5921000000
C   8.6825000000 -1.0450000000  7.8959000000
C   10.8123000000 -0.2992000000  8.5731000000
C   14.6833000000 -4.8512000000 -0.4449000000
C   15.5183000000 -3.8012000000 -0.0889000000
C   16.6953000000 -3.5982000000 -0.8399000000
C   16.9703000000 -4.4882000000 -1.8899000000
C   16.1523000000 -5.5962000000 -2.2009000000
C   14.9513000000 -5.7522000000 -1.5279000000
C   13.6583000000 -4.8752000000  0.4711000000
C   13.8893000000 -3.7772000000  1.2511000000
H   13.1623000000 -1.2452000000  1.7971000000
H   12.5583000000 -5.3772000000  3.0881000000
H   11.7383000000 -5.5442000000  4.9131000000
H   11.8513000000  0.1658000000  2.5901000000
H   9.4643000000 -1.3292000000  4.6731000000
H   11.4933000000 -0.8182000000  6.2071000000
H   7.9073000000 -0.9712000000  7.1161000000
H   8.2313000000 -0.9072000000  8.8131000000
H   11.1183000000  0.6778000000  8.1811000000
H   11.7213000000 -0.7962000000  8.9311000000
H   10.3263000000 -0.0742000000  9.5301000000
H   17.3553000000 -2.7642000000 -0.6209000000
H   16.3753000000 -6.3042000000 -2.9929000000
H   14.4873000000 -6.7332000000 -1.5779000000
H   12.8783000000 -5.6272000000  0.4831000000
H   18.2613000000 -4.9422000000 -3.2189000000
C   9.3905722453 -4.1272414658  11.1792751285
O   11.7215722453 -4.4792414658  11.6672751285
C   10.7485722453 -4.0572414658  10.8212751285
O   7.1675722453 -3.6112414658  10.7072751285
C   11.2065722453 -3.3852414658  9.6412751285
O   5.9195722453 -1.6552414658  6.5072751285
C   10.2275722453 -2.9062414658  8.7842751285
O   4.2165722453 -2.8912414658  4.9402751285
C   8.8405722453 -3.0162414658  9.0512751285
O   6.1305722453 -5.1712414658  1.1202751285
C   8.4445722453 -3.5942414658  10.2702751285
C   7.6683722453 -2.6104414658  8.2575751285
C   8.0075722453 -2.5762414658  6.9002751285
C   6.7825722453 -2.3912414658  6.1222751285
C   6.6165722453 -3.1722414658  4.8132751285
C   7.7405722453 -3.7012414658  4.1212751285
C   5.3085722453 -3.3152414658  4.2432751285
C   7.5665722453 -4.4612414658  2.9522751285
C   5.1445722453 -4.0722414658  3.0502751285
C   6.3045722453 -4.4992414658  2.3642751285
C   3.7485722453 -4.4012414658  2.6332751285
C   3.3635722453 -5.8472414658  2.3442751285
C   3.5415722453 -6.9462414658  3.1492751285
C   3.0735722453 -8.3232414658  2.6982751285
C   4.2465722453 -6.8532414658  4.5202751285
H   9.0255722453 -4.3872414658  12.1682751285
H   12.2795722453 -3.2472414658  9.5462751285
H   10.5375722453 -2.4612414658  7.8432751285
H   11.2585722453 -4.9172414658  12.4022751285
H   7.1135722453 -4.1972414658  11.4822751285
H   6.7765722453 -2.5612414658  8.6382751285
H   8.2735722453 -3.6122414658  6.7242751285
H   8.7255722453 -3.6582414658  4.5752751285
H   8.3925722453 -4.7802414658  2.3232751285
H   4.6195722453 -2.4842414658  5.7272751285
H   5.1895722453 -5.3512414658  0.9532751285
H   2.8835722453 -4.0252414658  3.1932751285
H   3.6295722453 -3.9132414658  1.6582751285
H   2.7305722453 -6.0272414658  1.4782751285
H   2.5715722453 -8.8742414658  3.5032751285
H   4.0045722453 -8.8442414658  2.4442751285
H   2.2915722453 -8.2852414658  1.9292751285
H   5.2275722453 -7.3252414658  4.6552751285
H   3.5995722453 -7.3202414658  5.2732751285
H   4.2475722453 -5.8332414658  4.9242751285
84
Scanning combination 43/256: [2.9000, 1.8000]  Energy = -385.7442744966
O   11.1233000000 -4.8002000000  5.0341000000
O   11.3873000000 -0.2652000000  3.3291000000
O   18.1143000000 -4.2382000000 -2.5629000000
O   15.0523000000 -3.1142000000  0.9841000000
C   13.0053000000 -3.3232000000  2.3291000000
C   12.6993000000 -1.9792000000  2.4491000000
C   12.3973000000 -4.3072000000  3.1831000000
C   11.6323000000 -1.5992000000  3.2951000000
C   11.4783000000 -3.8632000000  4.1231000000
C   11.0613000000 -2.4802000000  4.2331000000
C   10.1223000000 -1.9712000000  5.2561000000
C   10.5373000000 -1.3232000000  6.3251000000
C   9.8643000000 -1.0622000000  7.5921000000
C   8.6825000000 -1.0450000000  7.8959000000
C   10.8123000000 -0.2992000000  8.5731000000
C   14.6833000000 -4.8512000000 -0.4449000000
C   15.5183000000 -3.8012000000 -0.0889000000
C   16.6953000000 -3.5982000000 -0.8399000000
C   16.9703000000 -4.4882000000 -1.8899000000
C   16.1523000000 -5.5962000000 -2.2009000000
C   14.9513000000 -5.7522000000 -1.5279000000
C   13.6583000000 -4.8752000000  0.4711000000
C   13.8893000000 -3.7772000000  1.2511000000
H   13.1623000000 -1.2452000000  1.7971000000
H   12.5583000000 -5.3772000000  3.0881000000
H   11.7383000000 -5.5442000000  4.9131000000
H   11.8513000000  0.1658000000  2.5901000000
H   9.4643000000 -1.3292000000  4.6731000000
H   11.4933000000 -0.8182000000  6.2071000000
H   7.9073000000 -0.9712000000  7.1161000000
H   8.2313000000 -0.9072000000  8.8131000000
H   11.1183000000  0.6778000000  8.1811000000
H   11.7213000000 -0.7962000000  8.9311000000
H   10.3263000000 -0.0742000000  9.5301000000
H   17.3553000000 -2.7642000000 -0.6209000000
H   16.3753000000 -6.3042000000 -2.9929000000
H   14.4873000000 -6.7332000000 -1.5779000000
H   12.8783000000 -5.6272000000  0.4831000000
H   18.2613000000 -4.9422000000 -3.2189000000
C   9.3912562660 -3.9928598568  11.2236508080
O   11.7222562660 -4.3448598568  11.7116508080
C   10.7492562660 -3.9228598568  10.8656508080
O   7.1682562660 -3.4768598568  10.7516508080
C   11.2072562660 -3.2508598568  9.6856508080
O   5.9202562660 -1.5208598568  6.5516508080
C   10.2282562660 -2.7718598568  8.8286508080
O   4.2172562660 -2.7568598568  4.9846508080
C   8.8412562660 -2.8818598568  9.0956508080
O   6.1312562660 -5.0368598568  1.1646508080
C   8.4452562660 -3.4598598568  10.3146508080
C   7.6690562660 -2.4760598568  8.3019508080
C   8.0082562660 -2.4418598568  6.9446508080
C   6.7832562660 -2.2568598568  6.1666508080
C   6.6172562660 -3.0378598568  4.8576508080
C   7.7412562660 -3.5668598568  4.1656508080
C   5.3092562660 -3.1808598568  4.2876508080
C   7.5672562660 -4.3268598568  2.9966508080
C   5.1452562660 -3.9378598568  3.0946508080
C   6.3052562660 -4.3648598568  2.4086508080
C   3.7492562660 -4.2668598568  2.6776508080
C   3.3642562660 -5.7128598568  2.3886508080
C   3.5422562660 -6.8118598568  3.1936508080
C   3.0742562660 -8.1888598568  2.7426508080
C   4.2472562660 -6.7188598568  4.5646508080
H   9.0262562660 -4.2528598568  12.2126508080
H   12.2802562660 -3.1128598568  9.5906508080
H   10.5382562660 -2.3268598568  7.8876508080
H   11.2592562660 -4.7828598568  12.4466508080
H   7.1142562660 -4.0628598568  11.5266508080
H   6.7772562660 -2.4268598568  8.6826508080
H   8.2742562660 -3.4778598568  6.7686508080
H   8.7262562660 -3.5238598568  4.6196508080
H   8.3932562660 -4.6458598568  2.3676508080
H   4.6202562660 -2.3498598568  5.7716508080
H   5.1902562660 -5.2168598568  0.9976508080
H   2.8842562660 -3.8908598568  3.2376508080
H   3.6302562660 -3.7788598568  1.7026508080
H   2.7312562660 -5.8928598568  1.5226508080
H   2.5722562660 -8.7398598568  3.5476508080
H   4.0052562660 -8.7098598568  2.4886508080
H   2.2922562660 -8.1508598568  1.9736508080
H   5.2282562660 -7.1908598568  4.6996508080
H   3.6002562660 -7.1858598568  5.3176508080
H   4.2482562660 -5.6988598568  4.9686508080
84
Scanning combination 44/256: [2.9000, 1.7000]  Energy = -385.6788038012
O   11.1233000000 -4.8002000000  5.0341000000
O   11.3873000000 -0.2652000000  3.3291000000
O   18.1143000000 -4.2382000000 -2.5629000000
O   15.0523000000 -3.1142000000  0.9841000000
C   13.0053000000 -3.3232000000  2.3291000000
C   12.6993000000 -1.9792000000  2.4491000000
C   12.3973000000 -4.3072000000  3.1831000000
C   11.6323000000 -1.5992000000  3.2951000000
C   11.4783000000 -3.8632000000  4.1231000000
C   11.0613000000 -2.4802000000  4.2331000000
C   10.1223000000 -1.9712000000  5.2561000000
C   10.5373000000 -1.3232000000  6.3251000000
C   9.8643000000 -1.0622000000  7.5921000000
C   8.6825000000 -1.0450000000  7.8959000000
C   10.8123000000 -0.2992000000  8.5731000000
C   14.6833000000 -4.8512000000 -0.4449000000
C   15.5183000000 -3.8012000000 -0.0889000000
C   16.6953000000 -3.5982000000 -0.8399000000
C   16.9703000000 -4.4882000000 -1.8899000000
C   16.1523000000 -5.5962000000 -2.2009000000
C   14.9513000000 -5.7522000000 -1.5279000000
C   13.6583000000 -4.8752000000  0.4711000000
C   13.8893000000 -3.7772000000  1.2511000000
H   13.1623000000 -1.2452000000  1.7971000000
H   12.5583000000 -5.3772000000  3.0881000000
H   11.7383000000 -5.5442000000  4.9131000000
H   11.8513000000  0.1658000000  2.5901000000
H   9.4643000000 -1.3292000000  4.6731000000
H   11.4933000000 -0.8182000000  6.2071000000
H   7.9073000000 -0.9712000000  7.1161000000
H   8.2313000000 -0.9072000000  8.8131000000
H   11.1183000000  0.6778000000  8.1811000000
H   11.7213000000 -0.7962000000  8.9311000000
H   10.3263000000 -0.0742000000  9.5301000000
H   17.3553000000 -2.7642000000 -0.6209000000
H   16.3753000000 -6.3042000000 -2.9929000000
H   14.4873000000 -6.7332000000 -1.5779000000
H   12.8783000000 -5.6272000000  0.4831000000
H   18.2613000000 -4.9422000000 -3.2189000000
C   9.3983818192 -3.8576003131  11.2626953072
O   11.7293818192 -4.2096003131  11.7506953072
C   10.7563818192 -3.7876003131  10.9046953072
O   7.1753818192 -3.3416003131  10.7906953072
C   11.2143818192 -3.1156003131  9.7246953072
O   5.9273818192 -1.3856003131  6.5906953072
C   10.2353818192 -2.6366003131  8.8676953072
O   4.2243818192 -2.6216003131  5.0236953072
C   8.8483818192 -2.7466003131  9.1346953072
O   6.1383818192 -4.9016003131  1.2036953072
C   8.4523818192 -3.3246003131  10.3536953072
C   7.6761818192 -2.3408003131  8.3409953072
C   8.0153818192 -2.3066003131  6.9836953072
C   6.7903818192 -2.1216003131  6.2056953072
C   6.6243818192 -2.9026003131  4.8966953072
C   7.7483818192 -3.4316003131  4.2046953072
C   5.3163818192 -3.0456003131  4.3266953072
C   7.5743818192 -4.1916003131  3.0356953072
C   5.1523818192 -3.8026003131  3.1336953072
C   6.3123818192 -4.2296003131  2.4476953072
C   3.7563818192 -4.1316003131  2.7166953072
C   3.3713818192 -5.5776003131  2.4276953072
C   3.5493818192 -6.6766003131  3.2326953072
C   3.0813818192 -8.0536003131  2.7816953072
C   4.2543818192 -6.5836003131  4.6036953072
H   9.0333818192 -4.1176003131  12.2516953072
H   12.2873818192 -2.9776003131  9.6296953072
H   10.5453818192 -2.1916003131  7.9266953072
H   11.2663818192 -4.6476003131  12.4856953072
H   7.1213818192 -3.9276003131  11.5656953072
H   6.7843818192 -2.2916003131  8.7216953072
H   8.2813818192 -3.3426003131  6.8076953072
H   8.7333818192 -3.3886003131  4.6586953072
H   8.4003818192 -4.5106003131  2.4066953072
H   4.6273818192 -2.2146003131  5.8106953072
H   5.1973818192 -5.0816003131  1.0366953072
H   2.8913818192 -3.7556003131  3.2766953072
H   3.6373818192 -3.6436003131  1.7416953072
H   2.7383818192 -5.7576003131  1.5616953072
H   2.5793818192 -8.6046003131  3.5866953072
H   4.0123818192 -8.5746003131  2.5276953072
H   2.2993818192 -8.0156003131  2.0126953072
H   5.2353818192 -7.0556003131  4.7386953072
H   3.6073818192 -7.0506003131  5.3566953072
H   4.2553818192 -5.5636003131  5.0076953072
84
Scanning combination 45/256: [2.9000, 1.6000]  Energy = -385.5834175344
O   11.1233000000 -4.8002000000  5.0341000000
O   11.3873000000 -0.2652000000  3.3291000000
O   18.1143000000 -4.2382000000 -2.5629000000
O   15.0523000000 -3.1142000000  0.9841000000
C   13.0053000000 -3.3232000000  2.3291000000
C   12.6993000000 -1.9792000000  2.4491000000
C   12.3973000000 -4.3072000000  3.1831000000
C   11.6323000000 -1.5992000000  3.2951000000
C   11.4783000000 -3.8632000000  4.1231000000
C   11.0613000000 -2.4802000000  4.2331000000
C   10.1223000000 -1.9712000000  5.2561000000
C   10.5373000000 -1.3232000000  6.3251000000
C   9.8643000000 -1.0622000000  7.5921000000
C   8.6825000000 -1.0450000000  7.8959000000
C   10.8123000000 -0.2992000000  8.5731000000
C   14.6833000000 -4.8512000000 -0.4449000000
C   15.5183000000 -3.8012000000 -0.0889000000
C   16.6953000000 -3.5982000000 -0.8399000000
C   16.9703000000 -4.4882000000 -1.8899000000
C   16.1523000000 -5.5962000000 -2.2009000000
C   14.9513000000 -5.7522000000 -1.5279000000
C   13.6583000000 -4.8752000000  0.4711000000
C   13.8893000000 -3.7772000000  1.2511000000
H   13.1623000000 -1.2452000000  1.7971000000
H   12.5583000000 -5.3772000000  3.0881000000
H   11.7383000000 -5.5442000000  4.9131000000
H   11.8513000000  0.1658000000  2.5901000000
H   9.4643000000 -1.3292000000  4.6731000000
H   11.4933000000 -0.8182000000  6.2071000000
H   7.9073000000 -0.9712000000  7.1161000000
H   8.2313000000 -0.9072000000  8.8131000000
H   11.1183000000  0.6778000000  8.1811000000
H   11.7213000000 -0.7962000000  8.9311000000
H   10.3263000000 -0.0742000000  9.5301000000
H   17.3553000000 -2.7642000000 -0.6209000000
H   16.3753000000 -6.3042000000 -2.9929000000
H   14.4873000000 -6.7332000000 -1.5779000000
H   12.8783000000 -5.6272000000  0.4831000000
H   18.2613000000 -4.9422000000 -3.2189000000
C   9.4120336605 -3.7217130247  11.2962508840
O   11.7430336605 -4.0737130247  11.7842508840
C   10.7700336605 -3.6517130247  10.9382508840
O   7.1890336605 -3.2057130247  10.8242508840
C   11.2280336605 -2.9797130247  9.7582508840
O   5.9410336605 -1.2497130247  6.6242508840
C   10.2490336605 -2.5007130247  8.9012508840
O   4.2380336605 -2.4857130247  5.0572508840
C   8.8620336605 -2.6107130247  9.1682508840
O   6.1520336605 -4.7657130247  1.2372508840
C   8.4660336605 -3.1887130247  10.3872508840
C   7.6898336605 -2.2049130247  8.3745508840
C   8.0290336605 -2.1707130247  7.0172508840
C   6.8040336605 -1.9857130247  6.2392508840
C   6.6380336605 -2.7667130247  4.9302508840
C   7.7620336605 -3.2957130247  4.2382508840
C   5.3300336605 -2.9097130247  4.3602508840
C   7.5880336605 -4.0557130247  3.0692508840
C   5.1660336605 -3.6667130247  3.1672508840
C   6.3260336605 -4.0937130247  2.4812508840
C   3.7700336605 -3.9957130247  2.7502508840
C   3.3850336605 -5.4417130247  2.4612508840
C   3.5630336605 -6.5407130247  3.2662508840
C   3.0950336605 -7.9177130247  2.8152508840
C   4.2680336605 -6.4477130247  4.6372508840
H   9.0470336605 -3.9817130247  12.2852508840
H   12.3010336605 -2.8417130247  9.6632508840
H   10.5590336605 -2.0557130247  7.9602508840
H   11.2800336605 -4.5117130247  12.5192508840
H   7.1350336605 -3.7917130247  11.5992508840
H   6.7980336605 -2.1557130247  8.7552508840
H   8.2950336605 -3.2067130247  6.8412508840
H   8.7470336605 -3.2527130247  4.6922508840
H   8.4140336605 -4.3747130247  2.4402508840
H   4.6410336605 -2.0787130247  5.8442508840
H   5.2110336605 -4.9457130247  1.0702508840
H   2.9050336605 -3.6197130247  3.3102508840
H   3.6510336605 -3.5077130247  1.7752508840
H   2.7520336605 -5.6217130247  1.5952508840
H   2.5930336605 -8.4687130247  3.6202508840
H   4.0260336605 -8.4387130247  2.5612508840
H   2.3130336605 -7.8797130247  2.0462508840
H   5.2490336605 -6.9197130247  4.7722508840
H   3.6210336605 -6.9147130247  5.3902508840
H   4.2690336605 -5.4277130247  5.0412508840
84
Scanning combination 46/256: [2.9000, 1.5000]  Energy = -385.4484637972
O   11.1233000000 -4.8002000000  5.0341000000
O   11.3873000000 -0.2652000000  3.3291000000
O   18.1143000000 -4.2382000000 -2.5629000000
O   15.0523000000 -3.1142000000  0.9841000000
C   13.0053000000 -3.3232000000  2.3291000000
C   12.6993000000 -1.9792000000  2.4491000000
C   12.3973000000 -4.3072000000  3.1831000000
C   11.6323000000 -1.5992000000  3.2951000000
C   11.4783000000 -3.8632000000  4.1231000000
C   11.0613000000 -2.4802000000  4.2331000000
C   10.1223000000 -1.9712000000  5.2561000000
C   10.5373000000 -1.3232000000  6.3251000000
C   9.8643000000 -1.0622000000  7.5921000000
C   8.6825000000 -1.0450000000  7.8959000000
C   10.8123000000 -0.2992000000  8.5731000000
C   14.6833000000 -4.8512000000 -0.4449000000
C   15.5183000000 -3.8012000000 -0.0889000000
C   16.6953000000 -3.5982000000 -0.8399000000
C   16.9703000000 -4.4882000000 -1.8899000000
C   16.1523000000 -5.5962000000 -2.2009000000
C   14.9513000000 -5.7522000000 -1.5279000000
C   13.6583000000 -4.8752000000  0.4711000000
C   13.8893000000 -3.7772000000  1.2511000000
H   13.1623000000 -1.2452000000  1.7971000000
H   12.5583000000 -5.3772000000  3.0881000000
H   11.7383000000 -5.5442000000  4.9131000000
H   11.8513000000  0.1658000000  2.5901000000
H   9.4643000000 -1.3292000000  4.6731000000
H   11.4933000000 -0.8182000000  6.2071000000
H   7.9073000000 -0.9712000000  7.1161000000
H   8.2313000000 -0.9072000000  8.8131000000
H   11.1183000000  0.6778000000  8.1811000000
H   11.7213000000 -0.7962000000  8.9311000000
H   10.3263000000 -0.0742000000  9.5301000000
H   17.3553000000 -2.7642000000 -0.6209000000
H   16.3753000000 -6.3042000000 -2.9929000000
H   14.4873000000 -6.7332000000 -1.5779000000
H   12.8783000000 -5.6272000000  0.4831000000
H   18.2613000000 -4.9422000000 -3.2189000000
C   9.4323504820 -3.5854621420  11.3241080251
O   11.7633504820 -3.9374621420  11.8121080251
C   10.7903504820 -3.5154621420  10.9661080251
O   7.2093504820 -3.0694621420  10.8521080251
C   11.2483504820 -2.8434621420  9.7861080251
O   5.9613504820 -1.1134621420  6.6521080251
C   10.2693504820 -2.3644621420  8.9291080251
O   4.2583504820 -2.3494621420  5.0851080251
C   8.8823504820 -2.4744621420  9.1961080251
O   6.1723504820 -4.6294621420  1.2651080251
C   8.4863504820 -3.0524621420  10.4151080251
C   7.7101504820 -2.0686621420  8.4024080251
C   8.0493504820 -2.0344621420  7.0451080251
C   6.8243504820 -1.8494621420  6.2671080251
C   6.6583504820 -2.6304621420  4.9581080251
C   7.7823504820 -3.1594621420  4.2661080251
C   5.3503504820 -2.7734621420  4.3881080251
C   7.6083504820 -3.9194621420  3.0971080251
C   5.1863504820 -3.5304621420  3.1951080251
C   6.3463504820 -3.9574621420  2.5091080251
C   3.7903504820 -3.8594621420  2.7781080251
C   3.4053504820 -5.3054621420  2.4891080251
C   3.5833504820 -6.4044621420  3.2941080251
C   3.1153504820 -7.7814621420  2.8431080251
C   4.2883504820 -6.3114621420  4.6651080251
H   9.0673504820 -3.8454621420  12.3131080251
H   12.3213504820 -2.7054621420  9.6911080251
H   10.5793504820 -1.9194621420  7.9881080251
H   11.3003504820 -4.3754621420  12.5471080251
H   7.1553504820 -3.6554621420  11.6271080251
H   6.8183504820 -2.0194621420  8.7831080251
H   8.3153504820 -3.0704621420  6.8691080251
H   8.7673504820 -3.1164621420  4.7201080251
H   8.4343504820 -4.2384621420  2.4681080251
H   4.6613504820 -1.9424621420  5.8721080251
H   5.2313504820 -4.8094621420  1.0981080251
H   2.9253504820 -3.4834621420  3.3381080251
H   3.6713504820 -3.3714621420  1.8031080251
H   2.7723504820 -5.4854621420  1.6231080251
H   2.6133504820 -8.3324621420  3.6481080251
H   4.0463504820 -8.3024621420  2.5891080251
H   2.3333504820 -7.7434621420  2.0741080251
H   5.2693504820 -6.7834621420  4.8001080251
H   3.6413504820 -6.7784621420  5.4181080251
H   4.2893504820 -5.2914621420  5.0691080251
84
Scanning combination 47/256: [2.8000, 2.9000]  Energy = -385.9811683889
O   11.1233000000 -4.8002000000  5.0341000000
O   11.3873000000 -0.2652000000  3.3291000000
O   18.1143000000 -4.2382000000 -2.5629000000
O   15.0523000000 -3.1142000000  0.9841000000
C   13.0053000000 -3.3232000000  2.3291000000
C   12.6993000000 -1.9792000000  2.4491000000
C   12.3973000000 -4.3072000000  3.1831000000
C   11.6323000000 -1.5992000000  3.2951000000
C   11.4783000000 -3.8632000000  4.1231000000
C   11.0613000000 -2.4802000000  4.2331000000
C   10.1223000000 -1.9712000000  5.2561000000
C   10.5373000000 -1.3232000000  6.3251000000
C   9.8643000000 -1.0622000000  7.5921000000
C   8.6825000000 -1.0450000000  7.8959000000
C   10.8123000000 -0.2992000000  8.5731000000
C   14.6833000000 -4.8512000000 -0.4449000000
C   15.5183000000 -3.8012000000 -0.0889000000
C   16.6953000000 -3.5982000000 -0.8399000000
C   16.9703000000 -4.4882000000 -1.8899000000
C   16.1523000000 -5.5962000000 -2.2009000000
C   14.9513000000 -5.7522000000 -1.5279000000
C   13.6583000000 -4.8752000000  0.4711000000
C   13.8893000000 -3.7772000000  1.2511000000
H   13.1623000000 -1.2452000000  1.7971000000
H   12.5583000000 -5.3772000000  3.0881000000
H   11.7383000000 -5.5442000000  4.9131000000
H   11.8513000000  0.1658000000  2.5901000000
H   9.4643000000 -1.3292000000  4.6731000000
H   11.4933000000 -0.8182000000  6.2071000000
H   7.9073000000 -0.9712000000  7.1161000000
H   8.2313000000 -0.9072000000  8.8131000000
H   11.1183000000  0.6778000000  8.1811000000
H   11.7213000000 -0.7962000000  8.9311000000
H   10.3263000000 -0.0742000000  9.5301000000
H   17.3553000000 -2.7642000000 -0.6209000000
H   16.3753000000 -6.3042000000 -2.9929000000
H   14.4873000000 -6.7332000000 -1.5779000000
H   12.8783000000 -5.6272000000  0.4831000000
H   18.2613000000 -4.9422000000 -3.2189000000
C   9.6622913840 -5.3505986440  10.5325830697
O   11.9932913840 -5.7025986440  11.0205830697
C   11.0202913840 -5.2805986440  10.1745830697
O   7.4392913840 -4.8345986440  10.0605830697
C   11.4782913840 -4.6085986440  8.9945830697
O   6.1912913840 -2.8785986440  5.8605830697
C   10.4992913840 -4.1295986440  8.1375830697
O   4.4882913840 -4.1145986440  4.2935830697
C   9.1122913840 -4.2395986440  8.4045830697
O   6.4022913840 -6.3945986440  0.4735830697
C   8.7162913840 -4.8175986440  9.6235830697
C   7.9400913840 -3.8337986440  7.6108830697
C   8.2792913840 -3.7995986440  6.2535830697
C   7.0542913840 -3.6145986440  5.4755830697
C   6.8882913840 -4.3955986440  4.1665830697
C   8.0122913840 -4.9245986440  3.4745830697
C   5.5802913840 -4.5385986440  3.5965830697
C   7.8382913840 -5.6845986440  2.3055830697
C   5.4162913840 -5.2955986440  2.4035830697
C   6.5762913840 -5.7225986440  1.7175830697
C   4.0202913840 -5.6245986440  1.9865830697
C   3.6352913840 -7.0705986440  1.6975830697
C   3.8132913840 -8.1695986440  2.5025830697
C   3.3452913840 -9.5465986440  2.0515830697
C   4.5182913840 -8.0765986440  3.8735830697
H   9.2972913840 -5.6105986440  11.5215830697
H   12.5512913840 -4.4705986440  8.8995830697
H   10.8092913840 -3.6845986440  7.1965830697
H   11.5302913840 -6.1405986440  11.7555830697
H   7.3852913840 -5.4205986440  10.8355830697
H   7.0482913840 -3.7845986440  7.9915830697
H   8.5452913840 -4.8355986440  6.0775830697
H   8.9972913840 -4.8815986440  3.9285830697
H   8.6642913840 -6.0035986440  1.6765830697
H   4.8912913840 -3.7075986440  5.0805830697
H   5.4612913840 -6.5745986440  0.3065830697
H   3.1552913840 -5.2485986440  2.5465830697
H   3.9012913840 -5.1365986440  1.0115830697
H   3.0022913840 -7.2505986440  0.8315830697
H   2.8432913840 -10.0975986440  2.8565830697
H   4.2762913840 -10.0675986440  1.7975830697
H   2.5632913840 -9.5085986440  1.2825830697
H   5.4992913840 -8.5485986440  4.0085830697
H   3.8712913840 -8.5435986440  4.6265830697
H   4.5192913840 -7.0565986440  4.2775830697
84
Scanning combination 48/256: [2.8000, 2.8000]  Energy = -385.9762126204
O   11.1233000000 -4.8002000000  5.0341000000
O   11.3873000000 -0.2652000000  3.3291000000
O   18.1143000000 -4.2382000000 -2.5629000000
O   15.0523000000 -3.1142000000  0.9841000000
C   13.0053000000 -3.3232000000  2.3291000000
C   12.6993000000 -1.9792000000  2.4491000000
C   12.3973000000 -4.3072000000  3.1831000000
C   11.6323000000 -1.5992000000  3.2951000000
C   11.4783000000 -3.8632000000  4.1231000000
C   11.0613000000 -2.4802000000  4.2331000000
C   10.1223000000 -1.9712000000  5.2561000000
C   10.5373000000 -1.3232000000  6.3251000000
C   9.8643000000 -1.0622000000  7.5921000000
C   8.6825000000 -1.0450000000  7.8959000000
C   10.8123000000 -0.2992000000  8.5731000000
C   14.6833000000 -4.8512000000 -0.4449000000
C   15.5183000000 -3.8012000000 -0.0889000000
C   16.6953000000 -3.5982000000 -0.8399000000
C   16.9703000000 -4.4882000000 -1.8899000000
C   16.1523000000 -5.5962000000 -2.2009000000
C   14.9513000000 -5.7522000000 -1.5279000000
C   13.6583000000 -4.8752000000  0.4711000000
C   13.8893000000 -3.7772000000  1.2511000000
H   13.1623000000 -1.2452000000  1.7971000000
H   12.5583000000 -5.3772000000  3.0881000000
H   11.7383000000 -5.5442000000  4.9131000000
H   11.8513000000  0.1658000000  2.5901000000
H   9.4643000000 -1.3292000000  4.6731000000
H   11.4933000000 -0.8182000000  6.2071000000
H   7.9073000000 -0.9712000000  7.1161000000
H   8.2313000000 -0.9072000000  8.8131000000
H   11.1183000000  0.6778000000  8.1811000000
H   11.7213000000 -0.7962000000  8.9311000000
H   10.3263000000 -0.0742000000  9.5301000000
H   17.3553000000 -2.7642000000 -0.6209000000
H   16.3753000000 -6.3042000000 -2.9929000000
H   14.4873000000 -6.7332000000 -1.5779000000
H   12.8783000000 -5.6272000000  0.4831000000
H   18.2613000000 -4.9422000000 -3.2189000000
C   9.6794246769 -5.2529587519  10.5502983946
O   12.0104246769 -5.6049587519  11.0382983946
C   11.0374246769 -5.1829587519  10.1922983946
O   7.4564246769 -4.7369587519  10.0782983946
C   11.4954246769 -4.5109587519  9.0122983946
O   6.2084246769 -2.7809587519  5.8782983946
C   10.5164246769 -4.0319587519  8.1552983946
O   4.5054246769 -4.0169587519  4.3112983946
C   9.1294246769 -4.1419587519  8.4222983946
O   6.4194246769 -6.2969587519  0.4912983946
C   8.7334246769 -4.7199587519  9.6412983946
C   7.9572246769 -3.7361587519  7.6285983946
C   8.2964246769 -3.7019587519  6.2712983946
C   7.0714246769 -3.5169587519  5.4932983946
C   6.9054246769 -4.2979587519  4.1842983946
C   8.0294246769 -4.8269587519  3.4922983946
C   5.5974246769 -4.4409587519  3.6142983946
C   7.8554246769 -5.5869587519  2.3232983946
C   5.4334246769 -5.1979587519  2.4212983946
C   6.5934246769 -5.6249587519  1.7352983946
C   4.0374246769 -5.5269587519  2.0042983946
C   3.6524246769 -6.9729587519  1.7152983946
C   3.8304246769 -8.0719587519  2.5202983946
C   3.3624246769 -9.4489587519  2.0692983946
C   4.5354246769 -7.9789587519  3.8912983946
H   9.3144246769 -5.5129587519  11.5392983946
H   12.5684246769 -4.3729587519  8.9172983946
H   10.8264246769 -3.5869587519  7.2142983946
H   11.5474246769 -6.0429587519  11.7732983946
H   7.4024246769 -5.3229587519  10.8532983946
H   7.0654246769 -3.6869587519  8.0092983946
H   8.5624246769 -4.7379587519  6.0952983946
H   9.0144246769 -4.7839587519  3.9462983946
H   8.6814246769 -5.9059587519  1.6942983946
H   4.9084246769 -3.6099587519  5.0982983946
H   5.4784246769 -6.4769587519  0.3242983946
H   3.1724246769 -5.1509587519  2.5642983946
H   3.9184246769 -5.0389587519  1.0292983946
H   3.0194246769 -7.1529587519  0.8492983946
H   2.8604246769 -9.9999587519  2.8742983946
H   4.2934246769 -9.9699587519  1.8152983946
H   2.5804246769 -9.4109587519  1.3002983946
H   5.5164246769 -8.4509587519  4.0262983946
H   3.8884246769 -8.4459587519  4.6442983946
H   4.5364246769 -6.9589587519  4.2952983946
84
Scanning combination 49/256: [2.8000, 2.7000]  Energy = -385.9703892466
O   11.1233000000 -4.8002000000  5.0341000000
O   11.3873000000 -0.2652000000  3.3291000000
O   18.1143000000 -4.2382000000 -2.5629000000
O   15.0523000000 -3.1142000000  0.9841000000
C   13.0053000000 -3.3232000000  2.3291000000
C   12.6993000000 -1.9792000000  2.4491000000
C   12.3973000000 -4.3072000000  3.1831000000
C   11.6323000000 -1.5992000000  3.2951000000
C   11.4783000000 -3.8632000000  4.1231000000
C   11.0613000000 -2.4802000000  4.2331000000
C   10.1223000000 -1.9712000000  5.2561000000
C   10.5373000000 -1.3232000000  6.3251000000
C   9.8643000000 -1.0622000000  7.5921000000
C   8.6825000000 -1.0450000000  7.8959000000
C   10.8123000000 -0.2992000000  8.5731000000
C   14.6833000000 -4.8512000000 -0.4449000000
C   15.5183000000 -3.8012000000 -0.0889000000
C   16.6953000000 -3.5982000000 -0.8399000000
C   16.9703000000 -4.4882000000 -1.8899000000
C   16.1523000000 -5.5962000000 -2.2009000000
C   14.9513000000 -5.7522000000 -1.5279000000
C   13.6583000000 -4.8752000000  0.4711000000
C   13.8893000000 -3.7772000000  1.2511000000
H   13.1623000000 -1.2452000000  1.7971000000
H   12.5583000000 -5.3772000000  3.0881000000
H   11.7383000000 -5.5442000000  4.9131000000
H   11.8513000000  0.1658000000  2.5901000000
H   9.4643000000 -1.3292000000  4.6731000000
H   11.4933000000 -0.8182000000  6.2071000000
H   7.9073000000 -0.9712000000  7.1161000000
H   8.2313000000 -0.9072000000  8.8131000000
H   11.1183000000  0.6778000000  8.1811000000
H   11.7213000000 -0.7962000000  8.9311000000
H   10.3263000000 -0.0742000000  9.5301000000
H   17.3553000000 -2.7642000000 -0.6209000000
H   16.3753000000 -6.3042000000 -2.9929000000
H   14.4873000000 -6.7332000000 -1.5779000000
H   12.8783000000 -5.6272000000  0.4831000000
H   18.2613000000 -4.9422000000 -3.2189000000
C   9.6662160840 -5.1493802551  10.5964968789
O   11.9972160840 -5.5013802551  11.0844968789
C   11.0242160840 -5.0793802551  10.2384968789
O   7.4432160840 -4.6333802551  10.1244968789
C   11.4822160840 -4.4073802551  9.0584968789
O   6.1952160840 -2.6773802551  5.9244968789
C   10.5032160840 -3.9283802551  8.2014968789
O   4.4922160840 -3.9133802551  4.3574968789
C   9.1162160840 -4.0383802551  8.4684968789
O   6.4062160840 -6.1933802551  0.5374968789
C   8.7202160840 -4.6163802551  9.6874968789
C   7.9440160840 -3.6325802551  7.6747968789
C   8.2832160840 -3.5983802551  6.3174968789
C   7.0582160840 -3.4133802551  5.5394968789
C   6.8922160840 -4.1943802551  4.2304968789
C   8.0162160840 -4.7233802551  3.5384968789
C   5.5842160840 -4.3373802551  3.6604968789
C   7.8422160840 -5.4833802551  2.3694968789
C   5.4202160840 -5.0943802551  2.4674968789
C   6.5802160840 -5.5213802551  1.7814968789
C   4.0242160840 -5.4233802551  2.0504968789
C   3.6392160840 -6.8693802551  1.7614968789
C   3.8172160840 -7.9683802551  2.5664968789
C   3.3492160840 -9.3453802551  2.1154968789
C   4.5222160840 -7.8753802551  3.9374968789
H   9.3012160840 -5.4093802551  11.5854968789
H   12.5552160840 -4.2693802551  8.9634968789
H   10.8132160840 -3.4833802551  7.2604968789
H   11.5342160840 -5.9393802551  11.8194968789
H   7.3892160840 -5.2193802551  10.8994968789
H   7.0522160840 -3.5833802551  8.0554968789
H   8.5492160840 -4.6343802551  6.1414968789
H   9.0012160840 -4.6803802551  3.9924968789
H   8.6682160840 -5.8023802551  1.7404968789
H   4.8952160840 -3.5063802551  5.1444968789
H   5.4652160840 -6.3733802551  0.3704968789
H   3.1592160840 -5.0473802551  2.6104968789
H   3.9052160840 -4.9353802551  1.0754968789
H   3.0062160840 -7.0493802551  0.8954968789
H   2.8472160840 -9.8963802551  2.9204968789
H   4.2802160840 -9.8663802551  1.8614968789
H   2.5672160840 -9.3073802551  1.3464968789
H   5.5032160840 -8.3473802551  4.0724968789
H   3.8752160840 -8.3423802551  4.6904968789
H   4.5232160840 -6.8553802551  4.3414968789
84
Scanning combination 50/256: [2.8000, 2.6000]  Energy = -385.9629989859
O   11.1233000000 -4.8002000000  5.0341000000
O   11.3873000000 -0.2652000000  3.3291000000
O   18.1143000000 -4.2382000000 -2.5629000000
O   15.0523000000 -3.1142000000  0.9841000000
C   13.0053000000 -3.3232000000  2.3291000000
C   12.6993000000 -1.9792000000  2.4491000000
C   12.3973000000 -4.3072000000  3.1831000000
C   11.6323000000 -1.5992000000  3.2951000000
C   11.4783000000 -3.8632000000  4.1231000000
C   11.0613000000 -2.4802000000  4.2331000000
C   10.1223000000 -1.9712000000  5.2561000000
C   10.5373000000 -1.3232000000  6.3251000000
C   9.8643000000 -1.0622000000  7.5921000000
C   8.6825000000 -1.0450000000  7.8959000000
C   10.8123000000 -0.2992000000  8.5731000000
C   14.6833000000 -4.8512000000 -0.4449000000
C   15.5183000000 -3.8012000000 -0.0889000000
C   16.6953000000 -3.5982000000 -0.8399000000
C   16.9703000000 -4.4882000000 -1.8899000000
C   16.1523000000 -5.5962000000 -2.2009000000
C   14.9513000000 -5.7522000000 -1.5279000000
C   13.6583000000 -4.8752000000  0.4711000000
C   13.8893000000 -3.7772000000  1.2511000000
H   13.1623000000 -1.2452000000  1.7971000000
H   12.5583000000 -5.3772000000  3.0881000000
H   11.7383000000 -5.5442000000  4.9131000000
H   11.8513000000  0.1658000000  2.5901000000
H   9.4643000000 -1.3292000000  4.6731000000
H   11.4933000000 -0.8182000000  6.2071000000
H   7.9073000000 -0.9712000000  7.1161000000
H   8.2313000000 -0.9072000000  8.8131000000
H   11.1183000000  0.6778000000  8.1811000000
H   11.7213000000 -0.7962000000  8.9311000000
H   10.3263000000 -0.0742000000  9.5301000000
H   17.3553000000 -2.7642000000 -0.6209000000
H   16.3753000000 -6.3042000000 -2.9929000000
H   14.4873000000 -6.7332000000 -1.5779000000
H   12.8783000000 -5.6272000000  0.4831000000
H   18.2613000000 -4.9422000000 -3.2189000000
C   9.6374647346 -5.0408477331  10.6579258449
O   11.9684647346 -5.3928477331  11.1459258449
C   10.9954647346 -4.9708477331  10.2999258449
O   7.4144647346 -4.5248477331  10.1859258449
C   11.4534647346 -4.2988477331  9.1199258449
O   6.1664647346 -2.5688477331  5.9859258449
C   10.4744647346 -3.8198477331  8.2629258449
O   4.4634647346 -3.8048477331  4.4189258449
C   9.0874647346 -3.9298477331  8.5299258449
O   6.3774647346 -6.0848477331  0.5989258449
C   8.6914647346 -4.5078477331  9.7489258449
C   7.9152647346 -3.5240477331  7.7362258449
C   8.2544647346 -3.4898477331  6.3789258449
C   7.0294647346 -3.3048477331  5.6009258449
C   6.8634647346 -4.0858477331  4.2919258449
C   7.9874647346 -4.6148477331  3.5999258449
C   5.5554647346 -4.2288477331  3.7219258449
C   7.8134647346 -5.3748477331  2.4309258449
C   5.3914647346 -4.9858477331  2.5289258449
C   6.5514647346 -5.4128477331  1.8429258449
C   3.9954647346 -5.3148477331  2.1119258449
C   3.6104647346 -6.7608477331  1.8229258449
C   3.7884647346 -7.8598477331  2.6279258449
C   3.3204647346 -9.2368477331  2.1769258449
C   4.4934647346 -7.7668477331  3.9989258449
H   9.2724647346 -5.3008477331  11.6469258449
H   12.5264647346 -4.1608477331  9.0249258449
H   10.7844647346 -3.3748477331  7.3219258449
H   11.5054647346 -5.8308477331  11.8809258449
H   7.3604647346 -5.1108477331  10.9609258449
H   7.0234647346 -3.4748477331  8.1169258449
H   8.5204647346 -4.5258477331  6.2029258449
H   8.9724647346 -4.5718477331  4.0539258449
H   8.6394647346 -5.6938477331  1.8019258449
H   4.8664647346 -3.3978477331  5.2059258449
H   5.4364647346 -6.2648477331  0.4319258449
H   3.1304647346 -4.9388477331  2.6719258449
H   3.8764647346 -4.8268477331  1.1369258449
H   2.9774647346 -6.9408477331  0.9569258449
H   2.8184647346 -9.7878477331  2.9819258449
H   4.2514647346 -9.7578477331  1.9229258449
H   2.5384647346 -9.1988477331  1.4079258449
H   5.4744647346 -8.2388477331  4.1339258449
H   3.8464647346 -8.2338477331  4.7519258449
H   4.4944647346 -6.7468477331  4.4029258449
84
Scanning combination 51/256: [2.8000, 2.5000]  Energy = -385.9537392851
O   11.1233000000 -4.8002000000  5.0341000000
O   11.3873000000 -0.2652000000  3.3291000000
O   18.1143000000 -4.2382000000 -2.5629000000
O   15.0523000000 -3.1142000000  0.9841000000
C   13.0053000000 -3.3232000000  2.3291000000
C   12.6993000000 -1.9792000000  2.4491000000
C   12.3973000000 -4.3072000000  3.1831000000
C   11.6323000000 -1.5992000000  3.2951000000
C   11.4783000000 -3.8632000000  4.1231000000
C   11.0613000000 -2.4802000000  4.2331000000
C   10.1223000000 -1.9712000000  5.2561000000
C   10.5373000000 -1.3232000000  6.3251000000
C   9.8643000000 -1.0622000000  7.5921000000
C   8.6825000000 -1.0450000000  7.8959000000
C   10.8123000000 -0.2992000000  8.5731000000
C   14.6833000000 -4.8512000000 -0.4449000000
C   15.5183000000 -3.8012000000 -0.0889000000
C   16.6953000000 -3.5982000000 -0.8399000000
C   16.9703000000 -4.4882000000 -1.8899000000
C   16.1523000000 -5.5962000000 -2.2009000000
C   14.9513000000 -5.7522000000 -1.5279000000
C   13.6583000000 -4.8752000000  0.4711000000
C   13.8893000000 -3.7772000000  1.2511000000
H   13.1623000000 -1.2452000000  1.7971000000
H   12.5583000000 -5.3772000000  3.0881000000
H   11.7383000000 -5.5442000000  4.9131000000
H   11.8513000000  0.1658000000  2.5901000000
H   9.4643000000 -1.3292000000  4.6731000000
H   11.4933000000 -0.8182000000  6.2071000000
H   7.9073000000 -0.9712000000  7.1161000000
H   8.2313000000 -0.9072000000  8.8131000000
H   11.1183000000  0.6778000000  8.1811000000
H   11.7213000000 -0.7962000000  8.9311000000
H   10.3263000000 -0.0742000000  9.5301000000
H   17.3553000000 -2.7642000000 -0.6209000000
H   16.3753000000 -6.3042000000 -2.9929000000
H   14.4873000000 -6.7332000000 -1.5779000000
H   12.8783000000 -5.6272000000  0.4831000000
H   18.2613000000 -4.9422000000 -3.2189000000
C   9.6025599612 -4.9278206176  10.7262324076
O   11.9335599612 -5.2798206176  11.2142324076
C   10.9605599612 -4.8578206176  10.3682324076
O   7.3795599612 -4.4118206176  10.2542324076
C   11.4185599612 -4.1858206176  9.1882324076
O   6.1315599612 -2.4558206176  6.0542324076
C   10.4395599612 -3.7068206176  8.3312324076
O   4.4285599612 -3.6918206176  4.4872324076
C   9.0525599612 -3.8168206176  8.5982324076
O   6.3425599612 -5.9718206176  0.6672324076
C   8.6565599612 -4.3948206176  9.8172324076
C   7.8803599612 -3.4110206176  7.8045324076
C   8.2195599612 -3.3768206176  6.4472324076
C   6.9945599612 -3.1918206176  5.6692324076
C   6.8285599612 -3.9728206176  4.3602324076
C   7.9525599612 -4.5018206176  3.6682324076
C   5.5205599612 -4.1158206176  3.7902324076
C   7.7785599612 -5.2618206176  2.4992324076
C   5.3565599612 -4.8728206176  2.5972324076
C   6.5165599612 -5.2998206176  1.9112324076
C   3.9605599612 -5.2018206176  2.1802324076
C   3.5755599612 -6.6478206176  1.8912324076
C   3.7535599612 -7.7468206176  2.6962324076
C   3.2855599612 -9.1238206176  2.2452324076
C   4.4585599612 -7.6538206176  4.0672324076
H   9.2375599612 -5.1878206176  11.7152324076
H   12.4915599612 -4.0478206176  9.0932324076
H   10.7495599612 -3.2618206176  7.3902324076
H   11.4705599612 -5.7178206176  11.9492324076
H   7.3255599612 -4.9978206176  11.0292324076
H   6.9885599612 -3.3618206176  8.1852324076
H   8.4855599612 -4.4128206176  6.2712324076
H   8.9375599612 -4.4588206176  4.1222324076
H   8.6045599612 -5.5808206176  1.8702324076
H   4.8315599612 -3.2848206176  5.2742324076
H   5.4015599612 -6.1518206176  0.5002324076
H   3.0955599612 -4.8258206176  2.7402324076
H   3.8415599612 -4.7138206176  1.2052324076
H   2.9425599612 -6.8278206176  1.0252324076
H   2.7835599612 -9.6748206176  3.0502324076
H   4.2165599612 -9.6448206176  1.9912324076
H   2.5035599612 -9.0858206176  1.4762324076
H   5.4395599612 -8.1258206176  4.2022324076
H   3.8115599612 -8.1208206176  4.8202324076
H   4.4595599612 -6.6338206176  4.4712324076
84
Scanning combination 52/256: [2.8000, 2.4000]  Energy = -385.9426311251
O   11.1233000000 -4.8002000000  5.0341000000
O   11.3873000000 -0.2652000000  3.3291000000
O   18.1143000000 -4.2382000000 -2.5629000000
O   15.0523000000 -3.1142000000  0.9841000000
C   13.0053000000 -3.3232000000  2.3291000000
C   12.6993000000 -1.9792000000  2.4491000000
C   12.3973000000 -4.3072000000  3.1831000000
C   11.6323000000 -1.5992000000  3.2951000000
C   11.4783000000 -3.8632000000  4.1231000000
C   11.0613000000 -2.4802000000  4.2331000000
C   10.1223000000 -1.9712000000  5.2561000000
C   10.5373000000 -1.3232000000  6.3251000000
C   9.8643000000 -1.0622000000  7.5921000000
C   8.6825000000 -1.0450000000  7.8959000000
C   10.8123000000 -0.2992000000  8.5731000000
C   14.6833000000 -4.8512000000 -0.4449000000
C   15.5183000000 -3.8012000000 -0.0889000000
C   16.6953000000 -3.5982000000 -0.8399000000
C   16.9703000000 -4.4882000000 -1.8899000000
C   16.1523000000 -5.5962000000 -2.2009000000
C   14.9513000000 -5.7522000000 -1.5279000000
C   13.6583000000 -4.8752000000  0.4711000000
C   13.8893000000 -3.7772000000  1.2511000000
H   13.1623000000 -1.2452000000  1.7971000000
H   12.5583000000 -5.3772000000  3.0881000000
H   11.7383000000 -5.5442000000  4.9131000000
H   11.8513000000  0.1658000000  2.5901000000
H   9.4643000000 -1.3292000000  4.6731000000
H   11.4933000000 -0.8182000000  6.2071000000
H   7.9073000000 -0.9712000000  7.1161000000
H   8.2313000000 -0.9072000000  8.8131000000
H   11.1183000000  0.6778000000  8.1811000000
H   11.7213000000 -0.7962000000  8.9311000000
H   10.3263000000 -0.0742000000  9.5301000000
H   17.3553000000 -2.7642000000 -0.6209000000
H   16.3753000000 -6.3042000000 -2.9929000000
H   14.4873000000 -6.7332000000 -1.5779000000
H   12.8783000000 -5.6272000000  0.4831000000
H   18.2613000000 -4.9422000000 -3.2189000000
C   9.5672511294 -4.8108130026  10.7962239488
O   11.8982511294 -5.1628130026  11.2842239488
C   10.9252511294 -4.7408130026  10.4382239488
O   7.3442511294 -4.2948130026  10.3242239488
C   11.3832511294 -4.0688130026  9.2582239488
O   6.0962511294 -2.3388130026  6.1242239488
C   10.4042511294 -3.5898130026  8.4012239488
O   4.3932511294 -3.5748130026  4.5572239488
C   9.0172511294 -3.6998130026  8.6682239488
O   6.3072511294 -5.8548130026  0.7372239488
C   8.6212511294 -4.2778130026  9.8872239488
C   7.8450511294 -3.2940130026  7.8745239488
C   8.1842511294 -3.2598130026  6.5172239488
C   6.9592511294 -3.0748130026  5.7392239488
C   6.7932511294 -3.8558130026  4.4302239488
C   7.9172511294 -4.3848130026  3.7382239488
C   5.4852511294 -3.9988130026  3.8602239488
C   7.7432511294 -5.1448130026  2.5692239488
C   5.3212511294 -4.7558130026  2.6672239488
C   6.4812511294 -5.1828130026  1.9812239488
C   3.9252511294 -5.0848130026  2.2502239488
C   3.5402511294 -6.5308130026  1.9612239488
C   3.7182511294 -7.6298130026  2.7662239488
C   3.2502511294 -9.0068130026  2.3152239488
C   4.4232511294 -7.5368130026  4.1372239488
H   9.2022511294 -5.0708130026  11.7852239488
H   12.4562511294 -3.9308130026  9.1632239488
H   10.7142511294 -3.1448130026  7.4602239488
H   11.4352511294 -5.6008130026  12.0192239488
H   7.2902511294 -4.8808130026  11.0992239488
H   6.9532511294 -3.2448130026  8.2552239488
H   8.4502511294 -4.2958130026  6.3412239488
H   8.9022511294 -4.3418130026  4.1922239488
H   8.5692511294 -5.4638130026  1.9402239488
H   4.7962511294 -3.1678130026  5.3442239488
H   5.3662511294 -6.0348130026  0.5702239488
H   3.0602511294 -4.7088130026  2.8102239488
H   3.8062511294 -4.5968130026  1.2752239488
H   2.9072511294 -6.7108130026  1.0952239488
H   2.7482511294 -9.5578130026  3.1202239488
H   4.1812511294 -9.5278130026  2.0612239488
H   2.4682511294 -8.9688130026  1.5462239488
H   5.4042511294 -8.0088130026  4.2722239488
H   3.7762511294 -8.0038130026  4.8902239488
H   4.4242511294 -6.5168130026  4.5412239488
84
Scanning combination 53/256: [2.8000, 2.3000]  Energy = -385.9282876249
O   11.1233000000 -4.8002000000  5.0341000000
O   11.3873000000 -0.2652000000  3.3291000000
O   18.1143000000 -4.2382000000 -2.5629000000
O   15.0523000000 -3.1142000000  0.9841000000
C   13.0053000000 -3.3232000000  2.3291000000
C   12.6993000000 -1.9792000000  2.4491000000
C   12.3973000000 -4.3072000000  3.1831000000
C   11.6323000000 -1.5992000000  3.2951000000
C   11.4783000000 -3.8632000000  4.1231000000
C   11.0613000000 -2.4802000000  4.2331000000
C   10.1223000000 -1.9712000000  5.2561000000
C   10.5373000000 -1.3232000000  6.3251000000
C   9.8643000000 -1.0622000000  7.5921000000
C   8.6825000000 -1.0450000000  7.8959000000
C   10.8123000000 -0.2992000000  8.5731000000
C   14.6833000000 -4.8512000000 -0.4449000000
C   15.5183000000 -3.8012000000 -0.0889000000
C   16.6953000000 -3.5982000000 -0.8399000000
C   16.9703000000 -4.4882000000 -1.8899000000
C   16.1523000000 -5.5962000000 -2.2009000000
C   14.9513000000 -5.7522000000 -1.5279000000
C   13.6583000000 -4.8752000000  0.4711000000
C   13.8893000000 -3.7772000000  1.2511000000
H   13.1623000000 -1.2452000000  1.7971000000
H   12.5583000000 -5.3772000000  3.0881000000
H   11.7383000000 -5.5442000000  4.9131000000
H   11.8513000000  0.1658000000  2.5901000000
H   9.4643000000 -1.3292000000  4.6731000000
H   11.4933000000 -0.8182000000  6.2071000000
H   7.9073000000 -0.9712000000  7.1161000000
H   8.2313000000 -0.9072000000  8.8131000000
H   11.1183000000  0.6778000000  8.1811000000
H   11.7213000000 -0.7962000000  8.9311000000
H   10.3263000000 -0.0742000000  9.5301000000
H   17.3553000000 -2.7642000000 -0.6209000000
H   16.3753000000 -6.3042000000 -2.9929000000
H   14.4873000000 -6.7332000000 -1.5779000000
H   12.8783000000 -5.6272000000  0.4831000000
H   18.2613000000 -4.9422000000 -3.2189000000
C   9.5348795146 -4.6904215978  10.8647830387
O   11.8658795146 -5.0424215978  11.3527830387
C   10.8928795146 -4.6204215978  10.5067830387
O   7.3118795146 -4.1744215978  10.3927830387
C   11.3508795146 -3.9484215978  9.3267830387
O   6.0638795146 -2.2184215978  6.1927830387
C   10.3718795146 -3.4694215978  8.4697830387
O   4.3608795146 -3.4544215978  4.6257830387
C   8.9848795146 -3.5794215978  8.7367830387
O   6.2748795146 -5.7344215978  0.8057830387
C   8.5888795146 -4.1574215978  9.9557830387
C   7.8126795146 -3.1736215978  7.9430830387
C   8.1518795146 -3.1394215978  6.5857830387
C   6.9268795146 -2.9544215978  5.8077830387
C   6.7608795146 -3.7354215978  4.4987830387
C   7.8848795146 -4.2644215978  3.8067830387
C   5.4528795146 -3.8784215978  3.9287830387
C   7.7108795146 -5.0244215978  2.6377830387
C   5.2888795146 -4.6354215978  2.7357830387
C   6.4488795146 -5.0624215978  2.0497830387
C   3.8928795146 -4.9644215978  2.3187830387
C   3.5078795146 -6.4104215978  2.0297830387
C   3.6858795146 -7.5094215978  2.8347830387
C   3.2178795146 -8.8864215978  2.3837830387
C   4.3908795146 -7.4164215978  4.2057830387
H   9.1698795146 -4.9504215978  11.8537830387
H   12.4238795146 -3.8104215978  9.2317830387
H   10.6818795146 -3.0244215978  7.5287830387
H   11.4028795146 -5.4804215978  12.0877830387
H   7.2578795146 -4.7604215978  11.1677830387
H   6.9208795146 -3.1244215978  8.3237830387
H   8.4178795146 -4.1754215978  6.4097830387
H   8.8698795146 -4.2214215978  4.2607830387
H   8.5368795146 -5.3434215978  2.0087830387
H   4.7638795146 -3.0474215978  5.4127830387
H   5.3338795146 -5.9144215978  0.6387830387
H   3.0278795146 -4.5884215978  2.8787830387
H   3.7738795146 -4.4764215978  1.3437830387
H   2.8748795146 -6.5904215978  1.1637830387
H   2.7158795146 -9.4374215978  3.1887830387
H   4.1488795146 -9.4074215978  2.1297830387
H   2.4358795146 -8.8484215978  1.6147830387
H   5.3718795146 -7.8884215978  4.3407830387
H   3.7438795146 -7.8834215978  4.9587830387
H   4.3918795146 -6.3964215978  4.6097830387
84
Scanning combination 54/256: [2.8000, 2.2000]  Energy = -385.9085353609
O   11.1233000000 -4.8002000000  5.0341000000
O   11.3873000000 -0.2652000000  3.3291000000
O   18.1143000000 -4.2382000000 -2.5629000000
O   15.0523000000 -3.1142000000  0.9841000000
C   13.0053000000 -3.3232000000  2.3291000000
C   12.6993000000 -1.9792000000  2.4491000000
C   12.3973000000 -4.3072000000  3.1831000000
C   11.6323000000 -1.5992000000  3.2951000000
C   11.4783000000 -3.8632000000  4.1231000000
C   11.0613000000 -2.4802000000  4.2331000000
C   10.1223000000 -1.9712000000  5.2561000000
C   10.5373000000 -1.3232000000  6.3251000000
C   9.8643000000 -1.0622000000  7.5921000000
C   8.6825000000 -1.0450000000  7.8959000000
C   10.8123000000 -0.2992000000  8.5731000000
C   14.6833000000 -4.8512000000 -0.4449000000
C   15.5183000000 -3.8012000000 -0.0889000000
C   16.6953000000 -3.5982000000 -0.8399000000
C   16.9703000000 -4.4882000000 -1.8899000000
C   16.1523000000 -5.5962000000 -2.2009000000
C   14.9513000000 -5.7522000000 -1.5279000000
C   13.6583000000 -4.8752000000  0.4711000000
C   13.8893000000 -3.7772000000  1.2511000000
H   13.1623000000 -1.2452000000  1.7971000000
H   12.5583000000 -5.3772000000  3.0881000000
H   11.7383000000 -5.5442000000  4.9131000000
H   11.8513000000  0.1658000000  2.5901000000
H   9.4643000000 -1.3292000000  4.6731000000
H   11.4933000000 -0.8182000000  6.2071000000
H   7.9073000000 -0.9712000000  7.1161000000
H   8.2313000000 -0.9072000000  8.8131000000
H   11.1183000000  0.6778000000  8.1811000000
H   11.7213000000 -0.7962000000  8.9311000000
H   10.3263000000 -0.0742000000  9.5301000000
H   17.3553000000 -2.7642000000 -0.6209000000
H   16.3753000000 -6.3042000000 -2.9929000000
H   14.4873000000 -6.7332000000 -1.5779000000
H   12.8783000000 -5.6272000000  0.4831000000
H   18.2613000000 -4.9422000000 -3.2189000000
C   9.5072601041 -4.5672401343  10.9301260585
O   11.8382601041 -4.9192401343  11.4181260585
C   10.8652601041 -4.4972401343  10.5721260585
O   7.2842601041 -4.0512401343  10.4581260585
C   11.3232601041 -3.8252401343  9.3921260585
O   6.0362601041 -2.0952401343  6.2581260585
C   10.3442601041 -3.3462401343  8.5351260585
O   4.3332601041 -3.3312401343  4.6911260585
C   8.9572601041 -3.4562401343  8.8021260585
O   6.2472601041 -5.6112401343  0.8711260585
C   8.5612601041 -4.0342401343  10.0211260585
C   7.7850601041 -3.0504401343  8.0084260585
C   8.1242601041 -3.0162401343  6.6511260585
C   6.8992601041 -2.8312401343  5.8731260585
C   6.7332601041 -3.6122401343  4.5641260585
C   7.8572601041 -4.1412401343  3.8721260585
C   5.4252601041 -3.7552401343  3.9941260585
C   7.6832601041 -4.9012401343  2.7031260585
C   5.2612601041 -4.5122401343  2.8011260585
C   6.4212601041 -4.9392401343  2.1151260585
C   3.8652601041 -4.8412401343  2.3841260585
C   3.4802601041 -6.2872401343  2.0951260585
C   3.6582601041 -7.3862401343  2.9001260585
C   3.1902601041 -8.7632401343  2.4491260585
C   4.3632601041 -7.2932401343  4.2711260585
H   9.1422601041 -4.8272401343  11.9191260585
H   12.3962601041 -3.6872401343  9.2971260585
H   10.6542601041 -2.9012401343  7.5941260585
H   11.3752601041 -5.3572401343  12.1531260585
H   7.2302601041 -4.6372401343  11.2331260585
H   6.8932601041 -3.0012401343  8.3891260585
H   8.3902601041 -4.0522401343  6.4751260585
H   8.8422601041 -4.0982401343  4.3261260585
H   8.5092601041 -5.2202401343  2.0741260585
H   4.7362601041 -2.9242401343  5.4781260585
H   5.3062601041 -5.7912401343  0.7041260585
H   3.0002601041 -4.4652401343  2.9441260585
H   3.7462601041 -4.3532401343  1.4091260585
H   2.8472601041 -6.4672401343  1.2291260585
H   2.6882601041 -9.3142401343  3.2541260585
H   4.1212601041 -9.2842401343  2.1951260585
H   2.4082601041 -8.7252401343  1.6801260585
H   5.3442601041 -7.7652401343  4.4061260585
H   3.7162601041 -7.7602401343  5.0241260585
H   4.3642601041 -6.2732401343  4.6751260585
84
Scanning combination 55/256: [2.8000, 2.1000]  Energy = -385.8837107416
O   11.1233000000 -4.8002000000  5.0341000000
O   11.3873000000 -0.2652000000  3.3291000000
O   18.1143000000 -4.2382000000 -2.5629000000
O   15.0523000000 -3.1142000000  0.9841000000
C   13.0053000000 -3.3232000000  2.3291000000
C   12.6993000000 -1.9792000000  2.4491000000
C   12.3973000000 -4.3072000000  3.1831000000
C   11.6323000000 -1.5992000000  3.2951000000
C   11.4783000000 -3.8632000000  4.1231000000
C   11.0613000000 -2.4802000000  4.2331000000
C   10.1223000000 -1.9712000000  5.2561000000
C   10.5373000000 -1.3232000000  6.3251000000
C   9.8643000000 -1.0622000000  7.5921000000
C   8.6825000000 -1.0450000000  7.8959000000
C   10.8123000000 -0.2992000000  8.5731000000
C   14.6833000000 -4.8512000000 -0.4449000000
C   15.5183000000 -3.8012000000 -0.0889000000
C   16.6953000000 -3.5982000000 -0.8399000000
C   16.9703000000 -4.4882000000 -1.8899000000
C   16.1523000000 -5.5962000000 -2.2009000000
C   14.9513000000 -5.7522000000 -1.5279000000
C   13.6583000000 -4.8752000000  0.4711000000
C   13.8893000000 -3.7772000000  1.2511000000
H   13.1623000000 -1.2452000000  1.7971000000
H   12.5583000000 -5.3772000000  3.0881000000
H   11.7383000000 -5.5442000000  4.9131000000
H   11.8513000000  0.1658000000  2.5901000000
H   9.4643000000 -1.3292000000  4.6731000000
H   11.4933000000 -0.8182000000  6.2071000000
H   7.9073000000 -0.9712000000  7.1161000000
H   8.2313000000 -0.9072000000  8.8131000000
H   11.1183000000  0.6778000000  8.1811000000
H   11.7213000000 -0.7962000000  8.9311000000
H   10.3263000000 -0.0742000000  9.5301000000
H   17.3553000000 -2.7642000000 -0.6209000000
H   16.3753000000 -6.3042000000 -2.9929000000
H   14.4873000000 -6.7332000000 -1.5779000000
H   12.8783000000 -5.6272000000  0.4831000000
H   18.2613000000 -4.9422000000 -3.2189000000
C   9.4852959273 -4.4417962994  10.9912878489
O   11.8162959273 -4.7937962994  11.4792878489
C   10.8432959273 -4.3717962994  10.6332878489
O   7.2622959273 -3.9257962994  10.5192878489
C   11.3012959273 -3.6997962994  9.4532878489
O   6.0142959273 -1.9697962994  6.3192878489
C   10.3222959273 -3.2207962994  8.5962878489
O   4.3112959273 -3.2057962994  4.7522878489
C   8.9352959273 -3.3307962994  8.8632878489
O   6.2252959273 -5.4857962994  0.9322878489
C   8.5392959273 -3.9087962994  10.0822878489
C   7.7630959273 -2.9249962994  8.0695878489
C   8.1022959273 -2.8907962994  6.7122878489
C   6.8772959273 -2.7057962994  5.9342878489
C   6.7112959273 -3.4867962994  4.6252878489
C   7.8352959273 -4.0157962994  3.9332878489
C   5.4032959273 -3.6297962994  4.0552878489
C   7.6612959273 -4.7757962994  2.7642878489
C   5.2392959273 -4.3867962994  2.8622878489
C   6.3992959273 -4.8137962994  2.1762878489
C   3.8432959273 -4.7157962994  2.4452878489
C   3.4582959273 -6.1617962994  2.1562878489
C   3.6362959273 -7.2607962994  2.9612878489
C   3.1682959273 -8.6377962994  2.5102878489
C   4.3412959273 -7.1677962994  4.3322878489
H   9.1202959273 -4.7017962994  11.9802878489
H   12.3742959273 -3.5617962994  9.3582878489
H   10.6322959273 -2.7757962994  7.6552878489
H   11.3532959273 -5.2317962994  12.2142878489
H   7.2082959273 -4.5117962994  11.2942878489
H   6.8712959273 -2.8757962994  8.4502878489
H   8.3682959273 -3.9267962994  6.5362878489
H   8.8202959273 -3.9727962994  4.3872878489
H   8.4872959273 -5.0947962994  2.1352878489
H   4.7142959273 -2.7987962994  5.5392878489
H   5.2842959273 -5.6657962994  0.7652878489
H   2.9782959273 -4.3397962994  3.0052878489
H   3.7242959273 -4.2277962994  1.4702878489
H   2.8252959273 -6.3417962994  1.2902878489
H   2.6662959273 -9.1887962994  3.3152878489
H   4.0992959273 -9.1587962994  2.2562878489
H   2.3862959273 -8.5997962994  1.7412878489
H   5.3222959273 -7.6397962994  4.4672878489
H   3.6942959273 -7.6347962994  5.0852878489
H   4.3422959273 -6.1477962994  4.7362878489
84
Scanning combination 56/256: [2.8000, 2.0000]  Energy = -385.8526331182
O   11.1233000000 -4.8002000000  5.0341000000
O   11.3873000000 -0.2652000000  3.3291000000
O   18.1143000000 -4.2382000000 -2.5629000000
O   15.0523000000 -3.1142000000  0.9841000000
C   13.0053000000 -3.3232000000  2.3291000000
C   12.6993000000 -1.9792000000  2.4491000000
C   12.3973000000 -4.3072000000  3.1831000000
C   11.6323000000 -1.5992000000  3.2951000000
C   11.4783000000 -3.8632000000  4.1231000000
C   11.0613000000 -2.4802000000  4.2331000000
C   10.1223000000 -1.9712000000  5.2561000000
C   10.5373000000 -1.3232000000  6.3251000000
C   9.8643000000 -1.0622000000  7.5921000000
C   8.6825000000 -1.0450000000  7.8959000000
C   10.8123000000 -0.2992000000  8.5731000000
C   14.6833000000 -4.8512000000 -0.4449000000
C   15.5183000000 -3.8012000000 -0.0889000000
C   16.6953000000 -3.5982000000 -0.8399000000
C   16.9703000000 -4.4882000000 -1.8899000000
C   16.1523000000 -5.5962000000 -2.2009000000
C   14.9513000000 -5.7522000000 -1.5279000000
C   13.6583000000 -4.8752000000  0.4711000000
C   13.8893000000 -3.7772000000  1.2511000000
H   13.1623000000 -1.2452000000  1.7971000000
H   12.5583000000 -5.3772000000  3.0881000000
H   11.7383000000 -5.5442000000  4.9131000000
H   11.8513000000  0.1658000000  2.5901000000
H   9.4643000000 -1.3292000000  4.6731000000
H   11.4933000000 -0.8182000000  6.2071000000
H   7.9073000000 -0.9712000000  7.1161000000
H   8.2313000000 -0.9072000000  8.8131000000
H   11.1183000000  0.6778000000  8.1811000000
H   11.7213000000 -0.7962000000  8.9311000000
H   10.3263000000 -0.0742000000  9.5301000000
H   17.3553000000 -2.7642000000 -0.6209000000
H   16.3753000000 -6.3042000000 -2.9929000000
H   14.4873000000 -6.7332000000 -1.5779000000
H   12.8783000000 -5.6272000000  0.4831000000
H   18.2613000000 -4.9422000000 -3.2189000000
C   9.4693827340 -4.3145307591  11.0477753496
O   11.8003827340 -4.6665307591  11.5357753496
C   10.8273827340 -4.2445307591  10.6897753496
O   7.2463827340 -3.7985307591  10.5757753496
C   11.2853827340 -3.5725307591  9.5097753496
O   5.9983827340 -1.8425307591  6.3757753496
C   10.3063827340 -3.0935307591  8.6527753496
O   4.2953827340 -3.0785307591  4.8087753496
C   8.9193827340 -3.2035307591  8.9197753496
O   6.2093827340 -5.3585307591  0.9887753496
C   8.5233827340 -3.7815307591  10.1387753496
C   7.7471827340 -2.7977307591  8.1260753496
C   8.0863827340 -2.7635307591  6.7687753496
C   6.8613827340 -2.5785307591  5.9907753496
C   6.6953827340 -3.3595307591  4.6817753496
C   7.8193827340 -3.8885307591  3.9897753496
C   5.3873827340 -3.5025307591  4.1117753496
C   7.6453827340 -4.6485307591  2.8207753496
C   5.2233827340 -4.2595307591  2.9187753496
C   6.3833827340 -4.6865307591  2.2327753496
C   3.8273827340 -4.5885307591  2.5017753496
C   3.4423827340 -6.0345307591  2.2127753496
C   3.6203827340 -7.1335307591  3.0177753496
C   3.1523827340 -8.5105307591  2.5667753496
C   4.3253827340 -7.0405307591  4.3887753496
H   9.1043827340 -4.5745307591  12.0367753496
H   12.3583827340 -3.4345307591  9.4147753496
H   10.6163827340 -2.6485307591  7.7117753496
H   11.3373827340 -5.1045307591  12.2707753496
H   7.1923827340 -4.3845307591  11.3507753496
H   6.8553827340 -2.7485307591  8.5067753496
H   8.3523827340 -3.7995307591  6.5927753496
H   8.8043827340 -3.8455307591  4.4437753496
H   8.4713827340 -4.9675307591  2.1917753496
H   4.6983827340 -2.6715307591  5.5957753496
H   5.2683827340 -5.5385307591  0.8217753496
H   2.9623827340 -4.2125307591  3.0617753496
H   3.7083827340 -4.1005307591  1.5267753496
H   2.8093827340 -6.2145307591  1.3467753496
H   2.6503827340 -9.0615307591  3.3717753496
H   4.0833827340 -9.0315307591  2.3127753496
H   2.3703827340 -8.4725307591  1.7977753496
H   5.3063827340 -7.5125307591  4.5237753496
H   3.6783827340 -7.5075307591  5.1417753496
H   4.3263827340 -6.0205307591  4.7927753496
84
Scanning combination 57/256: [2.8000, 1.9000]  Energy = -385.8121913668
O   11.1233000000 -4.8002000000  5.0341000000
O   11.3873000000 -0.2652000000  3.3291000000
O   18.1143000000 -4.2382000000 -2.5629000000
O   15.0523000000 -3.1142000000  0.9841000000
C   13.0053000000 -3.3232000000  2.3291000000
C   12.6993000000 -1.9792000000  2.4491000000
C   12.3973000000 -4.3072000000  3.1831000000
C   11.6323000000 -1.5992000000  3.2951000000
C   11.4783000000 -3.8632000000  4.1231000000
C   11.0613000000 -2.4802000000  4.2331000000
C   10.1223000000 -1.9712000000  5.2561000000
C   10.5373000000 -1.3232000000  6.3251000000
C   9.8643000000 -1.0622000000  7.5921000000
C   8.6825000000 -1.0450000000  7.8959000000
C   10.8123000000 -0.2992000000  8.5731000000
C   14.6833000000 -4.8512000000 -0.4449000000
C   15.5183000000 -3.8012000000 -0.0889000000
C   16.6953000000 -3.5982000000 -0.8399000000
C   16.9703000000 -4.4882000000 -1.8899000000
C   16.1523000000 -5.5962000000 -2.2009000000
C   14.9513000000 -5.7522000000 -1.5279000000
C   13.6583000000 -4.8752000000  0.4711000000
C   13.8893000000 -3.7772000000  1.2511000000
H   13.1623000000 -1.2452000000  1.7971000000
H   12.5583000000 -5.3772000000  3.0881000000
H   11.7383000000 -5.5442000000  4.9131000000
H   11.8513000000  0.1658000000  2.5901000000
H   9.4643000000 -1.3292000000  4.6731000000
H   11.4933000000 -0.8182000000  6.2071000000
H   7.9073000000 -0.9712000000  7.1161000000
H   8.2313000000 -0.9072000000  8.8131000000
H   11.1183000000  0.6778000000  8.1811000000
H   11.7213000000 -0.7962000000  8.9311000000
H   10.3263000000 -0.0742000000  9.5301000000
H   17.3553000000 -2.7642000000 -0.6209000000
H   16.3753000000 -6.3042000000 -2.9929000000
H   14.4873000000 -6.7332000000 -1.5779000000
H   12.8783000000 -5.6272000000  0.4831000000
H   18.2613000000 -4.9422000000 -3.2189000000
C   9.4596594093 -4.1858037077  11.0993467361
O   11.7906594093 -4.5378037077  11.5873467361
C   10.8176594093 -4.1158037077  10.7413467361
O   7.2366594093 -3.6698037077  10.6273467361
C   11.2756594093 -3.4438037077  9.5613467361
O   5.9886594093 -1.7138037077  6.4273467361
C   10.2966594093 -2.9648037077  8.7043467361
O   4.2856594093 -2.9498037077  4.8603467361
C   8.9096594093 -3.0748037077  8.9713467361
O   6.1996594093 -5.2298037077  1.0403467361
C   8.5136594093 -3.6528037077  10.1903467361
C   7.7374594093 -2.6690037077  8.1776467361
C   8.0766594093 -2.6348037077  6.8203467361
C   6.8516594093 -2.4498037077  6.0423467361
C   6.6856594093 -3.2308037077  4.7333467361
C   7.8096594093 -3.7598037077  4.0413467361
C   5.3776594093 -3.3738037077  4.1633467361
C   7.6356594093 -4.5198037077  2.8723467361
C   5.2136594093 -4.1308037077  2.9703467361
C   6.3736594093 -4.5578037077  2.2843467361
C   3.8176594093 -4.4598037077  2.5533467361
C   3.4326594093 -5.9058037077  2.2643467361
C   3.6106594093 -7.0048037077  3.0693467361
C   3.1426594093 -8.3818037077  2.6183467361
C   4.3156594093 -6.9118037077  4.4403467361
H   9.0946594093 -4.4458037077  12.0883467361
H   12.3486594093 -3.3058037077  9.4663467361
H   10.6066594093 -2.5198037077  7.7633467361
H   11.3276594093 -4.9758037077  12.3223467361
H   7.1826594093 -4.2558037077  11.4023467361
H   6.8456594093 -2.6198037077  8.5583467361
H   8.3426594093 -3.6708037077  6.6443467361
H   8.7946594093 -3.7168037077  4.4953467361
H   8.4616594093 -4.8388037077  2.2433467361
H   4.6886594093 -2.5428037077  5.6473467361
H   5.2586594093 -5.4098037077  0.8733467361
H   2.9526594093 -4.0838037077  3.1133467361
H   3.6986594093 -3.9718037077  1.5783467361
H   2.7996594093 -6.0858037077  1.3983467361
H   2.6406594093 -8.9328037077  3.4233467361
H   4.0736594093 -8.9028037077  2.3643467361
H   2.3606594093 -8.3438037077  1.8493467361
H   5.2966594093 -7.3838037077  4.5753467361
H   3.6686594093 -7.3788037077  5.1933467361
H   4.3166594093 -5.8918037077  4.8443467361
84
Scanning combination 58/256: [2.8000, 1.8000]  Energy = -385.7618082758
O   11.1233000000 -4.8002000000  5.0341000000
O   11.3873000000 -0.2652000000  3.3291000000
O   18.1143000000 -4.2382000000 -2.5629000000
O   15.0523000000 -3.1142000000  0.9841000000
C   13.0053000000 -3.3232000000  2.3291000000
C   12.6993000000 -1.9792000000  2.4491000000
C   12.3973000000 -4.3072000000  3.1831000000
C   11.6323000000 -1.5992000000  3.2951000000
C   11.4783000000 -3.8632000000  4.1231000000
C   11.0613000000 -2.4802000000  4.2331000000
C   10.1223000000 -1.9712000000  5.2561000000
C   10.5373000000 -1.3232000000  6.3251000000
C   9.8643000000 -1.0622000000  7.5921000000
C   8.6825000000 -1.0450000000  7.8959000000
C   10.8123000000 -0.2992000000  8.5731000000
C   14.6833000000 -4.8512000000 -0.4449000000
C   15.5183000000 -3.8012000000 -0.0889000000
C   16.6953000000 -3.5982000000 -0.8399000000
C   16.9703000000 -4.4882000000 -1.8899000000
C   16.1523000000 -5.5962000000 -2.2009000000
C   14.9513000000 -5.7522000000 -1.5279000000
C   13.6583000000 -4.8752000000  0.4711000000
C   13.8893000000 -3.7772000000  1.2511000000
H   13.1623000000 -1.2452000000  1.7971000000
H   12.5583000000 -5.3772000000  3.0881000000
H   11.7383000000 -5.5442000000  4.9131000000
H   11.8513000000  0.1658000000  2.5901000000
H   9.4643000000 -1.3292000000  4.6731000000
H   11.4933000000 -0.8182000000  6.2071000000
H   7.9073000000 -0.9712000000  7.1161000000
H   8.2313000000 -0.9072000000  8.8131000000
H   11.1183000000  0.6778000000  8.1811000000
H   11.7213000000 -0.7962000000  8.9311000000
H   10.3263000000 -0.0742000000  9.5301000000
H   17.3553000000 -2.7642000000 -0.6209000000
H   16.3753000000 -6.3042000000 -2.9929000000
H   14.4873000000 -6.7332000000 -1.5779000000
H   12.8783000000 -5.6272000000  0.4831000000
H   18.2613000000 -4.9422000000 -3.2189000000
C   9.4561544087 -4.0559127387  11.1458775653
O   11.7871544087 -4.4079127387  11.6338775653
C   10.8141544087 -3.9859127387  10.7878775653
O   7.2331544087 -3.5399127387  10.6738775653
C   11.2721544087 -3.3139127387  9.6078775653
O   5.9851544087 -1.5839127387  6.4738775653
C   10.2931544087 -2.8349127387  8.7508775653
O   4.2821544087 -2.8199127387  4.9068775653
C   8.9061544087 -2.9449127387  9.0178775653
O   6.1961544087 -5.0999127387  1.0868775653
C   8.5101544087 -3.5229127387  10.2368775653
C   7.7339544087 -2.5391127387  8.2241775653
C   8.0731544087 -2.5049127387  6.8668775653
C   6.8481544087 -2.3199127387  6.0888775653
C   6.6821544087 -3.1009127387  4.7798775653
C   7.8061544087 -3.6299127387  4.0878775653
C   5.3741544087 -3.2439127387  4.2098775653
C   7.6321544087 -4.3899127387  2.9188775653
C   5.2101544087 -4.0009127387  3.0168775653
C   6.3701544087 -4.4279127387  2.3308775653
C   3.8141544087 -4.3299127387  2.5998775653
C   3.4291544087 -5.7759127387  2.3108775653
C   3.6071544087 -6.8749127387  3.1158775653
C   3.1391544087 -8.2519127387  2.6648775653
C   4.3121544087 -6.7819127387  4.4868775653
H   9.0911544087 -4.3159127387  12.1348775653
H   12.3451544087 -3.1759127387  9.5128775653
H   10.6031544087 -2.3899127387  7.8098775653
H   11.3241544087 -4.8459127387  12.3688775653
H   7.1791544087 -4.1259127387  11.4488775653
H   6.8421544087 -2.4899127387  8.6048775653
H   8.3391544087 -3.5409127387  6.6908775653
H   8.7911544087 -3.5869127387  4.5418775653
H   8.4581544087 -4.7089127387  2.2898775653
H   4.6851544087 -2.4129127387  5.6938775653
H   5.2551544087 -5.2799127387  0.9198775653
H   2.9491544087 -3.9539127387  3.1598775653
H   3.6951544087 -3.8419127387  1.6248775653
H   2.7961544087 -5.9559127387  1.4448775653
H   2.6371544087 -8.8029127387  3.4698775653
H   4.0701544087 -8.7729127387  2.4108775653
H   2.3571544087 -8.2139127387  1.8958775653
H   5.2931544087 -7.2539127387  4.6218775653
H   3.6651544087 -7.2489127387  5.2398775653
H   4.3131544087 -5.7619127387  4.8908775653
84
Scanning combination 59/256: [2.8000, 1.7000]  Energy = -385.7035959955
O   11.1233000000 -4.8002000000  5.0341000000
O   11.3873000000 -0.2652000000  3.3291000000
O   18.1143000000 -4.2382000000 -2.5629000000
O   15.0523000000 -3.1142000000  0.9841000000
C   13.0053000000 -3.3232000000  2.3291000000
C   12.6993000000 -1.9792000000  2.4491000000
C   12.3973000000 -4.3072000000  3.1831000000
C   11.6323000000 -1.5992000000  3.2951000000
C   11.4783000000 -3.8632000000  4.1231000000
C   11.0613000000 -2.4802000000  4.2331000000
C   10.1223000000 -1.9712000000  5.2561000000
C   10.5373000000 -1.3232000000  6.3251000000
C   9.8643000000 -1.0622000000  7.5921000000
C   8.6825000000 -1.0450000000  7.8959000000
C   10.8123000000 -0.2992000000  8.5731000000
C   14.6833000000 -4.8512000000 -0.4449000000
C   15.5183000000 -3.8012000000 -0.0889000000
C   16.6953000000 -3.5982000000 -0.8399000000
C   16.9703000000 -4.4882000000 -1.8899000000
C   16.1523000000 -5.5962000000 -2.2009000000
C   14.9513000000 -5.7522000000 -1.5279000000
C   13.6583000000 -4.8752000000  0.4711000000
C   13.8893000000 -3.7772000000  1.2511000000
H   13.1623000000 -1.2452000000  1.7971000000
H   12.5583000000 -5.3772000000  3.0881000000
H   11.7383000000 -5.5442000000  4.9131000000
H   11.8513000000  0.1658000000  2.5901000000
H   9.4643000000 -1.3292000000  4.6731000000
H   11.4933000000 -0.8182000000  6.2071000000
H   7.9073000000 -0.9712000000  7.1161000000
H   8.2313000000 -0.9072000000  8.8131000000
H   11.1183000000  0.6778000000  8.1811000000
H   11.7213000000 -0.7962000000  8.9311000000
H   10.3263000000 -0.0742000000  9.5301000000
H   17.3553000000 -2.7642000000 -0.6209000000
H   16.3753000000 -6.3042000000 -2.9929000000
H   14.4873000000 -6.7332000000 -1.5779000000
H   12.8783000000 -5.6272000000  0.4831000000
H   18.2613000000 -4.9422000000 -3.2189000000
C   9.4588680519 -3.9251126971  11.1872822701
O   11.7898680519 -4.2771126971  11.6752822701
C   10.8168680519 -3.8551126971  10.8292822701
O   7.2358680519 -3.4091126971  10.7152822701
C   11.2748680519 -3.1831126971  9.6492822701
O   5.9878680519 -1.4531126971  6.5152822701
C   10.2958680519 -2.7041126971  8.7922822701
O   4.2848680519 -2.6891126971  4.9482822701
C   8.9088680519 -2.8141126971  9.0592822701
O   6.1988680519 -4.9691126971  1.1282822701
C   8.5128680519 -3.3921126971  10.2782822701
C   7.7366680519 -2.4083126971  8.2655822701
C   8.0758680519 -2.3741126971  6.9082822701
C   6.8508680519 -2.1891126971  6.1302822701
C   6.6848680519 -2.9701126971  4.8212822701
C   7.8088680519 -3.4991126971  4.1292822701
C   5.3768680519 -3.1131126971  4.2512822701
C   7.6348680519 -4.2591126971  2.9602822701
C   5.2128680519 -3.8701126971  3.0582822701
C   6.3728680519 -4.2971126971  2.3722822701
C   3.8168680519 -4.1991126971  2.6412822701
C   3.4318680519 -5.6451126971  2.3522822701
C   3.6098680519 -6.7441126971  3.1572822701
C   3.1418680519 -8.1211126971  2.7062822701
C   4.3148680519 -6.6511126971  4.5282822701
H   9.0938680519 -4.1851126971  12.1762822701
H   12.3478680519 -3.0451126971  9.5542822701
H   10.6058680519 -2.2591126971  7.8512822701
H   11.3268680519 -4.7151126971  12.4102822701
H   7.1818680519 -3.9951126971  11.4902822701
H   6.8448680519 -2.3591126971  8.6462822701
H   8.3418680519 -3.4101126971  6.7322822701
H   8.7938680519 -3.4561126971  4.5832822701
H   8.4608680519 -4.5781126971  2.3312822701
H   4.6878680519 -2.2821126971  5.7352822701
H   5.2578680519 -5.1491126971  0.9612822701
H   2.9518680519 -3.8231126971  3.2012822701
H   3.6978680519 -3.7111126971  1.6662822701
H   2.7988680519 -5.8251126971  1.4862822701
H   2.6398680519 -8.6721126971  3.5112822701
H   4.0728680519 -8.6421126971  2.4522822701
H   2.3598680519 -8.0831126971  1.9372822701
H   5.2958680519 -7.1231126971  4.6632822701
H   3.6678680519 -7.1181126971  5.2812822701
H   4.3158680519 -5.6311126971  4.9322822701
84
Scanning combination 60/256: [2.8000, 1.6000]  Energy = -385.6210976835
O   11.1233000000 -4.8002000000  5.0341000000
O   11.3873000000 -0.2652000000  3.3291000000
O   18.1143000000 -4.2382000000 -2.5629000000
O   15.0523000000 -3.1142000000  0.9841000000
C   13.0053000000 -3.3232000000  2.3291000000
C   12.6993000000 -1.9792000000  2.4491000000
C   12.3973000000 -4.3072000000  3.1831000000
C   11.6323000000 -1.5992000000  3.2951000000
C   11.4783000000 -3.8632000000  4.1231000000
C   11.0613000000 -2.4802000000  4.2331000000
C   10.1223000000 -1.9712000000  5.2561000000
C   10.5373000000 -1.3232000000  6.3251000000
C   9.8643000000 -1.0622000000  7.5921000000
C   8.6825000000 -1.0450000000  7.8959000000
C   10.8123000000 -0.2992000000  8.5731000000
C   14.6833000000 -4.8512000000 -0.4449000000
C   15.5183000000 -3.8012000000 -0.0889000000
C   16.6953000000 -3.5982000000 -0.8399000000
C   16.9703000000 -4.4882000000 -1.8899000000
C   16.1523000000 -5.5962000000 -2.2009000000
C   14.9513000000 -5.7522000000 -1.5279000000
C   13.6583000000 -4.8752000000  0.4711000000
C   13.8893000000 -3.7772000000  1.2511000000
H   13.1623000000 -1.2452000000  1.7971000000
H   12.5583000000 -5.3772000000  3.0881000000
H   11.7383000000 -5.5442000000  4.9131000000
H   11.8513000000  0.1658000000  2.5901000000
H   9.4643000000 -1.3292000000  4.6731000000
H   11.4933000000 -0.8182000000  6.2071000000
H   7.9073000000 -0.9712000000  7.1161000000
H   8.2313000000 -0.9072000000  8.8131000000
H   11.1183000000  0.6778000000  8.1811000000
H   11.7213000000 -0.7962000000  8.9311000000
H   10.3263000000 -0.0742000000  9.5301000000
H   17.3553000000 -2.7642000000 -0.6209000000
H   16.3753000000 -6.3042000000 -2.9929000000
H   14.4873000000 -6.7332000000 -1.5779000000
H   12.8783000000 -5.6272000000  0.4831000000
H   18.2613000000 -4.9422000000 -3.2189000000
C   9.4678186708 -3.7936345077  11.2234675595
O   11.7988186708 -4.1456345077  11.7114675595
C   10.8258186708 -3.7236345077  10.8654675595
O   7.2448186708 -3.2776345077  10.7514675595
C   11.2838186708 -3.0516345077  9.6854675595
O   5.9968186708 -1.3216345077  6.5514675595
C   10.3048186708 -2.5726345077  8.8284675595
O   4.2938186708 -2.5576345077  4.9844675595
C   8.9178186708 -2.6826345077  9.0954675595
O   6.2078186708 -4.8376345077  1.1644675595
C   8.5218186708 -3.2606345077  10.3144675595
C   7.7456186708 -2.2768345077  8.3017675595
C   8.0848186708 -2.2426345077  6.9444675595
C   6.8598186708 -2.0576345077  6.1664675595
C   6.6938186708 -2.8386345077  4.8574675595
C   7.8178186708 -3.3676345077  4.1654675595
C   5.3858186708 -2.9816345077  4.2874675595
C   7.6438186708 -4.1276345077  2.9964675595
C   5.2218186708 -3.7386345077  3.0944675595
C   6.3818186708 -4.1656345077  2.4084675595
C   3.8258186708 -4.0676345077  2.6774675595
C   3.4408186708 -5.5136345077  2.3884675595
C   3.6188186708 -6.6126345077  3.1934675595
C   3.1508186708 -7.9896345077  2.7424675595
C   4.3238186708 -6.5196345077  4.5644675595
H   9.1028186708 -4.0536345077  12.2124675595
H   12.3568186708 -2.9136345077  9.5904675595
H   10.6148186708 -2.1276345077  7.8874675595
H   11.3358186708 -4.5836345077  12.4464675595
H   7.1908186708 -3.8636345077  11.5264675595
H   6.8538186708 -2.2276345077  8.6824675595
H   8.3508186708 -3.2786345077  6.7684675595
H   8.8028186708 -3.3246345077  4.6194675595
H   8.4698186708 -4.4466345077  2.3674675595
H   4.6968186708 -2.1506345077  5.7714675595
H   5.2668186708 -5.0176345077  0.9974675595
H   2.9608186708 -3.6916345077  3.2374675595
H   3.7068186708 -3.5796345077  1.7024675595
H   2.8078186708 -5.6936345077  1.5224675595
H   2.6488186708 -8.5406345077  3.5474675595
H   4.0818186708 -8.5106345077  2.4884675595
H   2.3688186708 -7.9516345077  1.9734675595
H   5.3048186708 -6.9916345077  4.6994675595
H   3.6768186708 -6.9866345077  5.3174675595
H   4.3248186708 -5.4996345077  4.9684675595
84
Scanning combination 61/256: [2.8000, 1.5000]  Energy = -385.5056196447
O   11.1233000000 -4.8002000000  5.0341000000
O   11.3873000000 -0.2652000000  3.3291000000
O   18.1143000000 -4.2382000000 -2.5629000000
O   15.0523000000 -3.1142000000  0.9841000000
C   13.0053000000 -3.3232000000  2.3291000000
C   12.6993000000 -1.9792000000  2.4491000000
C   12.3973000000 -4.3072000000  3.1831000000
C   11.6323000000 -1.5992000000  3.2951000000
C   11.4783000000 -3.8632000000  4.1231000000
C   11.0613000000 -2.4802000000  4.2331000000
C   10.1223000000 -1.9712000000  5.2561000000
C   10.5373000000 -1.3232000000  6.3251000000
C   9.8643000000 -1.0622000000  7.5921000000
C   8.6825000000 -1.0450000000  7.8959000000
C   10.8123000000 -0.2992000000  8.5731000000
C   14.6833000000 -4.8512000000 -0.4449000000
C   15.5183000000 -3.8012000000 -0.0889000000
C   16.6953000000 -3.5982000000 -0.8399000000
C   16.9703000000 -4.4882000000 -1.8899000000
C   16.1523000000 -5.5962000000 -2.2009000000
C   14.9513000000 -5.7522000000 -1.5279000000
C   13.6583000000 -4.8752000000  0.4711000000
C   13.8893000000 -3.7772000000  1.2511000000
H   13.1623000000 -1.2452000000  1.7971000000
H   12.5583000000 -5.3772000000  3.0881000000
H   11.7383000000 -5.5442000000  4.9131000000
H   11.8513000000  0.1658000000  2.5901000000
H   9.4643000000 -1.3292000000  4.6731000000
H   11.4933000000 -0.8182000000  6.2071000000
H   7.9073000000 -0.9712000000  7.1161000000
H   8.2313000000 -0.9072000000  8.8131000000
H   11.1183000000  0.6778000000  8.1811000000
H   11.7213000000 -0.7962000000  8.9311000000
H   10.3263000000 -0.0742000000  9.5301000000
H   17.3553000000 -2.7642000000 -0.6209000000
H   16.3753000000 -6.3042000000 -2.9929000000
H   14.4873000000 -6.7332000000 -1.5779000000
H   12.8783000000 -5.6272000000  0.4831000000
H   18.2613000000 -4.9422000000 -3.2189000000
C   9.4830705314 -3.6617040273  11.2543017275
O   11.8140705314 -4.0137040273  11.7423017275
C   10.8410705314 -3.5917040273  10.8963017275
O   7.2600705314 -3.1457040273  10.7823017275
C   11.2990705314 -2.9197040273  9.7163017275
O   6.0120705314 -1.1897040273  6.5823017275
C   10.3200705314 -2.4407040273  8.8593017275
O   4.3090705314 -2.4257040273  5.0153017275
C   8.9330705314 -2.5507040273  9.1263017275
O   6.2230705314 -4.7057040273  1.1953017275
C   8.5370705314 -3.1287040273  10.3453017275
C   7.7608705314 -2.1449040273  8.3326017275
C   8.1000705314 -2.1107040273  6.9753017275
C   6.8750705314 -1.9257040273  6.1973017275
C   6.7090705314 -2.7067040273  4.8883017275
C   7.8330705314 -3.2357040273  4.1963017275
C   5.4010705314 -2.8497040273  4.3183017275
C   7.6590705314 -3.9957040273  3.0273017275
C   5.2370705314 -3.6067040273  3.1253017275
C   6.3970705314 -4.0337040273  2.4393017275
C   3.8410705314 -3.9357040273  2.7083017275
C   3.4560705314 -5.3817040273  2.4193017275
C   3.6340705314 -6.4807040273  3.2243017275
C   3.1660705314 -7.8577040273  2.7733017275
C   4.3390705314 -6.3877040273  4.5953017275
H   9.1180705314 -3.9217040273  12.2433017275
H   12.3720705314 -2.7817040273  9.6213017275
H   10.6300705314 -1.9957040273  7.9183017275
H   11.3510705314 -4.4517040273  12.4773017275
H   7.2060705314 -3.7317040273  11.5573017275
H   6.8690705314 -2.0957040273  8.7133017275
H   8.3660705314 -3.1467040273  6.7993017275
H   8.8180705314 -3.1927040273  4.6503017275
H   8.4850705314 -4.3147040273  2.3983017275
H   4.7120705314 -2.0187040273  5.8023017275
H   5.2820705314 -4.8857040273  1.0283017275
H   2.9760705314 -3.5597040273  3.2683017275
H   3.7220705314 -3.4477040273  1.7333017275
H   2.8230705314 -5.5617040273  1.5533017275
H   2.6640705314 -8.4087040273  3.5783017275
H   4.0970705314 -8.3787040273  2.5193017275
H   2.3840705314 -7.8197040273  2.0043017275
H   5.3200705314 -6.8597040273  4.7303017275
H   3.6920705314 -6.8547040273  5.3483017275
H   4.3400705314 -5.3677040273  4.9993017275
84
Scanning combination 62/256: [2.7000, 2.9000]  Energy = -385.9785190817
O   11.1233000000 -4.8002000000  5.0341000000
O   11.3873000000 -0.2652000000  3.3291000000
O   18.1143000000 -4.2382000000 -2.5629000000
O   15.0523000000 -3.1142000000  0.9841000000
C   13.0053000000 -3.3232000000  2.3291000000
C   12.6993000000 -1.9792000000  2.4491000000
C   12.3973000000 -4.3072000000  3.1831000000
C   11.6323000000 -1.5992000000  3.2951000000
C   11.4783000000 -3.8632000000  4.1231000000
C   11.0613000000 -2.4802000000  4.2331000000
C   10.1223000000 -1.9712000000  5.2561000000
C   10.5373000000 -1.3232000000  6.3251000000
C   9.8643000000 -1.0622000000  7.5921000000
C   8.6825000000 -1.0450000000  7.8959000000
C   10.8123000000 -0.2992000000  8.5731000000
C   14.6833000000 -4.8512000000 -0.4449000000
C   15.5183000000 -3.8012000000 -0.0889000000
C   16.6953000000 -3.5982000000 -0.8399000000
C   16.9703000000 -4.4882000000 -1.8899000000
C   16.1523000000 -5.5962000000 -2.2009000000
C   14.9513000000 -5.7522000000 -1.5279000000
C   13.6583000000 -4.8752000000  0.4711000000
C   13.8893000000 -3.7772000000  1.2511000000
H   13.1623000000 -1.2452000000  1.7971000000
H   12.5583000000 -5.3772000000  3.0881000000
H   11.7383000000 -5.5442000000  4.9131000000
H   11.8513000000  0.1658000000  2.5901000000
H   9.4643000000 -1.3292000000  4.6731000000
H   11.4933000000 -0.8182000000  6.2071000000
H   7.9073000000 -0.9712000000  7.1161000000
H   8.2313000000 -0.9072000000  8.8131000000
H   11.1183000000  0.6778000000  8.1811000000
H   11.7213000000 -0.7962000000  8.9311000000
H   10.3263000000 -0.0742000000  9.5301000000
H   17.3553000000 -2.7642000000 -0.6209000000
H   16.3753000000 -6.3042000000 -2.9929000000
H   14.4873000000 -6.7332000000 -1.5779000000
H   12.8783000000 -5.6272000000  0.4831000000
H   18.2613000000 -4.9422000000 -3.2189000000
C   9.7631634404 -5.3645696571  10.4398220598
O   12.0941634404 -5.7165696571  10.9278220598
C   11.1211634404 -5.2945696571  10.0818220598
O   7.5401634404 -4.8485696571  9.9678220598
C   11.5791634404 -4.6225696571  8.9018220598
O   6.2921634404 -2.8925696571  5.7678220598
C   10.6001634404 -4.1435696571  8.0448220598
O   4.5891634404 -4.1285696571  4.2008220598
C   9.2131634404 -4.2535696571  8.3118220598
O   6.5031634404 -6.4085696571  0.3808220598
C   8.8171634404 -4.8315696571  9.5308220598
C   8.0409634404 -3.8477696571  7.5181220598
C   8.3801634404 -3.8135696571  6.1608220598
C   7.1551634404 -3.6285696571  5.3828220598
C   6.9891634404 -4.4095696571  4.0738220598
C   8.1131634404 -4.9385696571  3.3818220598
C   5.6811634404 -4.5525696571  3.5038220598
C   7.9391634404 -5.6985696571  2.2128220598
C   5.5171634404 -5.3095696571  2.3108220598
C   6.6771634404 -5.7365696571  1.6248220598
C   4.1211634404 -5.6385696571  1.8938220598
C   3.7361634404 -7.0845696571  1.6048220598
C   3.9141634404 -8.1835696571  2.4098220598
C   3.4461634404 -9.5605696571  1.9588220598
C   4.6191634404 -8.0905696571  3.7808220598
H   9.3981634404 -5.6245696571  11.4288220598
H   12.6521634404 -4.4845696571  8.8068220598
H   10.9101634404 -3.6985696571  7.1038220598
H   11.6311634404 -6.1545696571  11.6628220598
H   7.4861634404 -5.4345696571  10.7428220598
H   7.1491634404 -3.7985696571  7.8988220598
H   8.6461634404 -4.8495696571  5.9848220598
H   9.0981634404 -4.8955696571  3.8358220598
H   8.7651634404 -6.0175696571  1.5838220598
H   4.9921634404 -3.7215696571  4.9878220598
H   5.5621634404 -6.5885696571  0.2138220598
H   3.2561634404 -5.2625696571  2.4538220598
H   4.0021634404 -5.1505696571  0.9188220598
H   3.1031634404 -7.2645696571  0.7388220598
H   2.9441634404 -10.1115696571  2.7638220598
H   4.3771634404 -10.0815696571  1.7048220598
H   2.6641634404 -9.5225696571  1.1898220598
H   5.6001634404 -8.5625696571  3.9158220598
H   3.9721634404 -8.5575696571  4.5338220598
H   4.6201634404 -7.0705696571  4.1848220598
84
Scanning combination 63/256: [2.7000, 2.8000]  Energy = -385.9740709063
O   11.1233000000 -4.8002000000  5.0341000000
O   11.3873000000 -0.2652000000  3.3291000000
O   18.1143000000 -4.2382000000 -2.5629000000
O   15.0523000000 -3.1142000000  0.9841000000
C   13.0053000000 -3.3232000000  2.3291000000
C   12.6993000000 -1.9792000000  2.4491000000
C   12.3973000000 -4.3072000000  3.1831000000
C   11.6323000000 -1.5992000000  3.2951000000
C   11.4783000000 -3.8632000000  4.1231000000
C   11.0613000000 -2.4802000000  4.2331000000
C   10.1223000000 -1.9712000000  5.2561000000
C   10.5373000000 -1.3232000000  6.3251000000
C   9.8643000000 -1.0622000000  7.5921000000
C   8.6825000000 -1.0450000000  7.8959000000
C   10.8123000000 -0.2992000000  8.5731000000
C   14.6833000000 -4.8512000000 -0.4449000000
C   15.5183000000 -3.8012000000 -0.0889000000
C   16.6953000000 -3.5982000000 -0.8399000000
C   16.9703000000 -4.4882000000 -1.8899000000
C   16.1523000000 -5.5962000000 -2.2009000000
C   14.9513000000 -5.7522000000 -1.5279000000
C   13.6583000000 -4.8752000000  0.4711000000
C   13.8893000000 -3.7772000000  1.2511000000
H   13.1623000000 -1.2452000000  1.7971000000
H   12.5583000000 -5.3772000000  3.0881000000
H   11.7383000000 -5.5442000000  4.9131000000
H   11.8513000000  0.1658000000  2.5901000000
H   9.4643000000 -1.3292000000  4.6731000000
H   11.4933000000 -0.8182000000  6.2071000000
H   7.9073000000 -0.9712000000  7.1161000000
H   8.2313000000 -0.9072000000  8.8131000000
H   11.1183000000  0.6778000000  8.1811000000
H   11.7213000000 -0.7962000000  8.9311000000
H   10.3263000000 -0.0742000000  9.5301000000
H   17.3553000000 -2.7642000000 -0.6209000000
H   16.3753000000 -6.3042000000 -2.9929000000
H   14.4873000000 -6.7332000000 -1.5779000000
H   12.8783000000 -5.6272000000  0.4831000000
H   18.2613000000 -4.9422000000 -3.2189000000
C   9.7816641471 -5.2675317312  10.4561418483
O   12.1126641471 -5.6195317312  10.9441418483
C   11.1396641471 -5.1975317312  10.0981418483
O   7.5586641471 -4.7515317312  9.9841418483
C   11.5976641471 -4.5255317312  8.9181418483
O   6.3106641471 -2.7955317312  5.7841418483
C   10.6186641471 -4.0465317312  8.0611418483
O   4.6076641471 -4.0315317312  4.2171418483
C   9.2316641471 -4.1565317312  8.3281418483
O   6.5216641471 -6.3115317312  0.3971418483
C   8.8356641471 -4.7345317312  9.5471418483
C   8.0594641471 -3.7507317312  7.5344418483
C   8.3986641471 -3.7165317312  6.1771418483
C   7.1736641471 -3.5315317312  5.3991418483
C   7.0076641471 -4.3125317312  4.0901418483
C   8.1316641471 -4.8415317312  3.3981418483
C   5.6996641471 -4.4555317312  3.5201418483
C   7.9576641471 -5.6015317312  2.2291418483
C   5.5356641471 -5.2125317312  2.3271418483
C   6.6956641471 -5.6395317312  1.6411418483
C   4.1396641471 -5.5415317312  1.9101418483
C   3.7546641471 -6.9875317312  1.6211418483
C   3.9326641471 -8.0865317312  2.4261418483
C   3.4646641471 -9.4635317312  1.9751418483
C   4.6376641471 -7.9935317312  3.7971418483
H   9.4166641471 -5.5275317312  11.4451418483
H   12.6706641471 -4.3875317312  8.8231418483
H   10.9286641471 -3.6015317312  7.1201418483
H   11.6496641471 -6.0575317312  11.6791418483
H   7.5046641471 -5.3375317312  10.7591418483
H   7.1676641471 -3.7015317312  7.9151418483
H   8.6646641471 -4.7525317312  6.0011418483
H   9.1166641471 -4.7985317312  3.8521418483
H   8.7836641471 -5.9205317312  1.6001418483
H   5.0106641471 -3.6245317312  5.0041418483
H   5.5806641471 -6.4915317312  0.2301418483
H   3.2746641471 -5.1655317312  2.4701418483
H   4.0206641471 -5.0535317312  0.9351418483
H   3.1216641471 -7.1675317312  0.7551418483
H   2.9626641471 -10.0145317312  2.7801418483
H   4.3956641471 -9.9845317312  1.7211418483
H   2.6826641471 -9.4255317312  1.2061418483
H   5.6186641471 -8.4655317312  3.9321418483
H   3.9906641471 -8.4605317312  4.5501418483
H   4.6386641471 -6.9735317312  4.2011418483
84
Scanning combination 64/256: [2.7000, 2.7000]  Energy = -385.9690176245
O   11.1233000000 -4.8002000000  5.0341000000
O   11.3873000000 -0.2652000000  3.3291000000
O   18.1143000000 -4.2382000000 -2.5629000000
O   15.0523000000 -3.1142000000  0.9841000000
C   13.0053000000 -3.3232000000  2.3291000000
C   12.6993000000 -1.9792000000  2.4491000000
C   12.3973000000 -4.3072000000  3.1831000000
C   11.6323000000 -1.5992000000  3.2951000000
C   11.4783000000 -3.8632000000  4.1231000000
C   11.0613000000 -2.4802000000  4.2331000000
C   10.1223000000 -1.9712000000  5.2561000000
C   10.5373000000 -1.3232000000  6.3251000000
C   9.8643000000 -1.0622000000  7.5921000000
C   8.6825000000 -1.0450000000  7.8959000000
C   10.8123000000 -0.2992000000  8.5731000000
C   14.6833000000 -4.8512000000 -0.4449000000
C   15.5183000000 -3.8012000000 -0.0889000000
C   16.6953000000 -3.5982000000 -0.8399000000
C   16.9703000000 -4.4882000000 -1.8899000000
C   16.1523000000 -5.5962000000 -2.2009000000
C   14.9513000000 -5.7522000000 -1.5279000000
C   13.6583000000 -4.8752000000  0.4711000000
C   13.8893000000 -3.7772000000  1.2511000000
H   13.1623000000 -1.2452000000  1.7971000000
H   12.5583000000 -5.3772000000  3.0881000000
H   11.7383000000 -5.5442000000  4.9131000000
H   11.8513000000  0.1658000000  2.5901000000
H   9.4643000000 -1.3292000000  4.6731000000
H   11.4933000000 -0.8182000000  6.2071000000
H   7.9073000000 -0.9712000000  7.1161000000
H   8.2313000000 -0.9072000000  8.8131000000
H   11.1183000000  0.6778000000  8.1811000000
H   11.7213000000 -0.7962000000  8.9311000000
H   10.3263000000 -0.0742000000  9.5301000000
H   17.3553000000 -2.7642000000 -0.6209000000
H   16.3753000000 -6.3042000000 -2.9929000000
H   14.4873000000 -6.7332000000 -1.5779000000
H   12.8783000000 -5.6272000000  0.4831000000
H   18.2613000000 -4.9422000000 -3.2189000000
C   9.7669231786 -5.1664100954  10.5028562339
O   12.0979231786 -5.5184100954  10.9908562339
C   11.1249231786 -5.0964100954  10.1448562339
O   7.5439231786 -4.6504100954  10.0308562339
C   11.5829231786 -4.4244100954  8.9648562339
O   6.2959231786 -2.6944100954  5.8308562339
C   10.6039231786 -3.9454100954  8.1078562339
O   4.5929231786 -3.9304100954  4.2638562339
C   9.2169231786 -4.0554100954  8.3748562339
O   6.5069231786 -6.2104100954  0.4438562339
C   8.8209231786 -4.6334100954  9.5938562339
C   8.0447231786 -3.6496100954  7.5811562339
C   8.3839231786 -3.6154100954  6.2238562339
C   7.1589231786 -3.4304100954  5.4458562339
C   6.9929231786 -4.2114100954  4.1368562339
C   8.1169231786 -4.7404100954  3.4448562339
C   5.6849231786 -4.3544100954  3.5668562339
C   7.9429231786 -5.5004100954  2.2758562339
C   5.5209231786 -5.1114100954  2.3738562339
C   6.6809231786 -5.5384100954  1.6878562339
C   4.1249231786 -5.4404100954  1.9568562339
C   3.7399231786 -6.8864100954  1.6678562339
C   3.9179231786 -7.9854100954  2.4728562339
C   3.4499231786 -9.3624100954  2.0218562339
C   4.6229231786 -7.8924100954  3.8438562339
H   9.4019231786 -5.4264100954  11.4918562339
H   12.6559231786 -4.2864100954  8.8698562339
H   10.9139231786 -3.5004100954  7.1668562339
H   11.6349231786 -5.9564100954  11.7258562339
H   7.4899231786 -5.2364100954  10.8058562339
H   7.1529231786 -3.6004100954  7.9618562339
H   8.6499231786 -4.6514100954  6.0478562339
H   9.1019231786 -4.6974100954  3.8988562339
H   8.7689231786 -5.8194100954  1.6468562339
H   4.9959231786 -3.5234100954  5.0508562339
H   5.5659231786 -6.3904100954  0.2768562339
H   3.2599231786 -5.0644100954  2.5168562339
H   4.0059231786 -4.9524100954  0.9818562339
H   3.1069231786 -7.0664100954  0.8018562339
H   2.9479231786 -9.9134100954  2.8268562339
H   4.3809231786 -9.8834100954  1.7678562339
H   2.6679231786 -9.3244100954  1.2528562339
H   5.6039231786 -8.3644100954  3.9788562339
H   3.9759231786 -8.3594100954  4.5968562339
H   4.6239231786 -6.8724100954  4.2478562339
84
Scanning combination 65/256: [2.7000, 2.6000]  Energy = -385.9623469110
O   11.1233000000 -4.8002000000  5.0341000000
O   11.3873000000 -0.2652000000  3.3291000000
O   18.1143000000 -4.2382000000 -2.5629000000
O   15.0523000000 -3.1142000000  0.9841000000
C   13.0053000000 -3.3232000000  2.3291000000
C   12.6993000000 -1.9792000000  2.4491000000
C   12.3973000000 -4.3072000000  3.1831000000
C   11.6323000000 -1.5992000000  3.2951000000
C   11.4783000000 -3.8632000000  4.1231000000
C   11.0613000000 -2.4802000000  4.2331000000
C   10.1223000000 -1.9712000000  5.2561000000
C   10.5373000000 -1.3232000000  6.3251000000
C   9.8643000000 -1.0622000000  7.5921000000
C   8.6825000000 -1.0450000000  7.8959000000
C   10.8123000000 -0.2992000000  8.5731000000
C   14.6833000000 -4.8512000000 -0.4449000000
C   15.5183000000 -3.8012000000 -0.0889000000
C   16.6953000000 -3.5982000000 -0.8399000000
C   16.9703000000 -4.4882000000 -1.8899000000
C   16.1523000000 -5.5962000000 -2.2009000000
C   14.9513000000 -5.7522000000 -1.5279000000
C   13.6583000000 -4.8752000000  0.4711000000
C   13.8893000000 -3.7772000000  1.2511000000
H   13.1623000000 -1.2452000000  1.7971000000
H   12.5583000000 -5.3772000000  3.0881000000
H   11.7383000000 -5.5442000000  4.9131000000
H   11.8513000000  0.1658000000  2.5901000000
H   9.4643000000 -1.3292000000  4.6731000000
H   11.4933000000 -0.8182000000  6.2071000000
H   7.9073000000 -0.9712000000  7.1161000000
H   8.2313000000 -0.9072000000  8.8131000000
H   11.1183000000  0.6778000000  8.1811000000
H   11.7213000000 -0.7962000000  8.9311000000
H   10.3263000000 -0.0742000000  9.5301000000
H   17.3553000000 -2.7642000000 -0.6209000000
H   16.3753000000 -6.3042000000 -2.9929000000
H   14.4873000000 -6.7332000000 -1.5779000000
H   12.8783000000 -5.6272000000  0.4831000000
H   18.2613000000 -4.9422000000 -3.2189000000
C   9.7352117066 -5.0614291613  10.5656814967
O   12.0662117066 -5.4134291613  11.0536814967
C   11.0932117066 -4.9914291613  10.2076814967
O   7.5122117066 -4.5454291613  10.0936814967
C   11.5512117066 -4.3194291613  9.0276814967
O   6.2642117066 -2.5894291613  5.8936814967
C   10.5722117066 -3.8404291613  8.1706814967
O   4.5612117066 -3.8254291613  4.3266814967
C   9.1852117066 -3.9504291613  8.4376814967
O   6.4752117066 -6.1054291613  0.5066814967
C   8.7892117066 -4.5284291613  9.6566814967
C   8.0130117066 -3.5446291613  7.6439814967
C   8.3522117066 -3.5104291613  6.2866814967
C   7.1272117066 -3.3254291613  5.5086814967
C   6.9612117066 -4.1064291613  4.1996814967
C   8.0852117066 -4.6354291613  3.5076814967
C   5.6532117066 -4.2494291613  3.6296814967
C   7.9112117066 -5.3954291613  2.3386814967
C   5.4892117066 -5.0064291613  2.4366814967
C   6.6492117066 -5.4334291613  1.7506814967
C   4.0932117066 -5.3354291613  2.0196814967
C   3.7082117066 -6.7814291613  1.7306814967
C   3.8862117066 -7.8804291613  2.5356814967
C   3.4182117066 -9.2574291613  2.0846814967
C   4.5912117066 -7.7874291613  3.9066814967
H   9.3702117066 -5.3214291613  11.5546814967
H   12.6242117066 -4.1814291613  8.9326814967
H   10.8822117066 -3.3954291613  7.2296814967
H   11.6032117066 -5.8514291613  11.7886814967
H   7.4582117066 -5.1314291613  10.8686814967
H   7.1212117066 -3.4954291613  8.0246814967
H   8.6182117066 -4.5464291613  6.1106814967
H   9.0702117066 -4.5924291613  3.9616814967
H   8.7372117066 -5.7144291613  1.7096814967
H   4.9642117066 -3.4184291613  5.1136814967
H   5.5342117066 -6.2854291613  0.3396814967
H   3.2282117066 -4.9594291613  2.5796814967
H   3.9742117066 -4.8474291613  1.0446814967
H   3.0752117066 -6.9614291613  0.8646814967
H   2.9162117066 -9.8084291613  2.8896814967
H   4.3492117066 -9.7784291613  1.8306814967
H   2.6362117066 -9.2194291613  1.3156814967
H   5.5722117066 -8.2594291613  4.0416814967
H   3.9442117066 -8.2544291613  4.6596814967
H   4.5922117066 -6.7674291613  4.3106814967
84
Scanning combination 66/256: [2.7000, 2.5000]  Energy = -385.9540609117
O   11.1233000000 -4.8002000000  5.0341000000
O   11.3873000000 -0.2652000000  3.3291000000
O   18.1143000000 -4.2382000000 -2.5629000000
O   15.0523000000 -3.1142000000  0.9841000000
C   13.0053000000 -3.3232000000  2.3291000000
C   12.6993000000 -1.9792000000  2.4491000000
C   12.3973000000 -4.3072000000  3.1831000000
C   11.6323000000 -1.5992000000  3.2951000000
C   11.4783000000 -3.8632000000  4.1231000000
C   11.0613000000 -2.4802000000  4.2331000000
C   10.1223000000 -1.9712000000  5.2561000000
C   10.5373000000 -1.3232000000  6.3251000000
C   9.8643000000 -1.0622000000  7.5921000000
C   8.6825000000 -1.0450000000  7.8959000000
C   10.8123000000 -0.2992000000  8.5731000000
C   14.6833000000 -4.8512000000 -0.4449000000
C   15.5183000000 -3.8012000000 -0.0889000000
C   16.6953000000 -3.5982000000 -0.8399000000
C   16.9703000000 -4.4882000000 -1.8899000000
C   16.1523000000 -5.5962000000 -2.2009000000
C   14.9513000000 -5.7522000000 -1.5279000000
C   13.6583000000 -4.8752000000  0.4711000000
C   13.8893000000 -3.7772000000  1.2511000000
H   13.1623000000 -1.2452000000  1.7971000000
H   12.5583000000 -5.3772000000  3.0881000000
H   11.7383000000 -5.5442000000  4.9131000000
H   11.8513000000  0.1658000000  2.5901000000
H   9.4643000000 -1.3292000000  4.6731000000
H   11.4933000000 -0.8182000000  6.2071000000
H   7.9073000000 -0.9712000000  7.1161000000
H   8.2313000000 -0.9072000000  8.8131000000
H   11.1183000000  0.6778000000  8.1811000000
H   11.7213000000 -0.7962000000  8.9311000000
H   10.3263000000 -0.0742000000  9.5301000000
H   17.3553000000 -2.7642000000 -0.6209000000
H   16.3753000000 -6.3042000000 -2.9929000000
H   14.4873000000 -6.7332000000 -1.5779000000
H   12.8783000000 -5.6272000000  0.4831000000
H   18.2613000000 -4.9422000000 -3.2189000000
C   9.6967240789 -4.9525168698  10.6357396537
O   12.0277240789 -5.3045168698  11.1237396537
C   11.0547240789 -4.8825168698  10.2777396537
O   7.4737240789 -4.4365168698  10.1637396537
C   11.5127240789 -4.2105168698  9.0977396537
O   6.2257240789 -2.4805168698  5.9637396537
C   10.5337240789 -3.7315168698  8.2407396537
O   4.5227240789 -3.7165168698  4.3967396537
C   9.1467240789 -3.8415168698  8.5077396537
O   6.4367240789 -5.9965168698  0.5767396537
C   8.7507240789 -4.4195168698  9.7267396537
C   7.9745240789 -3.4357168698  7.7140396537
C   8.3137240789 -3.4015168698  6.3567396537
C   7.0887240789 -3.2165168698  5.5787396537
C   6.9227240789 -3.9975168698  4.2697396537
C   8.0467240789 -4.5265168698  3.5777396537
C   5.6147240789 -4.1405168698  3.6997396537
C   7.8727240789 -5.2865168698  2.4087396537
C   5.4507240789 -4.8975168698  2.5067396537
C   6.6107240789 -5.3245168698  1.8207396537
C   4.0547240789 -5.2265168698  2.0897396537
C   3.6697240789 -6.6725168698  1.8007396537
C   3.8477240789 -7.7715168698  2.6057396537
C   3.3797240789 -9.1485168698  2.1547396537
C   4.5527240789 -7.6785168698  3.9767396537
H   9.3317240789 -5.2125168698  11.6247396537
H   12.5857240789 -4.0725168698  9.0027396537
H   10.8437240789 -3.2865168698  7.2997396537
H   11.5647240789 -5.7425168698  11.8587396537
H   7.4197240789 -5.0225168698  10.9387396537
H   7.0827240789 -3.3865168698  8.0947396537
H   8.5797240789 -4.4375168698  6.1807396537
H   9.0317240789 -4.4835168698  4.0317396537
H   8.6987240789 -5.6055168698  1.7797396537
H   4.9257240789 -3.3095168698  5.1837396537
H   5.4957240789 -6.1765168698  0.4097396537
H   3.1897240789 -4.8505168698  2.6497396537
H   3.9357240789 -4.7385168698  1.1147396537
H   3.0367240789 -6.8525168698  0.9347396537
H   2.8777240789 -9.6995168698  2.9597396537
H   4.3107240789 -9.6695168698  1.9007396537
H   2.5977240789 -9.1105168698  1.3857396537
H   5.5337240789 -8.1505168698  4.1117396537
H   3.9057240789 -8.1455168698  4.7297396537
H   4.5537240789 -6.6585168698  4.3807396537
84
Scanning combination 67/256: [2.7000, 2.4000]  Energy = -385.9439114328
O   11.1233000000 -4.8002000000  5.0341000000
O   11.3873000000 -0.2652000000  3.3291000000
O   18.1143000000 -4.2382000000 -2.5629000000
O   15.0523000000 -3.1142000000  0.9841000000
C   13.0053000000 -3.3232000000  2.3291000000
C   12.6993000000 -1.9792000000  2.4491000000
C   12.3973000000 -4.3072000000  3.1831000000
C   11.6323000000 -1.5992000000  3.2951000000
C   11.4783000000 -3.8632000000  4.1231000000
C   11.0613000000 -2.4802000000  4.2331000000
C   10.1223000000 -1.9712000000  5.2561000000
C   10.5373000000 -1.3232000000  6.3251000000
C   9.8643000000 -1.0622000000  7.5921000000
C   8.6825000000 -1.0450000000  7.8959000000
C   10.8123000000 -0.2992000000  8.5731000000
C   14.6833000000 -4.8512000000 -0.4449000000
C   15.5183000000 -3.8012000000 -0.0889000000
C   16.6953000000 -3.5982000000 -0.8399000000
C   16.9703000000 -4.4882000000 -1.8899000000
C   16.1523000000 -5.5962000000 -2.2009000000
C   14.9513000000 -5.7522000000 -1.5279000000
C   13.6583000000 -4.8752000000  0.4711000000
C   13.8893000000 -3.7772000000  1.2511000000
H   13.1623000000 -1.2452000000  1.7971000000
H   12.5583000000 -5.3772000000  3.0881000000
H   11.7383000000 -5.5442000000  4.9131000000
H   11.8513000000  0.1658000000  2.5901000000
H   9.4643000000 -1.3292000000  4.6731000000
H   11.4933000000 -0.8182000000  6.2071000000
H   7.9073000000 -0.9712000000  7.1161000000
H   8.2313000000 -0.9072000000  8.8131000000
H   11.1183000000  0.6778000000  8.1811000000
H   11.7213000000 -0.7962000000  8.9311000000
H   10.3263000000 -0.0742000000  9.5301000000
H   17.3553000000 -2.7642000000 -0.6209000000
H   16.3753000000 -6.3042000000 -2.9929000000
H   14.4873000000 -6.7332000000 -1.5779000000
H   12.8783000000 -5.6272000000  0.4831000000
H   18.2613000000 -4.9422000000 -3.2189000000
C   9.6576361927 -4.8398750918  10.7075701128
O   11.9886361927 -5.1918750918  11.1955701128
C   11.0156361927 -4.7698750918  10.3495701128
O   7.4346361927 -4.3238750918  10.2355701128
C   11.4736361927 -4.0978750918  9.1695701128
O   6.1866361927 -2.3678750918  6.0355701128
C   10.4946361927 -3.6188750918  8.3125701128
O   4.4836361927 -3.6038750918  4.4685701128
C   9.1076361927 -3.7288750918  8.5795701128
O   6.3976361927 -5.8838750918  0.6485701128
C   8.7116361927 -4.3068750918  9.7985701128
C   7.9354361927 -3.3230750918  7.7858701128
C   8.2746361927 -3.2888750918  6.4285701128
C   7.0496361927 -3.1038750918  5.6505701128
C   6.8836361927 -3.8848750918  4.3415701128
C   8.0076361927 -4.4138750918  3.6495701128
C   5.5756361927 -4.0278750918  3.7715701128
C   7.8336361927 -5.1738750918  2.4805701128
C   5.4116361927 -4.7848750918  2.5785701128
C   6.5716361927 -5.2118750918  1.8925701128
C   4.0156361927 -5.1138750918  2.1615701128
C   3.6306361927 -6.5598750918  1.8725701128
C   3.8086361927 -7.6588750918  2.6775701128
C   3.3406361927 -9.0358750918  2.2265701128
C   4.5136361927 -7.5658750918  4.0485701128
H   9.2926361927 -5.0998750918  11.6965701128
H   12.5466361927 -3.9598750918  9.0745701128
H   10.8046361927 -3.1738750918  7.3715701128
H   11.5256361927 -5.6298750918  11.9305701128
H   7.3806361927 -4.9098750918  11.0105701128
H   7.0436361927 -3.2738750918  8.1665701128
H   8.5406361927 -4.3248750918  6.2525701128
H   8.9926361927 -4.3708750918  4.1035701128
H   8.6596361927 -5.4928750918  1.8515701128
H   4.8866361927 -3.1968750918  5.2555701128
H   5.4566361927 -6.0638750918  0.4815701128
H   3.1506361927 -4.7378750918  2.7215701128
H   3.8966361927 -4.6258750918  1.1865701128
H   2.9976361927 -6.7398750918  1.0065701128
H   2.8386361927 -9.5868750918  3.0315701128
H   4.2716361927 -9.5568750918  1.9725701128
H   2.5586361927 -8.9978750918  1.4575701128
H   5.4946361927 -8.0378750918  4.1835701128
H   3.8666361927 -8.0328750918  4.8015701128
H   4.5146361927 -6.5458750918  4.4525701128
84
Scanning combination 68/256: [2.7000, 2.3000]  Energy = -385.9311286207
O   11.1233000000 -4.8002000000  5.0341000000
O   11.3873000000 -0.2652000000  3.3291000000
O   18.1143000000 -4.2382000000 -2.5629000000
O   15.0523000000 -3.1142000000  0.9841000000
C   13.0053000000 -3.3232000000  2.3291000000
C   12.6993000000 -1.9792000000  2.4491000000
C   12.3973000000 -4.3072000000  3.1831000000
C   11.6323000000 -1.5992000000  3.2951000000
C   11.4783000000 -3.8632000000  4.1231000000
C   11.0613000000 -2.4802000000  4.2331000000
C   10.1223000000 -1.9712000000  5.2561000000
C   10.5373000000 -1.3232000000  6.3251000000
C   9.8643000000 -1.0622000000  7.5921000000
C   8.6825000000 -1.0450000000  7.8959000000
C   10.8123000000 -0.2992000000  8.5731000000
C   14.6833000000 -4.8512000000 -0.4449000000
C   15.5183000000 -3.8012000000 -0.0889000000
C   16.6953000000 -3.5982000000 -0.8399000000
C   16.9703000000 -4.4882000000 -1.8899000000
C   16.1523000000 -5.5962000000 -2.2009000000
C   14.9513000000 -5.7522000000 -1.5279000000
C   13.6583000000 -4.8752000000  0.4711000000
C   13.8893000000 -3.7772000000  1.2511000000
H   13.1623000000 -1.2452000000  1.7971000000
H   12.5583000000 -5.3772000000  3.0881000000
H   11.7383000000 -5.5442000000  4.9131000000
H   11.8513000000  0.1658000000  2.5901000000
H   9.4643000000 -1.3292000000  4.6731000000
H   11.4933000000 -0.8182000000  6.2071000000
H   7.9073000000 -0.9712000000  7.1161000000
H   8.2313000000 -0.9072000000  8.8131000000
H   11.1183000000  0.6778000000  8.1811000000
H   11.7213000000 -0.7962000000  8.9311000000
H   10.3263000000 -0.0742000000  9.5301000000
H   17.3553000000 -2.7642000000 -0.6209000000
H   16.3753000000 -6.3042000000 -2.9929000000
H   14.4873000000 -6.7332000000 -1.5779000000
H   12.8783000000 -5.6272000000  0.4831000000
H   18.2613000000 -4.9422000000 -3.2189000000
C   9.6214850005 -4.7239390018  10.7779386325
O   11.9524850005 -5.0759390018  11.2659386325
C   10.9794850005 -4.6539390018  10.4199386325
O   7.3984850005 -4.2079390018  10.3059386325
C   11.4374850005 -3.9819390018  9.2399386325
O   6.1504850005 -2.2519390018  6.1059386325
C   10.4584850005 -3.5029390018  8.3829386325
O   4.4474850005 -3.4879390018  4.5389386325
C   9.0714850005 -3.6129390018  8.6499386325
O   6.3614850005 -5.7679390018  0.7189386325
C   8.6754850005 -4.1909390018  9.8689386325
C   7.8992850005 -3.2071390018  7.8562386325
C   8.2384850005 -3.1729390018  6.4989386325
C   7.0134850005 -2.9879390018  5.7209386325
C   6.8474850005 -3.7689390018  4.4119386325
C   7.9714850005 -4.2979390018  3.7199386325
C   5.5394850005 -3.9119390018  3.8419386325
C   7.7974850005 -5.0579390018  2.5509386325
C   5.3754850005 -4.6689390018  2.6489386325
C   6.5354850005 -5.0959390018  1.9629386325
C   3.9794850005 -4.9979390018  2.2319386325
C   3.5944850005 -6.4439390018  1.9429386325
C   3.7724850005 -7.5429390018  2.7479386325
C   3.3044850005 -8.9199390018  2.2969386325
C   4.4774850005 -7.4499390018  4.1189386325
H   9.2564850005 -4.9839390018  11.7669386325
H   12.5104850005 -3.8439390018  9.1449386325
H   10.7684850005 -3.0579390018  7.4419386325
H   11.4894850005 -5.5139390018  12.0009386325
H   7.3444850005 -4.7939390018  11.0809386325
H   7.0074850005 -3.1579390018  8.2369386325
H   8.5044850005 -4.2089390018  6.3229386325
H   8.9564850005 -4.2549390018  4.1739386325
H   8.6234850005 -5.3769390018  1.9219386325
H   4.8504850005 -3.0809390018  5.3259386325
H   5.4204850005 -5.9479390018  0.5519386325
H   3.1144850005 -4.6219390018  2.7919386325
H   3.8604850005 -4.5099390018  1.2569386325
H   2.9614850005 -6.6239390018  1.0769386325
H   2.8024850005 -9.4709390018  3.1019386325
H   4.2354850005 -9.4409390018  2.0429386325
H   2.5224850005 -8.8819390018  1.5279386325
H   5.4584850005 -7.9219390018  4.2539386325
H   3.8304850005 -7.9169390018  4.8719386325
H   4.4784850005 -6.4299390018  4.5229386325
84
Scanning combination 69/256: [2.7000, 2.2000]  Energy = -385.9134670492
O   11.1233000000 -4.8002000000  5.0341000000
O   11.3873000000 -0.2652000000  3.3291000000
O   18.1143000000 -4.2382000000 -2.5629000000
O   15.0523000000 -3.1142000000  0.9841000000
C   13.0053000000 -3.3232000000  2.3291000000
C   12.6993000000 -1.9792000000  2.4491000000
C   12.3973000000 -4.3072000000  3.1831000000
C   11.6323000000 -1.5992000000  3.2951000000
C   11.4783000000 -3.8632000000  4.1231000000
C   11.0613000000 -2.4802000000  4.2331000000
C   10.1223000000 -1.9712000000  5.2561000000
C   10.5373000000 -1.3232000000  6.3251000000
C   9.8643000000 -1.0622000000  7.5921000000
C   8.6825000000 -1.0450000000  7.8959000000
C   10.8123000000 -0.2992000000  8.5731000000
C   14.6833000000 -4.8512000000 -0.4449000000
C   15.5183000000 -3.8012000000 -0.0889000000
C   16.6953000000 -3.5982000000 -0.8399000000
C   16.9703000000 -4.4882000000 -1.8899000000
C   16.1523000000 -5.5962000000 -2.2009000000
C   14.9513000000 -5.7522000000 -1.5279000000
C   13.6583000000 -4.8752000000  0.4711000000
C   13.8893000000 -3.7772000000  1.2511000000
H   13.1623000000 -1.2452000000  1.7971000000
H   12.5583000000 -5.3772000000  3.0881000000
H   11.7383000000 -5.5442000000  4.9131000000
H   11.8513000000  0.1658000000  2.5901000000
H   9.4643000000 -1.3292000000  4.6731000000
H   11.4933000000 -0.8182000000  6.2071000000
H   7.9073000000 -0.9712000000  7.1161000000
H   8.2313000000 -0.9072000000  8.8131000000
H   11.1183000000  0.6778000000  8.1811000000
H   11.7213000000 -0.7962000000  8.9311000000
H   10.3263000000 -0.0742000000  9.5301000000
H   17.3553000000 -2.7642000000 -0.6209000000
H   16.3753000000 -6.3042000000 -2.9929000000
H   14.4873000000 -6.7332000000 -1.5779000000
H   12.8783000000 -5.6272000000  0.4831000000
H   18.2613000000 -4.9422000000 -3.2189000000
C   9.5901451606 -4.6052280961  10.8450343302
O   11.9211451606 -4.9572280961  11.3330343302
C   10.9481451606 -4.5352280961  10.4870343302
O   7.3671451606 -4.0892280961  10.3730343302
C   11.4061451606 -3.8632280961  9.3070343302
O   6.1191451606 -2.1332280961  6.1730343302
C   10.4271451606 -3.3842280961  8.4500343302
O   4.4161451606 -3.3692280961  4.6060343302
C   9.0401451606 -3.4942280961  8.7170343302
O   6.3301451606 -5.6492280961  0.7860343302
C   8.6441451606 -4.0722280961  9.9360343302
C   7.8679451606 -3.0884280961  7.9233343302
C   8.2071451606 -3.0542280961  6.5660343302
C   6.9821451606 -2.8692280961  5.7880343302
C   6.8161451606 -3.6502280961  4.4790343302
C   7.9401451606 -4.1792280961  3.7870343302
C   5.5081451606 -3.7932280961  3.9090343302
C   7.7661451606 -4.9392280961  2.6180343302
C   5.3441451606 -4.5502280961  2.7160343302
C   6.5041451606 -4.9772280961  2.0300343302
C   3.9481451606 -4.8792280961  2.2990343302
C   3.5631451606 -6.3252280961  2.0100343302
C   3.7411451606 -7.4242280961  2.8150343302
C   3.2731451606 -8.8012280961  2.3640343302
C   4.4461451606 -7.3312280961  4.1860343302
H   9.2251451606 -4.8652280961  11.8340343302
H   12.4791451606 -3.7252280961  9.2120343302
H   10.7371451606 -2.9392280961  7.5090343302
H   11.4581451606 -5.3952280961  12.0680343302
H   7.3131451606 -4.6752280961  11.1480343302
H   6.9761451606 -3.0392280961  8.3040343302
H   8.4731451606 -4.0902280961  6.3900343302
H   8.9251451606 -4.1362280961  4.2410343302
H   8.5921451606 -5.2582280961  1.9890343302
H   4.8191451606 -2.9622280961  5.3930343302
H   5.3891451606 -5.8292280961  0.6190343302
H   3.0831451606 -4.5032280961  2.8590343302
H   3.8291451606 -4.3912280961  1.3240343302
H   2.9301451606 -6.5052280961  1.1440343302
H   2.7711451606 -9.3522280961  3.1690343302
H   4.2041451606 -9.3222280961  2.1100343302
H   2.4911451606 -8.7632280961  1.5950343302
H   5.4271451606 -7.8032280961  4.3210343302
H   3.7991451606 -7.7982280961  4.9390343302
H   4.4471451606 -6.3112280961  4.5900343302
84
Scanning combination 70/256: [2.7000, 2.1000]  Energy = -385.8904393908
O   11.1233000000 -4.8002000000  5.0341000000
O   11.3873000000 -0.2652000000  3.3291000000
O   18.1143000000 -4.2382000000 -2.5629000000
O   15.0523000000 -3.1142000000  0.9841000000
C   13.0053000000 -3.3232000000  2.3291000000
C   12.6993000000 -1.9792000000  2.4491000000
C   12.3973000000 -4.3072000000  3.1831000000
C   11.6323000000 -1.5992000000  3.2951000000
C   11.4783000000 -3.8632000000  4.1231000000
C   11.0613000000 -2.4802000000  4.2331000000
C   10.1223000000 -1.9712000000  5.2561000000
C   10.5373000000 -1.3232000000  6.3251000000
C   9.8643000000 -1.0622000000  7.5921000000
C   8.6825000000 -1.0450000000  7.8959000000
C   10.8123000000 -0.2992000000  8.5731000000
C   14.6833000000 -4.8512000000 -0.4449000000
C   15.5183000000 -3.8012000000 -0.0889000000
C   16.6953000000 -3.5982000000 -0.8399000000
C   16.9703000000 -4.4882000000 -1.8899000000
C   16.1523000000 -5.5962000000 -2.2009000000
C   14.9513000000 -5.7522000000 -1.5279000000
C   13.6583000000 -4.8752000000  0.4711000000
C   13.8893000000 -3.7772000000  1.2511000000
H   13.1623000000 -1.2452000000  1.7971000000
H   12.5583000000 -5.3772000000  3.0881000000
H   11.7383000000 -5.5442000000  4.9131000000
H   11.8513000000  0.1658000000  2.5901000000
H   9.4643000000 -1.3292000000  4.6731000000
H   11.4933000000 -0.8182000000  6.2071000000
H   7.9073000000 -0.9712000000  7.1161000000
H   8.2313000000 -0.9072000000  8.8131000000
H   11.1183000000  0.6778000000  8.1811000000
H   11.7213000000 -0.7962000000  8.9311000000
H   10.3263000000 -0.0742000000  9.5301000000
H   17.3553000000 -2.7642000000 -0.6209000000
H   16.3753000000 -6.3042000000 -2.9929000000
H   14.4873000000 -6.7332000000 -1.5779000000
H   12.8783000000 -5.6272000000  0.4831000000
H   18.2613000000 -4.9422000000 -3.2189000000
C   9.5645077148 -4.4842406374  10.9079123623
O   11.8955077148 -4.8362406374  11.3959123623
C   10.9225077148 -4.4142406374  10.5499123623
O   7.3415077148 -3.9682406374  10.4359123623
C   11.3805077148 -3.7422406374  9.3699123623
O   6.0935077148 -2.0122406374  6.2359123623
C   10.4015077148 -3.2632406374  8.5129123623
O   4.3905077148 -3.2482406374  4.6689123623
C   9.0145077148 -3.3732406374  8.7799123623
O   6.3045077148 -5.5282406374  0.8489123623
C   8.6185077148 -3.9512406374  9.9989123623
C   7.8423077148 -2.9674406374  7.9862123623
C   8.1815077148 -2.9332406374  6.6289123623
C   6.9565077148 -2.7482406374  5.8509123623
C   6.7905077148 -3.5292406374  4.5419123623
C   7.9145077148 -4.0582406374  3.8499123623
C   5.4825077148 -3.6722406374  3.9719123623
C   7.7405077148 -4.8182406374  2.6809123623
C   5.3185077148 -4.4292406374  2.7789123623
C   6.4785077148 -4.8562406374  2.0929123623
C   3.9225077148 -4.7582406374  2.3619123623
C   3.5375077148 -6.2042406374  2.0729123623
C   3.7155077148 -7.3032406374  2.8779123623
C   3.2475077148 -8.6802406374  2.4269123623
C   4.4205077148 -7.2102406374  4.2489123623
H   9.1995077148 -4.7442406374  11.8969123623
H   12.4535077148 -3.6042406374  9.2749123623
H   10.7115077148 -2.8182406374  7.5719123623
H   11.4325077148 -5.2742406374  12.1309123623
H   7.2875077148 -4.5542406374  11.2109123623
H   6.9505077148 -2.9182406374  8.3669123623
H   8.4475077148 -3.9692406374  6.4529123623
H   8.8995077148 -4.0152406374  4.3039123623
H   8.5665077148 -5.1372406374  2.0519123623
H   4.7935077148 -2.8412406374  5.4559123623
H   5.3635077148 -5.7082406374  0.6819123623
H   3.0575077148 -4.3822406374  2.9219123623
H   3.8035077148 -4.2702406374  1.3869123623
H   2.9045077148 -6.3842406374  1.2069123623
H   2.7455077148 -9.2312406374  3.2319123623
H   4.1785077148 -9.2012406374  2.1729123623
H   2.4655077148 -8.6422406374  1.6579123623
H   5.4015077148 -7.6822406374  4.3839123623
H   3.7735077148 -7.6772406374  5.0019123623
H   4.4215077148 -6.1902406374  4.6529123623
84
Scanning combination 71/256: [2.7000, 2.0000]  Energy = -385.8620058294
O   11.1233000000 -4.8002000000  5.0341000000
O   11.3873000000 -0.2652000000  3.3291000000
O   18.1143000000 -4.2382000000 -2.5629000000
O   15.0523000000 -3.1142000000  0.9841000000
C   13.0053000000 -3.3232000000  2.3291000000
C   12.6993000000 -1.9792000000  2.4491000000
C   12.3973000000 -4.3072000000  3.1831000000
C   11.6323000000 -1.5992000000  3.2951000000
C   11.4783000000 -3.8632000000  4.1231000000
C   11.0613000000 -2.4802000000  4.2331000000
C   10.1223000000 -1.9712000000  5.2561000000
C   10.5373000000 -1.3232000000  6.3251000000
C   9.8643000000 -1.0622000000  7.5921000000
C   8.6825000000 -1.0450000000  7.8959000000
C   10.8123000000 -0.2992000000  8.5731000000
C   14.6833000000 -4.8512000000 -0.4449000000
C   15.5183000000 -3.8012000000 -0.0889000000
C   16.6953000000 -3.5982000000 -0.8399000000
C   16.9703000000 -4.4882000000 -1.8899000000
C   16.1523000000 -5.5962000000 -2.2009000000
C   14.9513000000 -5.7522000000 -1.5279000000
C   13.6583000000 -4.8752000000  0.4711000000
C   13.8893000000 -3.7772000000  1.2511000000
H   13.1623000000 -1.2452000000  1.7971000000
H   12.5583000000 -5.3772000000  3.0881000000
H   11.7383000000 -5.5442000000  4.9131000000
H   11.8513000000  0.1658000000  2.5901000000
H   9.4643000000 -1.3292000000  4.6731000000
H   11.4933000000 -0.8182000000  6.2071000000
H   7.9073000000 -0.9712000000  7.1161000000
H   8.2313000000 -0.9072000000  8.8131000000
H   11.1183000000  0.6778000000  8.1811000000
H   11.7213000000 -0.7962000000  8.9311000000
H   10.3263000000 -0.0742000000  9.5301000000
H   17.3553000000 -2.7642000000 -0.6209000000
H   16.3753000000 -6.3042000000 -2.9929000000
H   14.4873000000 -6.7332000000 -1.5779000000
H   12.8783000000 -5.6272000000  0.4831000000
H   18.2613000000 -4.9422000000 -3.2189000000
C   9.5449246120 -4.3614088648  10.9661207375
O   11.8759246120 -4.7134088648  11.4541207375
C   10.9029246120 -4.2914088648  10.6081207375
O   7.3219246120 -3.8454088648  10.4941207375
C   11.3609246120 -3.6194088648  9.4281207375
O   6.0739246120 -1.8894088648  6.2941207375
C   10.3819246120 -3.1404088648  8.5711207375
O   4.3709246120 -3.1254088648  4.7271207375
C   8.9949246120 -3.2504088648  8.8381207375
O   6.2849246120 -5.4054088648  0.9071207375
C   8.5989246120 -3.8284088648  10.0571207375
C   7.8227246120 -2.8446088648  8.0444207375
C   8.1619246120 -2.8104088648  6.6871207375
C   6.9369246120 -2.6254088648  5.9091207375
C   6.7709246120 -3.4064088648  4.6001207375
C   7.8949246120 -3.9354088648  3.9081207375
C   5.4629246120 -3.5494088648  4.0301207375
C   7.7209246120 -4.6954088648  2.7391207375
C   5.2989246120 -4.3064088648  2.8371207375
C   6.4589246120 -4.7334088648  2.1511207375
C   3.9029246120 -4.6354088648  2.4201207375
C   3.5179246120 -6.0814088648  2.1311207375
C   3.6959246120 -7.1804088648  2.9361207375
C   3.2279246120 -8.5574088648  2.4851207375
C   4.4009246120 -7.0874088648  4.3071207375
H   9.1799246120 -4.6214088648  11.9551207375
H   12.4339246120 -3.4814088648  9.3331207375
H   10.6919246120 -2.6954088648  7.6301207375
H   11.4129246120 -5.1514088648  12.1891207375
H   7.2679246120 -4.4314088648  11.2691207375
H   6.9309246120 -2.7954088648  8.4251207375
H   8.4279246120 -3.8464088648  6.5111207375
H   8.8799246120 -3.8924088648  4.3621207375
H   8.5469246120 -5.0144088648  2.1101207375
H   4.7739246120 -2.7184088648  5.5141207375
H   5.3439246120 -5.5854088648  0.7401207375
H   3.0379246120 -4.2594088648  2.9801207375
H   3.7839246120 -4.1474088648  1.4451207375
H   2.8849246120 -6.2614088648  1.2651207375
H   2.7259246120 -9.1084088648  3.2901207375
H   4.1589246120 -9.0784088648  2.2311207375
H   2.4459246120 -8.5194088648  1.7161207375
H   5.3819246120 -7.5594088648  4.4421207375
H   3.7539246120 -7.5544088648  5.0601207375
H   4.4019246120 -6.0674088648  4.7111207375
84
Scanning combination 72/256: [2.7000, 1.9000]  Energy = -385.8256179090
O   11.1233000000 -4.8002000000  5.0341000000
O   11.3873000000 -0.2652000000  3.3291000000
O   18.1143000000 -4.2382000000 -2.5629000000
O   15.0523000000 -3.1142000000  0.9841000000
C   13.0053000000 -3.3232000000  2.3291000000
C   12.6993000000 -1.9792000000  2.4491000000
C   12.3973000000 -4.3072000000  3.1831000000
C   11.6323000000 -1.5992000000  3.2951000000
C   11.4783000000 -3.8632000000  4.1231000000
C   11.0613000000 -2.4802000000  4.2331000000
C   10.1223000000 -1.9712000000  5.2561000000
C   10.5373000000 -1.3232000000  6.3251000000
C   9.8643000000 -1.0622000000  7.5921000000
C   8.6825000000 -1.0450000000  7.8959000000
C   10.8123000000 -0.2992000000  8.5731000000
C   14.6833000000 -4.8512000000 -0.4449000000
C   15.5183000000 -3.8012000000 -0.0889000000
C   16.6953000000 -3.5982000000 -0.8399000000
C   16.9703000000 -4.4882000000 -1.8899000000
C   16.1523000000 -5.5962000000 -2.2009000000
C   14.9513000000 -5.7522000000 -1.5279000000
C   13.6583000000 -4.8752000000  0.4711000000
C   13.8893000000 -3.7772000000  1.2511000000
H   13.1623000000 -1.2452000000  1.7971000000
H   12.5583000000 -5.3772000000  3.0881000000
H   11.7383000000 -5.5442000000  4.9131000000
H   11.8513000000  0.1658000000  2.5901000000
H   9.4643000000 -1.3292000000  4.6731000000
H   11.4933000000 -0.8182000000  6.2071000000
H   7.9073000000 -0.9712000000  7.1161000000
H   8.2313000000 -0.9072000000  8.8131000000
H   11.1183000000  0.6778000000  8.1811000000
H   11.7213000000 -0.7962000000  8.9311000000
H   10.3263000000 -0.0742000000  9.5301000000
H   17.3553000000 -2.7642000000 -0.6209000000
H   16.3753000000 -6.3042000000 -2.9929000000
H   14.4873000000 -6.7332000000 -1.5779000000
H   12.8783000000 -5.6272000000  0.4831000000
H   18.2613000000 -4.9422000000 -3.2189000000
C   9.5314800180 -4.2370934881  11.0194652417
O   11.8624800180 -4.5890934881  11.5074652417
C   10.8894800180 -4.1670934881  10.6614652417
O   7.3084800180 -3.7210934881  10.5474652417
C   11.3474800180 -3.4950934881  9.4814652417
O   6.0604800180 -1.7650934881  6.3474652417
C   10.3684800180 -3.0160934881  8.6244652417
O   4.3574800180 -3.0010934881  4.7804652417
C   8.9814800180 -3.1260934881  8.8914652417
O   6.2714800180 -5.2810934881  0.9604652417
C   8.5854800180 -3.7040934881  10.1104652417
C   7.8092800180 -2.7202934881  8.0977652417
C   8.1484800180 -2.6860934881  6.7404652417
C   6.9234800180 -2.5010934881  5.9624652417
C   6.7574800180 -3.2820934881  4.6534652417
C   7.8814800180 -3.8110934881  3.9614652417
C   5.4494800180 -3.4250934881  4.0834652417
C   7.7074800180 -4.5710934881  2.7924652417
C   5.2854800180 -4.1820934881  2.8904652417
C   6.4454800180 -4.6090934881  2.2044652417
C   3.8894800180 -4.5110934881  2.4734652417
C   3.5044800180 -5.9570934881  2.1844652417
C   3.6824800180 -7.0560934881  2.9894652417
C   3.2144800180 -8.4330934881  2.5384652417
C   4.3874800180 -6.9630934881  4.3604652417
H   9.1664800180 -4.4970934881  12.0084652417
H   12.4204800180 -3.3570934881  9.3864652417
H   10.6784800180 -2.5710934881  7.6834652417
H   11.3994800180 -5.0270934881  12.2424652417
H   7.2544800180 -4.3070934881  11.3224652417
H   6.9174800180 -2.6710934881  8.4784652417
H   8.4144800180 -3.7220934881  6.5644652417
H   8.8664800180 -3.7680934881  4.4154652417
H   8.5334800180 -4.8900934881  2.1634652417
H   4.7604800180 -2.5940934881  5.5674652417
H   5.3304800180 -5.4610934881  0.7934652417
H   3.0244800180 -4.1350934881  3.0334652417
H   3.7704800180 -4.0230934881  1.4984652417
H   2.8714800180 -6.1370934881  1.3184652417
H   2.7124800180 -8.9840934881  3.3434652417
H   4.1454800180 -8.9540934881  2.2844652417
H   2.4324800180 -8.3950934881  1.7694652417
H   5.3684800180 -7.4350934881  4.4954652417
H   3.7404800180 -7.4300934881  5.1134652417
H   4.3884800180 -5.9430934881  4.7644652417
84
Scanning combination 73/256: [2.7000, 1.8000]  Energy = -385.7785021063
O   11.1233000000 -4.8002000000  5.0341000000
O   11.3873000000 -0.2652000000  3.3291000000
O   18.1143000000 -4.2382000000 -2.5629000000
O   15.0523000000 -3.1142000000  0.9841000000
C   13.0053000000 -3.3232000000  2.3291000000
C   12.6993000000 -1.9792000000  2.4491000000
C   12.3973000000 -4.3072000000  3.1831000000
C   11.6323000000 -1.5992000000  3.2951000000
C   11.4783000000 -3.8632000000  4.1231000000
C   11.0613000000 -2.4802000000  4.2331000000
C   10.1223000000 -1.9712000000  5.2561000000
C   10.5373000000 -1.3232000000  6.3251000000
C   9.8643000000 -1.0622000000  7.5921000000
C   8.6825000000 -1.0450000000  7.8959000000
C   10.8123000000 -0.2992000000  8.5731000000
C   14.6833000000 -4.8512000000 -0.4449000000
C   15.5183000000 -3.8012000000 -0.0889000000
C   16.6953000000 -3.5982000000 -0.8399000000
C   16.9703000000 -4.4882000000 -1.8899000000
C   16.1523000000 -5.5962000000 -2.2009000000
C   14.9513000000 -5.7522000000 -1.5279000000
C   13.6583000000 -4.8752000000  0.4711000000
C   13.8893000000 -3.7772000000  1.2511000000
H   13.1623000000 -1.2452000000  1.7971000000
H   12.5583000000 -5.3772000000  3.0881000000
H   11.7383000000 -5.5442000000  4.9131000000
H   11.8513000000  0.1658000000  2.5901000000
H   9.4643000000 -1.3292000000  4.6731000000
H   11.4933000000 -0.8182000000  6.2071000000
H   7.9073000000 -0.9712000000  7.1161000000
H   8.2313000000 -0.9072000000  8.8131000000
H   11.1183000000  0.6778000000  8.1811000000
H   11.7213000000 -0.7962000000  8.9311000000
H   10.3263000000 -0.0742000000  9.5301000000
H   17.3553000000 -2.7642000000 -0.6209000000
H   16.3753000000 -6.3042000000 -2.9929000000
H   14.4873000000 -6.7332000000 -1.5779000000
H   12.8783000000 -5.6272000000  0.4831000000
H   18.2613000000 -4.9422000000 -3.2189000000
C   9.5241450995 -4.1115953350  11.0678703760
O   11.8551450995 -4.4635953350  11.5558703760
C   10.8821450995 -4.0415953350  10.7098703760
O   7.3011450995 -3.5955953350  10.5958703760
C   11.3401450995 -3.3695953350  9.5298703760
O   6.0531450995 -1.6395953350  6.3958703760
C   10.3611450995 -2.8905953350  8.6728703760
O   4.3501450995 -2.8755953350  4.8288703760
C   8.9741450995 -3.0005953350  8.9398703760
O   6.2641450995 -5.1555953350  1.0088703760
C   8.5781450995 -3.5785953350  10.1588703760
C   7.8019450995 -2.5947953350  8.1461703760
C   8.1411450995 -2.5605953350  6.7888703760
C   6.9161450995 -2.3755953350  6.0108703760
C   6.7501450995 -3.1565953350  4.7018703760
C   7.8741450995 -3.6855953350  4.0098703760
C   5.4421450995 -3.2995953350  4.1318703760
C   7.7001450995 -4.4455953350  2.8408703760
C   5.2781450995 -4.0565953350  2.9388703760
C   6.4381450995 -4.4835953350  2.2528703760
C   3.8821450995 -4.3855953350  2.5218703760
C   3.4971450995 -5.8315953350  2.2328703760
C   3.6751450995 -6.9305953350  3.0378703760
C   3.2071450995 -8.3075953350  2.5868703760
C   4.3801450995 -6.8375953350  4.4088703760
H   9.1591450995 -4.3715953350  12.0568703760
H   12.4131450995 -3.2315953350  9.4348703760
H   10.6711450995 -2.4455953350  7.7318703760
H   11.3921450995 -4.9015953350  12.2908703760
H   7.2471450995 -4.1815953350  11.3708703760
H   6.9101450995 -2.5455953350  8.5268703760
H   8.4071450995 -3.5965953350  6.6128703760
H   8.8591450995 -3.6425953350  4.4638703760
H   8.5261450995 -4.7645953350  2.2118703760
H   4.7531450995 -2.4685953350  5.6158703760
H   5.3231450995 -5.3355953350  0.8418703760
H   3.0171450995 -4.0095953350  3.0818703760
H   3.7631450995 -3.8975953350  1.5468703760
H   2.8641450995 -6.0115953350  1.3668703760
H   2.7051450995 -8.8585953350  3.3918703760
H   4.1381450995 -8.8285953350  2.3328703760
H   2.4251450995 -8.2695953350  1.8178703760
H   5.3611450995 -7.3095953350  4.5438703760
H   3.7331450995 -7.3045953350  5.1618703760
H   4.3811450995 -5.8175953350  4.8128703760
84
Scanning combination 74/256: [2.7000, 1.7000]  Energy = -385.7227100130
O   11.1233000000 -4.8002000000  5.0341000000
O   11.3873000000 -0.2652000000  3.3291000000
O   18.1143000000 -4.2382000000 -2.5629000000
O   15.0523000000 -3.1142000000  0.9841000000
C   13.0053000000 -3.3232000000  2.3291000000
C   12.6993000000 -1.9792000000  2.4491000000
C   12.3973000000 -4.3072000000  3.1831000000
C   11.6323000000 -1.5992000000  3.2951000000
C   11.4783000000 -3.8632000000  4.1231000000
C   11.0613000000 -2.4802000000  4.2331000000
C   10.1223000000 -1.9712000000  5.2561000000
C   10.5373000000 -1.3232000000  6.3251000000
C   9.8643000000 -1.0622000000  7.5921000000
C   8.6825000000 -1.0450000000  7.8959000000
C   10.8123000000 -0.2992000000  8.5731000000
C   14.6833000000 -4.8512000000 -0.4449000000
C   15.5183000000 -3.8012000000 -0.0889000000
C   16.6953000000 -3.5982000000 -0.8399000000
C   16.9703000000 -4.4882000000 -1.8899000000
C   16.1523000000 -5.5962000000 -2.2009000000
C   14.9513000000 -5.7522000000 -1.5279000000
C   13.6583000000 -4.8752000000  0.4711000000
C   13.8893000000 -3.7772000000  1.2511000000
H   13.1623000000 -1.2452000000  1.7971000000
H   12.5583000000 -5.3772000000  3.0881000000
H   11.7383000000 -5.5442000000  4.9131000000
H   11.8513000000  0.1658000000  2.5901000000
H   9.4643000000 -1.3292000000  4.6731000000
H   11.4933000000 -0.8182000000  6.2071000000
H   7.9073000000 -0.9712000000  7.1161000000
H   8.2313000000 -0.9072000000  8.8131000000
H   11.1183000000  0.6778000000  8.1811000000
H   11.7213000000 -0.7962000000  8.9311000000
H   10.3263000000 -0.0742000000  9.5301000000
H   17.3553000000 -2.7642000000 -0.6209000000
H   16.3753000000 -6.3042000000 -2.9929000000
H   14.4873000000 -6.7332000000 -1.5779000000
H   12.8783000000 -5.6272000000  0.4831000000
H   18.2613000000 -4.9422000000 -3.2189000000
C   9.5228616381 -3.9851711227  11.1113010647
O   11.8538616381 -4.3371711227  11.5993010647
C   10.8808616381 -3.9151711227  10.7533010647
O   7.2998616381 -3.4691711227  10.6393010647
C   11.3388616381 -3.2431711227  9.5733010647
O   6.0518616381 -1.5131711227  6.4393010647
C   10.3598616381 -2.7641711227  8.7163010647
O   4.3488616381 -2.7491711227  4.8723010647
C   8.9728616381 -2.8741711227  8.9833010647
O   6.2628616381 -5.0291711227  1.0523010647
C   8.5768616381 -3.4521711227  10.2023010647
C   7.8006616381 -2.4683711227  8.1896010647
C   8.1398616381 -2.4341711227  6.8323010647
C   6.9148616381 -2.2491711227  6.0543010647
C   6.7488616381 -3.0301711227  4.7453010647
C   7.8728616381 -3.5591711227  4.0533010647
C   5.4408616381 -3.1731711227  4.1753010647
C   7.6988616381 -4.3191711227  2.8843010647
C   5.2768616381 -3.9301711227  2.9823010647
C   6.4368616381 -4.3571711227  2.2963010647
C   3.8808616381 -4.2591711227  2.5653010647
C   3.4958616381 -5.7051711227  2.2763010647
C   3.6738616381 -6.8041711227  3.0813010647
C   3.2058616381 -8.1811711227  2.6303010647
C   4.3788616381 -6.7111711227  4.4523010647
H   9.1578616381 -4.2451711227  12.1003010647
H   12.4118616381 -3.1051711227  9.4783010647
H   10.6698616381 -2.3191711227  7.7753010647
H   11.3908616381 -4.7751711227  12.3343010647
H   7.2458616381 -4.0551711227  11.4143010647
H   6.9088616381 -2.4191711227  8.5703010647
H   8.4058616381 -3.4701711227  6.6563010647
H   8.8578616381 -3.5161711227  4.5073010647
H   8.5248616381 -4.6381711227  2.2553010647
H   4.7518616381 -2.3421711227  5.6593010647
H   5.3218616381 -5.2091711227  0.8853010647
H   3.0158616381 -3.8831711227  3.1253010647
H   3.7618616381 -3.7711711227  1.5903010647
H   2.8628616381 -5.8851711227  1.4103010647
H   2.7038616381 -8.7321711227  3.4353010647
H   4.1368616381 -8.7021711227  2.3763010647
H   2.4238616381 -8.1431711227  1.8613010647
H   5.3598616381 -7.1831711227  4.5873010647
H   3.7318616381 -7.1781711227  5.2053010647
H   4.3798616381 -5.6911711227  4.8563010647
84
Scanning combination 75/256: [2.7000, 1.6000]  Energy = -385.6508225199
O   11.1233000000 -4.8002000000  5.0341000000
O   11.3873000000 -0.2652000000  3.3291000000
O   18.1143000000 -4.2382000000 -2.5629000000
O   15.0523000000 -3.1142000000  0.9841000000
C   13.0053000000 -3.3232000000  2.3291000000
C   12.6993000000 -1.9792000000  2.4491000000
C   12.3973000000 -4.3072000000  3.1831000000
C   11.6323000000 -1.5992000000  3.2951000000
C   11.4783000000 -3.8632000000  4.1231000000
C   11.0613000000 -2.4802000000  4.2331000000
C   10.1223000000 -1.9712000000  5.2561000000
C   10.5373000000 -1.3232000000  6.3251000000
C   9.8643000000 -1.0622000000  7.5921000000
C   8.6825000000 -1.0450000000  7.8959000000
C   10.8123000000 -0.2992000000  8.5731000000
C   14.6833000000 -4.8512000000 -0.4449000000
C   15.5183000000 -3.8012000000 -0.0889000000
C   16.6953000000 -3.5982000000 -0.8399000000
C   16.9703000000 -4.4882000000 -1.8899000000
C   16.1523000000 -5.5962000000 -2.2009000000
C   14.9513000000 -5.7522000000 -1.5279000000
C   13.6583000000 -4.8752000000  0.4711000000
C   13.8893000000 -3.7772000000  1.2511000000
H   13.1623000000 -1.2452000000  1.7971000000
H   12.5583000000 -5.3772000000  3.0881000000
H   11.7383000000 -5.5442000000  4.9131000000
H   11.8513000000  0.1658000000  2.5901000000
H   9.4643000000 -1.3292000000  4.6731000000
H   11.4933000000 -0.8182000000  6.2071000000
H   7.9073000000 -0.9712000000  7.1161000000
H   8.2313000000 -0.9072000000  8.8131000000
H   11.1183000000  0.6778000000  8.1811000000
H   11.7213000000 -0.7962000000  8.9311000000
H   10.3263000000 -0.0742000000  9.5301000000
H   17.3553000000 -2.7642000000 -0.6209000000
H   16.3753000000 -6.3042000000 -2.9929000000
H   14.4873000000 -6.7332000000 -1.5779000000
H   12.8783000000 -5.6272000000  0.4831000000
H   18.2613000000 -4.9422000000 -3.2189000000
C   9.5275861884 -3.8580482777  11.1497191339
O   11.8585861884 -4.2100482777  11.6377191339
C   10.8855861884 -3.7880482777  10.7917191339
O   7.3045861884 -3.3420482777  10.6777191339
C   11.3435861884 -3.1160482777  9.6117191339
O   6.0565861884 -1.3860482777  6.4777191339
C   10.3645861884 -2.6370482777  8.7547191339
O   4.3535861884 -2.6220482777  4.9107191339
C   8.9775861884 -2.7470482777  9.0217191339
O   6.2675861884 -4.9020482777  1.0907191339
C   8.5815861884 -3.3250482777  10.2407191339
C   7.8053861884 -2.3412482777  8.2280191339
C   8.1445861884 -2.3070482777  6.8707191339
C   6.9195861884 -2.1220482777  6.0927191339
C   6.7535861884 -2.9030482777  4.7837191339
C   7.8775861884 -3.4320482777  4.0917191339
C   5.4455861884 -3.0460482777  4.2137191339
C   7.7035861884 -4.1920482777  2.9227191339
C   5.2815861884 -3.8030482777  3.0207191339
C   6.4415861884 -4.2300482777  2.3347191339
C   3.8855861884 -4.1320482777  2.6037191339
C   3.5005861884 -5.5780482777  2.3147191339
C   3.6785861884 -6.6770482777  3.1197191339
C   3.2105861884 -8.0540482777  2.6687191339
C   4.3835861884 -6.5840482777  4.4907191339
H   9.1625861884 -4.1180482777  12.1387191339
H   12.4165861884 -2.9780482777  9.5167191339
H   10.6745861884 -2.1920482777  7.8137191339
H   11.3955861884 -4.6480482777  12.3727191339
H   7.2505861884 -3.9280482777  11.4527191339
H   6.9135861884 -2.2920482777  8.6087191339
H   8.4105861884 -3.3430482777  6.6947191339
H   8.8625861884 -3.3890482777  4.5457191339
H   8.5295861884 -4.5110482777  2.2937191339
H   4.7565861884 -2.2150482777  5.6977191339
H   5.3265861884 -5.0820482777  0.9237191339
H   3.0205861884 -3.7560482777  3.1637191339
H   3.7665861884 -3.6440482777  1.6287191339
H   2.8675861884 -5.7580482777  1.4487191339
H   2.7085861884 -8.6050482777  3.4737191339
H   4.1415861884 -8.5750482777  2.4147191339
H   2.4285861884 -8.0160482777  1.8997191339
H   5.3645861884 -7.0560482777  4.6257191339
H   3.7365861884 -7.0510482777  5.2437191339
H   4.3845861884 -5.5640482777  4.8947191339
84
Scanning combination 76/256: [2.7000, 1.5000]  Energy = -385.5484017130
O   11.1233000000 -4.8002000000  5.0341000000
O   11.3873000000 -0.2652000000  3.3291000000
O   18.1143000000 -4.2382000000 -2.5629000000
O   15.0523000000 -3.1142000000  0.9841000000
C   13.0053000000 -3.3232000000  2.3291000000
C   12.6993000000 -1.9792000000  2.4491000000
C   12.3973000000 -4.3072000000  3.1831000000
C   11.6323000000 -1.5992000000  3.2951000000
C   11.4783000000 -3.8632000000  4.1231000000
C   11.0613000000 -2.4802000000  4.2331000000
C   10.1223000000 -1.9712000000  5.2561000000
C   10.5373000000 -1.3232000000  6.3251000000
C   9.8643000000 -1.0622000000  7.5921000000
C   8.6825000000 -1.0450000000  7.8959000000
C   10.8123000000 -0.2992000000  8.5731000000
C   14.6833000000 -4.8512000000 -0.4449000000
C   15.5183000000 -3.8012000000 -0.0889000000
C   16.6953000000 -3.5982000000 -0.8399000000
C   16.9703000000 -4.4882000000 -1.8899000000
C   16.1523000000 -5.5962000000 -2.2009000000
C   14.9513000000 -5.7522000000 -1.5279000000
C   13.6583000000 -4.8752000000  0.4711000000
C   13.8893000000 -3.7772000000  1.2511000000
H   13.1623000000 -1.2452000000  1.7971000000
H   12.5583000000 -5.3772000000  3.0881000000
H   11.7383000000 -5.5442000000  4.9131000000
H   11.8513000000  0.1658000000  2.5901000000
H   9.4643000000 -1.3292000000  4.6731000000
H   11.4933000000 -0.8182000000  6.2071000000
H   7.9073000000 -0.9712000000  7.1161000000
H   8.2313000000 -0.9072000000  8.8131000000
H   11.1183000000  0.6778000000  8.1811000000
H   11.7213000000 -0.7962000000  8.9311000000
H   10.3263000000 -0.0742000000  9.5301000000
H   17.3553000000 -2.7642000000 -0.6209000000
H   16.3753000000 -6.3042000000 -2.9929000000
H   14.4873000000 -6.7332000000 -1.5779000000
H   12.8783000000 -5.6272000000  0.4831000000
H   18.2613000000 -4.9422000000 -3.2189000000
C   9.5383147883 -3.7304384549  11.1830572097
O   11.8693147883 -4.0824384549  11.6710572097
C   10.8963147883 -3.6604384549  10.8250572097
O   7.3153147883 -3.2144384549  10.7110572097
C   11.3543147883 -2.9884384549  9.6450572097
O   6.0673147883 -1.2584384549  6.5110572097
C   10.3753147883 -2.5094384549  8.7880572097
O   4.3643147883 -2.4944384549  4.9440572097
C   8.9883147883 -2.6194384549  9.0550572097
O   6.2783147883 -4.7744384549  1.1240572097
C   8.5923147883 -3.1974384549  10.2740572097
C   7.8161147883 -2.2136384549  8.2613572097
C   8.1553147883 -2.1794384549  6.9040572097
C   6.9303147883 -1.9944384549  6.1260572097
C   6.7643147883 -2.7754384549  4.8170572097
C   7.8883147883 -3.3044384549  4.1250572097
C   5.4563147883 -2.9184384549  4.2470572097
C   7.7143147883 -4.0644384549  2.9560572097
C   5.2923147883 -3.6754384549  3.0540572097
C   6.4523147883 -4.1024384549  2.3680572097
C   3.8963147883 -4.0044384549  2.6370572097
C   3.5113147883 -5.4504384549  2.3480572097
C   3.6893147883 -6.5494384549  3.1530572097
C   3.2213147883 -7.9264384549  2.7020572097
C   4.3943147883 -6.4564384549  4.5240572097
H   9.1733147883 -3.9904384549  12.1720572097
H   12.4273147883 -2.8504384549  9.5500572097
H   10.6853147883 -2.0644384549  7.8470572097
H   11.4063147883 -4.5204384549  12.4060572097
H   7.2613147883 -3.8004384549  11.4860572097
H   6.9243147883 -2.1644384549  8.6420572097
H   8.4213147883 -3.2154384549  6.7280572097
H   8.8733147883 -3.2614384549  4.5790572097
H   8.5403147883 -4.3834384549  2.3270572097
H   4.7673147883 -2.0874384549  5.7310572097
H   5.3373147883 -4.9544384549  0.9570572097
H   3.0313147883 -3.6284384549  3.1970572097
H   3.7773147883 -3.5164384549  1.6620572097
H   2.8783147883 -5.6304384549  1.4820572097
H   2.7193147883 -8.4774384549  3.5070572097
H   4.1523147883 -8.4474384549  2.4480572097
H   2.4393147883 -7.8884384549  1.9330572097
H   5.3753147883 -6.9284384549  4.6590572097
H   3.7473147883 -6.9234384549  5.2770572097
H   4.3953147883 -5.4364384549  4.9280572097
84
Scanning combination 77/256: [2.6000, 2.9000]  Energy = -385.9758440252
O   11.1233000000 -4.8002000000  5.0341000000
O   11.3873000000 -0.2652000000  3.3291000000
O   18.1143000000 -4.2382000000 -2.5629000000
O   15.0523000000 -3.1142000000  0.9841000000
C   13.0053000000 -3.3232000000  2.3291000000
C   12.6993000000 -1.9792000000  2.4491000000
C   12.3973000000 -4.3072000000  3.1831000000
C   11.6323000000 -1.5992000000  3.2951000000
C   11.4783000000 -3.8632000000  4.1231000000
C   11.0613000000 -2.4802000000  4.2331000000
C   10.1223000000 -1.9712000000  5.2561000000
C   10.5373000000 -1.3232000000  6.3251000000
C   9.8643000000 -1.0622000000  7.5921000000
C   8.6825000000 -1.0450000000  7.8959000000
C   10.8123000000 -0.2992000000  8.5731000000
C   14.6833000000 -4.8512000000 -0.4449000000
C   15.5183000000 -3.8012000000 -0.0889000000
C   16.6953000000 -3.5982000000 -0.8399000000
C   16.9703000000 -4.4882000000 -1.8899000000
C   16.1523000000 -5.5962000000 -2.2009000000
C   14.9513000000 -5.7522000000 -1.5279000000
C   13.6583000000 -4.8752000000  0.4711000000
C   13.8893000000 -3.7772000000  1.2511000000
H   13.1623000000 -1.2452000000  1.7971000000
H   12.5583000000 -5.3772000000  3.0881000000
H   11.7383000000 -5.5442000000  4.9131000000
H   11.8513000000  0.1658000000  2.5901000000
H   9.4643000000 -1.3292000000  4.6731000000
H   11.4933000000 -0.8182000000  6.2071000000
H   7.9073000000 -0.9712000000  7.1161000000
H   8.2313000000 -0.9072000000  8.8131000000
H   11.1183000000  0.6778000000  8.1811000000
H   11.7213000000 -0.7962000000  8.9311000000
H   10.3263000000 -0.0742000000  9.5301000000
H   17.3553000000 -2.7642000000 -0.6209000000
H   16.3753000000 -6.3042000000 -2.9929000000
H   14.4873000000 -6.7332000000 -1.5779000000
H   12.8783000000 -5.6272000000  0.4831000000
H   18.2613000000 -4.9422000000 -3.2189000000
C   9.8714578301 -5.3724659066  10.3426126000
O   12.2024578301 -5.7244659066  10.8306126000
C   11.2294578301 -5.3024659066  9.9846126000
O   7.6484578301 -4.8564659066  9.8706126000
C   11.6874578301 -4.6304659066  8.8046126000
O   6.4004578301 -2.9004659066  5.6706126000
C   10.7084578301 -4.1514659066  7.9476126000
O   4.6974578301 -4.1364659066  4.1036126000
C   9.3214578301 -4.2614659066  8.2146126000
O   6.6114578301 -6.4164659066  0.2836126000
C   8.9254578301 -4.8394659066  9.4336126000
C   8.1492578301 -3.8556659066  7.4209126000
C   8.4884578301 -3.8214659066  6.0636126000
C   7.2634578301 -3.6364659066  5.2856126000
C   7.0974578301 -4.4174659066  3.9766126000
C   8.2214578301 -4.9464659066  3.2846126000
C   5.7894578301 -4.5604659066  3.4066126000
C   8.0474578301 -5.7064659066  2.1156126000
C   5.6254578301 -5.3174659066  2.2136126000
C   6.7854578301 -5.7444659066  1.5276126000
C   4.2294578301 -5.6464659066  1.7966126000
C   3.8444578301 -7.0924659066  1.5076126000
C   4.0224578301 -8.1914659066  2.3126126000
C   3.5544578301 -9.5684659066  1.8616126000
C   4.7274578301 -8.0984659066  3.6836126000
H   9.5064578301 -5.6324659066  11.3316126000
H   12.7604578301 -4.4924659066  8.7096126000
H   11.0184578301 -3.7064659066  7.0066126000
H   11.7394578301 -6.1624659066  11.5656126000
H   7.5944578301 -5.4424659066  10.6456126000
H   7.2574578301 -3.8064659066  7.8016126000
H   8.7544578301 -4.8574659066  5.8876126000
H   9.2064578301 -4.9034659066  3.7386126000
H   8.8734578301 -6.0254659066  1.4866126000
H   5.1004578301 -3.7294659066  4.8906126000
H   5.6704578301 -6.5964659066  0.1166126000
H   3.3644578301 -5.2704659066  2.3566126000
H   4.1104578301 -5.1584659066  0.8216126000
H   3.2114578301 -7.2724659066  0.6416126000
H   3.0524578301 -10.1194659066  2.6666126000
H   4.4854578301 -10.0894659066  1.6076126000
H   2.7724578301 -9.5304659066  1.0926126000
H   5.7084578301 -8.5704659066  3.8186126000
H   4.0804578301 -8.5654659066  4.4366126000
H   4.7284578301 -7.0784659066  4.0876126000
84
Scanning combination 78/256: [2.6000, 2.8000]  Energy = -385.9722093340
O   11.1233000000 -4.8002000000  5.0341000000
O   11.3873000000 -0.2652000000  3.3291000000
O   18.1143000000 -4.2382000000 -2.5629000000
O   15.0523000000 -3.1142000000  0.9841000000
C   13.0053000000 -3.3232000000  2.3291000000
C   12.6993000000 -1.9792000000  2.4491000000
C   12.3973000000 -4.3072000000  3.1831000000
C   11.6323000000 -1.5992000000  3.2951000000
C   11.4783000000 -3.8632000000  4.1231000000
C   11.0613000000 -2.4802000000  4.2331000000
C   10.1223000000 -1.9712000000  5.2561000000
C   10.5373000000 -1.3232000000  6.3251000000
C   9.8643000000 -1.0622000000  7.5921000000
C   8.6825000000 -1.0450000000  7.8959000000
C   10.8123000000 -0.2992000000  8.5731000000
C   14.6833000000 -4.8512000000 -0.4449000000
C   15.5183000000 -3.8012000000 -0.0889000000
C   16.6953000000 -3.5982000000 -0.8399000000
C   16.9703000000 -4.4882000000 -1.8899000000
C   16.1523000000 -5.5962000000 -2.2009000000
C   14.9513000000 -5.7522000000 -1.5279000000
C   13.6583000000 -4.8752000000  0.4711000000
C   13.8893000000 -3.7772000000  1.2511000000
H   13.1623000000 -1.2452000000  1.7971000000
H   12.5583000000 -5.3772000000  3.0881000000
H   11.7383000000 -5.5442000000  4.9131000000
H   11.8513000000  0.1658000000  2.5901000000
H   9.4643000000 -1.3292000000  4.6731000000
H   11.4933000000 -0.8182000000  6.2071000000
H   7.9073000000 -0.9712000000  7.1161000000
H   8.2313000000 -0.9072000000  8.8131000000
H   11.1183000000  0.6778000000  8.1811000000
H   11.7213000000 -0.7962000000  8.9311000000
H   10.3263000000 -0.0742000000  9.5301000000
H   17.3553000000 -2.7642000000 -0.6209000000
H   16.3753000000 -6.3042000000 -2.9929000000
H   14.4873000000 -6.7332000000 -1.5779000000
H   12.8783000000 -5.6272000000  0.4831000000
H   18.2613000000 -4.9422000000 -3.2189000000
C   9.8884609148 -5.2754894177  10.3602196090
O   12.2194609148 -5.6274894177  10.8482196090
C   11.2464609148 -5.2054894177  10.0022196090
O   7.6654609148 -4.7594894177  9.8882196090
C   11.7044609148 -4.5334894177  8.8222196090
O   6.4174609148 -2.8034894177  5.6882196090
C   10.7254609148 -4.0544894177  7.9652196090
O   4.7144609148 -4.0394894177  4.1212196090
C   9.3384609148 -4.1644894177  8.2322196090
O   6.6284609148 -6.3194894177  0.3012196090
C   8.9424609148 -4.7424894177  9.4512196090
C   8.1662609148 -3.7586894177  7.4385196090
C   8.5054609148 -3.7244894177  6.0812196090
C   7.2804609148 -3.5394894177  5.3032196090
C   7.1144609148 -4.3204894177  3.9942196090
C   8.2384609148 -4.8494894177  3.3022196090
C   5.8064609148 -4.4634894177  3.4242196090
C   8.0644609148 -5.6094894177  2.1332196090
C   5.6424609148 -5.2204894177  2.2312196090
C   6.8024609148 -5.6474894177  1.5452196090
C   4.2464609148 -5.5494894177  1.8142196090
C   3.8614609148 -6.9954894177  1.5252196090
C   4.0394609148 -8.0944894177  2.3302196090
C   3.5714609148 -9.4714894177  1.8792196090
C   4.7444609148 -8.0014894177  3.7012196090
H   9.5234609148 -5.5354894177  11.3492196090
H   12.7774609148 -4.3954894177  8.7272196090
H   11.0354609148 -3.6094894177  7.0242196090
H   11.7564609148 -6.0654894177  11.5832196090
H   7.6114609148 -5.3454894177  10.6632196090
H   7.2744609148 -3.7094894177  7.8192196090
H   8.7714609148 -4.7604894177  5.9052196090
H   9.2234609148 -4.8064894177  3.7562196090
H   8.8904609148 -5.9284894177  1.5042196090
H   5.1174609148 -3.6324894177  4.9082196090
H   5.6874609148 -6.4994894177  0.1342196090
H   3.3814609148 -5.1734894177  2.3742196090
H   4.1274609148 -5.0614894177  0.8392196090
H   3.2284609148 -7.1754894177  0.6592196090
H   3.0694609148 -10.0224894177  2.6842196090
H   4.5024609148 -9.9924894177  1.6252196090
H   2.7894609148 -9.4334894177  1.1102196090
H   5.7254609148 -8.4734894177  3.8362196090
H   4.0974609148 -8.4684894177  4.4542196090
H   4.7454609148 -6.9814894177  4.1052196090
84
Scanning combination 79/256: [2.6000, 2.7000]  Energy = -385.9678200479
O   11.1233000000 -4.8002000000  5.0341000000
O   11.3873000000 -0.2652000000  3.3291000000
O   18.1143000000 -4.2382000000 -2.5629000000
O   15.0523000000 -3.1142000000  0.9841000000
C   13.0053000000 -3.3232000000  2.3291000000
C   12.6993000000 -1.9792000000  2.4491000000
C   12.3973000000 -4.3072000000  3.1831000000
C   11.6323000000 -1.5992000000  3.2951000000
C   11.4783000000 -3.8632000000  4.1231000000
C   11.0613000000 -2.4802000000  4.2331000000
C   10.1223000000 -1.9712000000  5.2561000000
C   10.5373000000 -1.3232000000  6.3251000000
C   9.8643000000 -1.0622000000  7.5921000000
C   8.6825000000 -1.0450000000  7.8959000000
C   10.8123000000 -0.2992000000  8.5731000000
C   14.6833000000 -4.8512000000 -0.4449000000
C   15.5183000000 -3.8012000000 -0.0889000000
C   16.6953000000 -3.5982000000 -0.8399000000
C   16.9703000000 -4.4882000000 -1.8899000000
C   16.1523000000 -5.5962000000 -2.2009000000
C   14.9513000000 -5.7522000000 -1.5279000000
C   13.6583000000 -4.8752000000  0.4711000000
C   13.8893000000 -3.7772000000  1.2511000000
H   13.1623000000 -1.2452000000  1.7971000000
H   12.5583000000 -5.3772000000  3.0881000000
H   11.7383000000 -5.5442000000  4.9131000000
H   11.8513000000  0.1658000000  2.5901000000
H   9.4643000000 -1.3292000000  4.6731000000
H   11.4933000000 -0.8182000000  6.2071000000
H   7.9073000000 -0.9712000000  7.1161000000
H   8.2313000000 -0.9072000000  8.8131000000
H   11.1183000000  0.6778000000  8.1811000000
H   11.7213000000 -0.7962000000  8.9311000000
H   10.3263000000 -0.0742000000  9.5301000000
H   17.3553000000 -2.7642000000 -0.6209000000
H   16.3753000000 -6.3042000000 -2.9929000000
H   14.4873000000 -6.7332000000 -1.5779000000
H   12.8783000000 -5.6272000000  0.4831000000
H   18.2613000000 -4.9422000000 -3.2189000000
C   9.8705678515 -5.1766612456  10.4089189807
O   12.2015678515 -5.5286612456  10.8969189807
C   11.2285678515 -5.1066612456  10.0509189807
O   7.6475678515 -4.6606612456  9.9369189807
C   11.6865678515 -4.4346612456  8.8709189807
O   6.3995678515 -2.7046612456  5.7369189807
C   10.7075678515 -3.9556612456  8.0139189807
O   4.6965678515 -3.9406612456  4.1699189807
C   9.3205678515 -4.0656612456  8.2809189807
O   6.6105678515 -6.2206612456  0.3499189807
C   8.9245678515 -4.6436612456  9.4999189807
C   8.1483678515 -3.6598612456  7.4872189807
C   8.4875678515 -3.6256612456  6.1299189807
C   7.2625678515 -3.4406612456  5.3519189807
C   7.0965678515 -4.2216612456  4.0429189807
C   8.2205678515 -4.7506612456  3.3509189807
C   5.7885678515 -4.3646612456  3.4729189807
C   8.0465678515 -5.5106612456  2.1819189807
C   5.6245678515 -5.1216612456  2.2799189807
C   6.7845678515 -5.5486612456  1.5939189807
C   4.2285678515 -5.4506612456  1.8629189807
C   3.8435678515 -6.8966612456  1.5739189807
C   4.0215678515 -7.9956612456  2.3789189807
C   3.5535678515 -9.3726612456  1.9279189807
C   4.7265678515 -7.9026612456  3.7499189807
H   9.5055678515 -5.4366612456  11.3979189807
H   12.7595678515 -4.2966612456  8.7759189807
H   11.0175678515 -3.5106612456  7.0729189807
H   11.7385678515 -5.9666612456  11.6319189807
H   7.5935678515 -5.2466612456  10.7119189807
H   7.2565678515 -3.6106612456  7.8679189807
H   8.7535678515 -4.6616612456  5.9539189807
H   9.2055678515 -4.7076612456  3.8049189807
H   8.8725678515 -5.8296612456  1.5529189807
H   5.0995678515 -3.5336612456  4.9569189807
H   5.6695678515 -6.4006612456  0.1829189807
H   3.3635678515 -5.0746612456  2.4229189807
H   4.1095678515 -4.9626612456  0.8879189807
H   3.2105678515 -7.0766612456  0.7079189807
H   3.0515678515 -9.9236612456  2.7329189807
H   4.4845678515 -9.8936612456  1.6739189807
H   2.7715678515 -9.3346612456  1.1589189807
H   5.7075678515 -8.3746612456  3.8849189807
H   4.0795678515 -8.3696612456  4.5029189807
H   4.7275678515 -6.8826612456  4.1539189807
84
Scanning combination 80/256: [2.6000, 2.6000]  Energy = -385.9616700407
O   11.1233000000 -4.8002000000  5.0341000000
O   11.3873000000 -0.2652000000  3.3291000000
O   18.1143000000 -4.2382000000 -2.5629000000
O   15.0523000000 -3.1142000000  0.9841000000
C   13.0053000000 -3.3232000000  2.3291000000
C   12.6993000000 -1.9792000000  2.4491000000
C   12.3973000000 -4.3072000000  3.1831000000
C   11.6323000000 -1.5992000000  3.2951000000
C   11.4783000000 -3.8632000000  4.1231000000
C   11.0613000000 -2.4802000000  4.2331000000
C   10.1223000000 -1.9712000000  5.2561000000
C   10.5373000000 -1.3232000000  6.3251000000
C   9.8643000000 -1.0622000000  7.5921000000
C   8.6825000000 -1.0450000000  7.8959000000
C   10.8123000000 -0.2992000000  8.5731000000
C   14.6833000000 -4.8512000000 -0.4449000000
C   15.5183000000 -3.8012000000 -0.0889000000
C   16.6953000000 -3.5982000000 -0.8399000000
C   16.9703000000 -4.4882000000 -1.8899000000
C   16.1523000000 -5.5962000000 -2.2009000000
C   14.9513000000 -5.7522000000 -1.5279000000
C   13.6583000000 -4.8752000000  0.4711000000
C   13.8893000000 -3.7772000000  1.2511000000
H   13.1623000000 -1.2452000000  1.7971000000
H   12.5583000000 -5.3772000000  3.0881000000
H   11.7383000000 -5.5442000000  4.9131000000
H   11.8513000000  0.1658000000  2.5901000000
H   9.4643000000 -1.3292000000  4.6731000000
H   11.4933000000 -0.8182000000  6.2071000000
H   7.9073000000 -0.9712000000  7.1161000000
H   8.2313000000 -0.9072000000  8.8131000000
H   11.1183000000  0.6778000000  8.1811000000
H   11.7213000000 -0.7962000000  8.9311000000
H   10.3263000000 -0.0742000000  9.5301000000
H   17.3553000000 -2.7642000000 -0.6209000000
H   16.3753000000 -6.3042000000 -2.9929000000
H   14.4873000000 -6.7332000000 -1.5779000000
H   12.8783000000 -5.6272000000  0.4831000000
H   18.2613000000 -4.9422000000 -3.2189000000
C   9.8350243726 -5.0751985786  10.4739130550
O   12.1660243726 -5.4271985786  10.9619130550
C   11.1930243726 -5.0051985786  10.1159130550
O   7.6120243726 -4.5591985786  10.0019130550
C   11.6510243726 -4.3331985786  8.9359130550
O   6.3640243726 -2.6031985786  5.8019130550
C   10.6720243726 -3.8541985786  8.0789130550
O   4.6610243726 -3.8391985786  4.2349130550
C   9.2850243726 -3.9641985786  8.3459130550
O   6.5750243726 -6.1191985786  0.4149130550
C   8.8890243726 -4.5421985786  9.5649130550
C   8.1128243726 -3.5583985786  7.5522130550
C   8.4520243726 -3.5241985786  6.1949130550
C   7.2270243726 -3.3391985786  5.4169130550
C   7.0610243726 -4.1201985786  4.1079130550
C   8.1850243726 -4.6491985786  3.4159130550
C   5.7530243726 -4.2631985786  3.5379130550
C   8.0110243726 -5.4091985786  2.2469130550
C   5.5890243726 -5.0201985786  2.3449130550
C   6.7490243726 -5.4471985786  1.6589130550
C   4.1930243726 -5.3491985786  1.9279130550
C   3.8080243726 -6.7951985786  1.6389130550
C   3.9860243726 -7.8941985786  2.4439130550
C   3.5180243726 -9.2711985786  1.9929130550
C   4.6910243726 -7.8011985786  3.8149130550
H   9.4700243726 -5.3351985786  11.4629130550
H   12.7240243726 -4.1951985786  8.8409130550
H   10.9820243726 -3.4091985786  7.1379130550
H   11.7030243726 -5.8651985786  11.6969130550
H   7.5580243726 -5.1451985786  10.7769130550
H   7.2210243726 -3.5091985786  7.9329130550
H   8.7180243726 -4.5601985786  6.0189130550
H   9.1700243726 -4.6061985786  3.8699130550
H   8.8370243726 -5.7281985786  1.6179130550
H   5.0640243726 -3.4321985786  5.0219130550
H   5.6340243726 -6.2991985786  0.2479130550
H   3.3280243726 -4.9731985786  2.4879130550
H   4.0740243726 -4.8611985786  0.9529130550
H   3.1750243726 -6.9751985786  0.7729130550
H   3.0160243726 -9.8221985786  2.7979130550
H   4.4490243726 -9.7921985786  1.7389130550
H   2.7360243726 -9.2331985786  1.2239130550
H   5.6720243726 -8.2731985786  3.9499130550
H   4.0440243726 -8.2681985786  4.5679130550
H   4.6920243726 -6.7811985786  4.2189130550
84
Scanning combination 81/256: [2.6000, 2.5000]  Energy = -385.9540408846
O   11.1233000000 -4.8002000000  5.0341000000
O   11.3873000000 -0.2652000000  3.3291000000
O   18.1143000000 -4.2382000000 -2.5629000000
O   15.0523000000 -3.1142000000  0.9841000000
C   13.0053000000 -3.3232000000  2.3291000000
C   12.6993000000 -1.9792000000  2.4491000000
C   12.3973000000 -4.3072000000  3.1831000000
C   11.6323000000 -1.5992000000  3.2951000000
C   11.4783000000 -3.8632000000  4.1231000000
C   11.0613000000 -2.4802000000  4.2331000000
C   10.1223000000 -1.9712000000  5.2561000000
C   10.5373000000 -1.3232000000  6.3251000000
C   9.8643000000 -1.0622000000  7.5921000000
C   8.6825000000 -1.0450000000  7.8959000000
C   10.8123000000 -0.2992000000  8.5731000000
C   14.6833000000 -4.8512000000 -0.4449000000
C   15.5183000000 -3.8012000000 -0.0889000000
C   16.6953000000 -3.5982000000 -0.8399000000
C   16.9703000000 -4.4882000000 -1.8899000000
C   16.1523000000 -5.5962000000 -2.2009000000
C   14.9513000000 -5.7522000000 -1.5279000000
C   13.6583000000 -4.8752000000  0.4711000000
C   13.8893000000 -3.7772000000  1.2511000000
H   13.1623000000 -1.2452000000  1.7971000000
H   12.5583000000 -5.3772000000  3.0881000000
H   11.7383000000 -5.5442000000  4.9131000000
H   11.8513000000  0.1658000000  2.5901000000
H   9.4643000000 -1.3292000000  4.6731000000
H   11.4933000000 -0.8182000000  6.2071000000
H   7.9073000000 -0.9712000000  7.1161000000
H   8.2313000000 -0.9072000000  8.8131000000
H   11.1183000000  0.6778000000  8.1811000000
H   11.7213000000 -0.7962000000  8.9311000000
H   10.3263000000 -0.0742000000  9.5301000000
H   17.3553000000 -2.7642000000 -0.6209000000
H   16.3753000000 -6.3042000000 -2.9929000000
H   14.4873000000 -6.7332000000 -1.5779000000
H   12.8783000000 -5.6272000000  0.4831000000
H   18.2613000000 -4.9422000000 -3.2189000000
C   9.7925283341 -4.9704014112  10.5460943180
O   12.1235283341 -5.3224014112  11.0340943180
C   11.1505283341 -4.9004014112  10.1880943180
O   7.5695283341 -4.4544014112  10.0740943180
C   11.6085283341 -4.2284014112  9.0080943180
O   6.3215283341 -2.4984014112  5.8740943180
C   10.6295283341 -3.7494014112  8.1510943180
O   4.6185283341 -3.7344014112  4.3070943180
C   9.2425283341 -3.8594014112  8.4180943180
O   6.5325283341 -6.0144014112  0.4870943180
C   8.8465283341 -4.4374014112  9.6370943180
C   8.0703283341 -3.4536014112  7.6243943180
C   8.4095283341 -3.4194014112  6.2670943180
C   7.1845283341 -3.2344014112  5.4890943180
C   7.0185283341 -4.0154014112  4.1800943180
C   8.1425283341 -4.5444014112  3.4880943180
C   5.7105283341 -4.1584014112  3.6100943180
C   7.9685283341 -5.3044014112  2.3190943180
C   5.5465283341 -4.9154014112  2.4170943180
C   6.7065283341 -5.3424014112  1.7310943180
C   4.1505283341 -5.2444014112  2.0000943180
C   3.7655283341 -6.6904014112  1.7110943180
C   3.9435283341 -7.7894014112  2.5160943180
C   3.4755283341 -9.1664014112  2.0650943180
C   4.6485283341 -7.6964014112  3.8870943180
H   9.4275283341 -5.2304014112  11.5350943180
H   12.6815283341 -4.0904014112  8.9130943180
H   10.9395283341 -3.3044014112  7.2100943180
H   11.6605283341 -5.7604014112  11.7690943180
H   7.5155283341 -5.0404014112  10.8490943180
H   7.1785283341 -3.4044014112  8.0050943180
H   8.6755283341 -4.4554014112  6.0910943180
H   9.1275283341 -4.5014014112  3.9420943180
H   8.7945283341 -5.6234014112  1.6900943180
H   5.0215283341 -3.3274014112  5.0940943180
H   5.5915283341 -6.1944014112  0.3200943180
H   3.2855283341 -4.8684014112  2.5600943180
H   4.0315283341 -4.7564014112  1.0250943180
H   3.1325283341 -6.8704014112  0.8450943180
H   2.9735283341 -9.7174014112  2.8700943180
H   4.4065283341 -9.6874014112  1.8110943180
H   2.6935283341 -9.1284014112  1.2960943180
H   5.6295283341 -8.1684014112  4.0220943180
H   4.0015283341 -8.1634014112  4.6400943180
H   4.6495283341 -6.6764014112  4.2910943180
84
Scanning combination 82/256: [2.6000, 2.4000]  Energy = -385.9449032541
O   11.1233000000 -4.8002000000  5.0341000000
O   11.3873000000 -0.2652000000  3.3291000000
O   18.1143000000 -4.2382000000 -2.5629000000
O   15.0523000000 -3.1142000000  0.9841000000
C   13.0053000000 -3.3232000000  2.3291000000
C   12.6993000000 -1.9792000000  2.4491000000
C   12.3973000000 -4.3072000000  3.1831000000
C   11.6323000000 -1.5992000000  3.2951000000
C   11.4783000000 -3.8632000000  4.1231000000
C   11.0613000000 -2.4802000000  4.2331000000
C   10.1223000000 -1.9712000000  5.2561000000
C   10.5373000000 -1.3232000000  6.3251000000
C   9.8643000000 -1.0622000000  7.5921000000
C   8.6825000000 -1.0450000000  7.8959000000
C   10.8123000000 -0.2992000000  8.5731000000
C   14.6833000000 -4.8512000000 -0.4449000000
C   15.5183000000 -3.8012000000 -0.0889000000
C   16.6953000000 -3.5982000000 -0.8399000000
C   16.9703000000 -4.4882000000 -1.8899000000
C   16.1523000000 -5.5962000000 -2.2009000000
C   14.9513000000 -5.7522000000 -1.5279000000
C   13.6583000000 -4.8752000000  0.4711000000
C   13.8893000000 -3.7772000000  1.2511000000
H   13.1623000000 -1.2452000000  1.7971000000
H   12.5583000000 -5.3772000000  3.0881000000
H   11.7383000000 -5.5442000000  4.9131000000
H   11.8513000000  0.1658000000  2.5901000000
H   9.4643000000 -1.3292000000  4.6731000000
H   11.4933000000 -0.8182000000  6.2071000000
H   7.9073000000 -0.9712000000  7.1161000000
H   8.2313000000 -0.9072000000  8.8131000000
H   11.1183000000  0.6778000000  8.1811000000
H   11.7213000000 -0.7962000000  8.9311000000
H   10.3263000000 -0.0742000000  9.5301000000
H   17.3553000000 -2.7642000000 -0.6209000000
H   16.3753000000 -6.3042000000 -2.9929000000
H   14.4873000000 -6.7332000000 -1.5779000000
H   12.8783000000 -5.6272000000  0.4831000000
H   18.2613000000 -4.9422000000 -3.2189000000
C   9.7495048572 -4.8621199667  10.6199022308
O   12.0805048572 -5.2141199667  11.1079022308
C   11.1075048572 -4.7921199667  10.2619022308
O   7.5265048572 -4.3461199667  10.1479022308
C   11.5655048572 -4.1201199667  9.0819022308
O   6.2785048572 -2.3901199667  5.9479022308
C   10.5865048572 -3.6411199667  8.2249022308
O   4.5755048572 -3.6261199667  4.3809022308
C   9.1995048572 -3.7511199667  8.4919022308
O   6.4895048572 -5.9061199667  0.5609022308
C   8.8035048572 -4.3291199667  9.7109022308
C   8.0273048572 -3.3453199667  7.6982022308
C   8.3665048572 -3.3111199667  6.3409022308
C   7.1415048572 -3.1261199667  5.5629022308
C   6.9755048572 -3.9071199667  4.2539022308
C   8.0995048572 -4.4361199667  3.5619022308
C   5.6675048572 -4.0501199667  3.6839022308
C   7.9255048572 -5.1961199667  2.3929022308
C   5.5035048572 -4.8071199667  2.4909022308
C   6.6635048572 -5.2341199667  1.8049022308
C   4.1075048572 -5.1361199667  2.0739022308
C   3.7225048572 -6.5821199667  1.7849022308
C   3.9005048572 -7.6811199667  2.5899022308
C   3.4325048572 -9.0581199667  2.1389022308
C   4.6055048572 -7.5881199667  3.9609022308
H   9.3845048572 -5.1221199667  11.6089022308
H   12.6385048572 -3.9821199667  8.9869022308
H   10.8965048572 -3.1961199667  7.2839022308
H   11.6175048572 -5.6521199667  11.8429022308
H   7.4725048572 -4.9321199667  10.9229022308
H   7.1355048572 -3.2961199667  8.0789022308
H   8.6325048572 -4.3471199667  6.1649022308
H   9.0845048572 -4.3931199667  4.0159022308
H   8.7515048572 -5.5151199667  1.7639022308
H   4.9785048572 -3.2191199667  5.1679022308
H   5.5485048572 -6.0861199667  0.3939022308
H   3.2425048572 -4.7601199667  2.6339022308
H   3.9885048572 -4.6481199667  1.0989022308
H   3.0895048572 -6.7621199667  0.9189022308
H   2.9305048572 -9.6091199667  2.9439022308
H   4.3635048572 -9.5791199667  1.8849022308
H   2.6505048572 -9.0201199667  1.3699022308
H   5.5865048572 -8.0601199667  4.0959022308
H   3.9585048572 -8.0551199667  4.7139022308
H   4.6065048572 -6.5681199667  4.3649022308
84
Scanning combination 83/256: [2.6000, 2.3000]  Energy = -385.9333328005
O   11.1233000000 -4.8002000000  5.0341000000
O   11.3873000000 -0.2652000000  3.3291000000
O   18.1143000000 -4.2382000000 -2.5629000000
O   15.0523000000 -3.1142000000  0.9841000000
C   13.0053000000 -3.3232000000  2.3291000000
C   12.6993000000 -1.9792000000  2.4491000000
C   12.3973000000 -4.3072000000  3.1831000000
C   11.6323000000 -1.5992000000  3.2951000000
C   11.4783000000 -3.8632000000  4.1231000000
C   11.0613000000 -2.4802000000  4.2331000000
C   10.1223000000 -1.9712000000  5.2561000000
C   10.5373000000 -1.3232000000  6.3251000000
C   9.8643000000 -1.0622000000  7.5921000000
C   8.6825000000 -1.0450000000  7.8959000000
C   10.8123000000 -0.2992000000  8.5731000000
C   14.6833000000 -4.8512000000 -0.4449000000
C   15.5183000000 -3.8012000000 -0.0889000000
C   16.6953000000 -3.5982000000 -0.8399000000
C   16.9703000000 -4.4882000000 -1.8899000000
C   16.1523000000 -5.5962000000 -2.2009000000
C   14.9513000000 -5.7522000000 -1.5279000000
C   13.6583000000 -4.8752000000  0.4711000000
C   13.8893000000 -3.7772000000  1.2511000000
H   13.1623000000 -1.2452000000  1.7971000000
H   12.5583000000 -5.3772000000  3.0881000000
H   11.7383000000 -5.5442000000  4.9131000000
H   11.8513000000  0.1658000000  2.5901000000
H   9.4643000000 -1.3292000000  4.6731000000
H   11.4933000000 -0.8182000000  6.2071000000
H   7.9073000000 -0.9712000000  7.1161000000
H   8.2313000000 -0.9072000000  8.8131000000
H   11.1183000000  0.6778000000  8.1811000000
H   11.7213000000 -0.7962000000  8.9311000000
H   10.3263000000 -0.0742000000  9.5301000000
H   17.3553000000 -2.7642000000 -0.6209000000
H   16.3753000000 -6.3042000000 -2.9929000000
H   14.4873000000 -6.7332000000 -1.5779000000
H   12.8783000000 -5.6272000000  0.4831000000
H   18.2613000000 -4.9422000000 -3.2189000000
C   9.7095826230 -4.7506126436  10.6920816111
O   12.0405826230 -5.1026126436  11.1800816111
C   11.0675826230 -4.6806126436  10.3340816111
O   7.4865826230 -4.2346126436  10.2200816111
C   11.5255826230 -4.0086126436  9.1540816111
O   6.2385826230 -2.2786126436  6.0200816111
C   10.5465826230 -3.5296126436  8.2970816111
O   4.5355826230 -3.5146126436  4.4530816111
C   9.1595826230 -3.6396126436  8.5640816111
O   6.4495826230 -5.7946126436  0.6330816111
C   8.7635826230 -4.2176126436  9.7830816111
C   7.9873826230 -3.2338126436  7.7703816111
C   8.3265826230 -3.1996126436  6.4130816111
C   7.1015826230 -3.0146126436  5.6350816111
C   6.9355826230 -3.7956126436  4.3260816111
C   8.0595826230 -4.3246126436  3.6340816111
C   5.6275826230 -3.9386126436  3.7560816111
C   7.8855826230 -5.0846126436  2.4650816111
C   5.4635826230 -4.6956126436  2.5630816111
C   6.6235826230 -5.1226126436  1.8770816111
C   4.0675826230 -5.0246126436  2.1460816111
C   3.6825826230 -6.4706126436  1.8570816111
C   3.8605826230 -7.5696126436  2.6620816111
C   3.3925826230 -8.9466126436  2.2110816111
C   4.5655826230 -7.4766126436  4.0330816111
H   9.3445826230 -5.0106126436  11.6810816111
H   12.5985826230 -3.8706126436  9.0590816111
H   10.8565826230 -3.0846126436  7.3560816111
H   11.5775826230 -5.5406126436  11.9150816111
H   7.4325826230 -4.8206126436  10.9950816111
H   7.0955826230 -3.1846126436  8.1510816111
H   8.5925826230 -4.2356126436  6.2370816111
H   9.0445826230 -4.2816126436  4.0880816111
H   8.7115826230 -5.4036126436  1.8360816111
H   4.9385826230 -3.1076126436  5.2400816111
H   5.5085826230 -5.9746126436  0.4660816111
H   3.2025826230 -4.6486126436  2.7060816111
H   3.9485826230 -4.5366126436  1.1710816111
H   3.0495826230 -6.6506126436  0.9910816111
H   2.8905826230 -9.4976126436  3.0160816111
H   4.3235826230 -9.4676126436  1.9570816111
H   2.6105826230 -8.9086126436  1.4420816111
H   5.5465826230 -7.9486126436  4.1680816111
H   3.9185826230 -7.9436126436  4.7860816111
H   4.5665826230 -6.4566126436  4.4370816111
84
Scanning combination 84/256: [2.6000, 2.2000]  Energy = -385.9172276255
O   11.1233000000 -4.8002000000  5.0341000000
O   11.3873000000 -0.2652000000  3.3291000000
O   18.1143000000 -4.2382000000 -2.5629000000
O   15.0523000000 -3.1142000000  0.9841000000
C   13.0053000000 -3.3232000000  2.3291000000
C   12.6993000000 -1.9792000000  2.4491000000
C   12.3973000000 -4.3072000000  3.1831000000
C   11.6323000000 -1.5992000000  3.2951000000
C   11.4783000000 -3.8632000000  4.1231000000
C   11.0613000000 -2.4802000000  4.2331000000
C   10.1223000000 -1.9712000000  5.2561000000
C   10.5373000000 -1.3232000000  6.3251000000
C   9.8643000000 -1.0622000000  7.5921000000
C   8.6825000000 -1.0450000000  7.8959000000
C   10.8123000000 -0.2992000000  8.5731000000
C   14.6833000000 -4.8512000000 -0.4449000000
C   15.5183000000 -3.8012000000 -0.0889000000
C   16.6953000000 -3.5982000000 -0.8399000000
C   16.9703000000 -4.4882000000 -1.8899000000
C   16.1523000000 -5.5962000000 -2.2009000000
C   14.9513000000 -5.7522000000 -1.5279000000
C   13.6583000000 -4.8752000000  0.4711000000
C   13.8893000000 -3.7772000000  1.2511000000
H   13.1623000000 -1.2452000000  1.7971000000
H   12.5583000000 -5.3772000000  3.0881000000
H   11.7383000000 -5.5442000000  4.9131000000
H   11.8513000000  0.1658000000  2.5901000000
H   9.4643000000 -1.3292000000  4.6731000000
H   11.4933000000 -0.8182000000  6.2071000000
H   7.9073000000 -0.9712000000  7.1161000000
H   8.2313000000 -0.9072000000  8.8131000000
H   11.1183000000  0.6778000000  8.1811000000
H   11.7213000000 -0.7962000000  8.9311000000
H   10.3263000000 -0.0742000000  9.5301000000
H   17.3553000000 -2.7642000000 -0.6209000000
H   16.3753000000 -6.3042000000 -2.9929000000
H   14.4873000000 -6.7332000000 -1.5779000000
H   12.8783000000 -5.6272000000  0.4831000000
H   18.2613000000 -4.9422000000 -3.2189000000
C   9.6746352646 -4.6363205198  10.7608487164
O   12.0056352646 -4.9883205198  11.2488487164
C   11.0326352646 -4.5663205198  10.4028487164
O   7.4516352646 -4.1203205198  10.2888487164
C   11.4906352646 -3.8943205198  9.2228487164
O   6.2036352646 -2.1643205198  6.0888487164
C   10.5116352646 -3.4153205198  8.3658487164
O   4.5006352646 -3.4003205198  4.5218487164
C   9.1246352646 -3.5253205198  8.6328487164
O   6.4146352646 -5.6803205198  0.7018487164
C   8.7286352646 -4.1033205198  9.8518487164
C   7.9524352646 -3.1195205198  7.8391487164
C   8.2916352646 -3.0853205198  6.4818487164
C   7.0666352646 -2.9003205198  5.7038487164
C   6.9006352646 -3.6813205198  4.3948487164
C   8.0246352646 -4.2103205198  3.7028487164
C   5.5926352646 -3.8243205198  3.8248487164
C   7.8506352646 -4.9703205198  2.5338487164
C   5.4286352646 -4.5813205198  2.6318487164
C   6.5886352646 -5.0083205198  1.9458487164
C   4.0326352646 -4.9103205198  2.2148487164
C   3.6476352646 -6.3563205198  1.9258487164
C   3.8256352646 -7.4553205198  2.7308487164
C   3.3576352646 -8.8323205198  2.2798487164
C   4.5306352646 -7.3623205198  4.1018487164
H   9.3096352646 -4.8963205198  11.7498487164
H   12.5636352646 -3.7563205198  9.1278487164
H   10.8216352646 -2.9703205198  7.4248487164
H   11.5426352646 -5.4263205198  11.9838487164
H   7.3976352646 -4.7063205198  11.0638487164
H   7.0606352646 -3.0703205198  8.2198487164
H   8.5576352646 -4.1213205198  6.3058487164
H   9.0096352646 -4.1673205198  4.1568487164
H   8.6766352646 -5.2893205198  1.9048487164
H   4.9036352646 -2.9933205198  5.3088487164
H   5.4736352646 -5.8603205198  0.5348487164
H   3.1676352646 -4.5343205198  2.7748487164
H   3.9136352646 -4.4223205198  1.2398487164
H   3.0146352646 -6.5363205198  1.0598487164
H   2.8556352646 -9.3833205198  3.0848487164
H   4.2886352646 -9.3533205198  2.0258487164
H   2.5756352646 -8.7943205198  1.5108487164
H   5.5116352646 -7.8343205198  4.2368487164
H   3.8836352646 -7.8293205198  4.8548487164
H   4.5316352646 -6.3423205198  4.5058487164
84
Scanning combination 85/256: [2.6000, 2.1000]  Energy = -385.8957504030
O   11.1233000000 -4.8002000000  5.0341000000
O   11.3873000000 -0.2652000000  3.3291000000
O   18.1143000000 -4.2382000000 -2.5629000000
O   15.0523000000 -3.1142000000  0.9841000000
C   13.0053000000 -3.3232000000  2.3291000000
C   12.6993000000 -1.9792000000  2.4491000000
C   12.3973000000 -4.3072000000  3.1831000000
C   11.6323000000 -1.5992000000  3.2951000000
C   11.4783000000 -3.8632000000  4.1231000000
C   11.0613000000 -2.4802000000  4.2331000000
C   10.1223000000 -1.9712000000  5.2561000000
C   10.5373000000 -1.3232000000  6.3251000000
C   9.8643000000 -1.0622000000  7.5921000000
C   8.6825000000 -1.0450000000  7.8959000000
C   10.8123000000 -0.2992000000  8.5731000000
C   14.6833000000 -4.8512000000 -0.4449000000
C   15.5183000000 -3.8012000000 -0.0889000000
C   16.6953000000 -3.5982000000 -0.8399000000
C   16.9703000000 -4.4882000000 -1.8899000000
C   16.1523000000 -5.5962000000 -2.2009000000
C   14.9513000000 -5.7522000000 -1.5279000000
C   13.6583000000 -4.8752000000  0.4711000000
C   13.8893000000 -3.7772000000  1.2511000000
H   13.1623000000 -1.2452000000  1.7971000000
H   12.5583000000 -5.3772000000  3.0881000000
H   11.7383000000 -5.5442000000  4.9131000000
H   11.8513000000  0.1658000000  2.5901000000
H   9.4643000000 -1.3292000000  4.6731000000
H   11.4933000000 -0.8182000000  6.2071000000
H   7.9073000000 -0.9712000000  7.1161000000
H   8.2313000000 -0.9072000000  8.8131000000
H   11.1183000000  0.6778000000  8.1811000000
H   11.7213000000 -0.7962000000  8.9311000000
H   10.3263000000 -0.0742000000  9.5301000000
H   17.3553000000 -2.7642000000 -0.6209000000
H   16.3753000000 -6.3042000000 -2.9929000000
H   14.4873000000 -6.7332000000 -1.5779000000
H   12.8783000000 -5.6272000000  0.4831000000
H   18.2613000000 -4.9422000000 -3.2189000000
C   9.6455075295 -4.5197133721  10.8253086618
O   11.9765075295 -4.8717133721  11.3133086618
C   11.0035075295 -4.4497133721  10.4673086618
O   7.4225075295 -4.0037133721  10.3533086618
C   11.4615075295 -3.7777133721  9.2873086618
O   6.1745075295 -2.0477133721  6.1533086618
C   10.4825075295 -3.2987133721  8.4303086618
O   4.4715075295 -3.2837133721  4.5863086618
C   9.0955075295 -3.4087133721  8.6973086618
O   6.3855075295 -5.5637133721  0.7663086618
C   8.6995075295 -3.9867133721  9.9163086618
C   7.9233075295 -3.0029133721  7.9036086618
C   8.2625075295 -2.9687133721  6.5463086618
C   7.0375075295 -2.7837133721  5.7683086618
C   6.8715075295 -3.5647133721  4.4593086618
C   7.9955075295 -4.0937133721  3.7673086618
C   5.5635075295 -3.7077133721  3.8893086618
C   7.8215075295 -4.8537133721  2.5983086618
C   5.3995075295 -4.4647133721  2.6963086618
C   6.5595075295 -4.8917133721  2.0103086618
C   4.0035075295 -4.7937133721  2.2793086618
C   3.6185075295 -6.2397133721  1.9903086618
C   3.7965075295 -7.3387133721  2.7953086618
C   3.3285075295 -8.7157133721  2.3443086618
C   4.5015075295 -7.2457133721  4.1663086618
H   9.2805075295 -4.7797133721  11.8143086618
H   12.5345075295 -3.6397133721  9.1923086618
H   10.7925075295 -2.8537133721  7.4893086618
H   11.5135075295 -5.3097133721  12.0483086618
H   7.3685075295 -4.5897133721  11.1283086618
H   7.0315075295 -2.9537133721  8.2843086618
H   8.5285075295 -4.0047133721  6.3703086618
H   8.9805075295 -4.0507133721  4.2213086618
H   8.6475075295 -5.1727133721  1.9693086618
H   4.8745075295 -2.8767133721  5.3733086618
H   5.4445075295 -5.7437133721  0.5993086618
H   3.1385075295 -4.4177133721  2.8393086618
H   3.8845075295 -4.3057133721  1.3043086618
H   2.9855075295 -6.4197133721  1.1243086618
H   2.8265075295 -9.2667133721  3.1493086618
H   4.2595075295 -9.2367133721  2.0903086618
H   2.5465075295 -8.6777133721  1.5753086618
H   5.4825075295 -7.7177133721  4.3013086618
H   3.8545075295 -7.7127133721  4.9193086618
H   4.5025075295 -6.2257133721  4.5703086618
84
Scanning combination 86/256: [2.6000, 2.0000]  Energy = -385.8692280050
O   11.1233000000 -4.8002000000  5.0341000000
O   11.3873000000 -0.2652000000  3.3291000000
O   18.1143000000 -4.2382000000 -2.5629000000
O   15.0523000000 -3.1142000000  0.9841000000
C   13.0053000000 -3.3232000000  2.3291000000
C   12.6993000000 -1.9792000000  2.4491000000
C   12.3973000000 -4.3072000000  3.1831000000
C   11.6323000000 -1.5992000000  3.2951000000
C   11.4783000000 -3.8632000000  4.1231000000
C   11.0613000000 -2.4802000000  4.2331000000
C   10.1223000000 -1.9712000000  5.2561000000
C   10.5373000000 -1.3232000000  6.3251000000
C   9.8643000000 -1.0622000000  7.5921000000
C   8.6825000000 -1.0450000000  7.8959000000
C   10.8123000000 -0.2992000000  8.5731000000
C   14.6833000000 -4.8512000000 -0.4449000000
C   15.5183000000 -3.8012000000 -0.0889000000
C   16.6953000000 -3.5982000000 -0.8399000000
C   16.9703000000 -4.4882000000 -1.8899000000
C   16.1523000000 -5.5962000000 -2.2009000000
C   14.9513000000 -5.7522000000 -1.5279000000
C   13.6583000000 -4.8752000000  0.4711000000
C   13.8893000000 -3.7772000000  1.2511000000
H   13.1623000000 -1.2452000000  1.7971000000
H   12.5583000000 -5.3772000000  3.0881000000
H   11.7383000000 -5.5442000000  4.9131000000
H   11.8513000000  0.1658000000  2.5901000000
H   9.4643000000 -1.3292000000  4.6731000000
H   11.4933000000 -0.8182000000  6.2071000000
H   7.9073000000 -0.9712000000  7.1161000000
H   8.2313000000 -0.9072000000  8.8131000000
H   11.1183000000  0.6778000000  8.1811000000
H   11.7213000000 -0.7962000000  8.9311000000
H   10.3263000000 -0.0742000000  9.5301000000
H   17.3553000000 -2.7642000000 -0.6209000000
H   16.3753000000 -6.3042000000 -2.9929000000
H   14.4873000000 -6.7332000000 -1.5779000000
H   12.8783000000 -5.6272000000  0.4831000000
H   18.2613000000 -4.9422000000 -3.2189000000
C   9.6224898891 -4.4012183953  10.8850648289
O   11.9534898891 -4.7532183953  11.3730648289
C   10.9804898891 -4.3312183953  10.5270648289
O   7.3994898891 -3.8852183953  10.4130648289
C   11.4384898891 -3.6592183953  9.3470648289
O   6.1514898891 -1.9292183953  6.2130648289
C   10.4594898891 -3.1802183953  8.4900648289
O   4.4484898891 -3.1652183953  4.6460648289
C   9.0724898891 -3.2902183953  8.7570648289
O   6.3624898891 -5.4452183953  0.8260648289
C   8.6764898891 -3.8682183953  9.9760648289
C   7.9002898891 -2.8844183953  7.9633648289
C   8.2394898891 -2.8502183953  6.6060648289
C   7.0144898891 -2.6652183953  5.8280648289
C   6.8484898891 -3.4462183953  4.5190648289
C   7.9724898891 -3.9752183953  3.8270648289
C   5.5404898891 -3.5892183953  3.9490648289
C   7.7984898891 -4.7352183953  2.6580648289
C   5.3764898891 -4.3462183953  2.7560648289
C   6.5364898891 -4.7732183953  2.0700648289
C   3.9804898891 -4.6752183953  2.3390648289
C   3.5954898891 -6.1212183953  2.0500648289
C   3.7734898891 -7.2202183953  2.8550648289
C   3.3054898891 -8.5972183953  2.4040648289
C   4.4784898891 -7.1272183953  4.2260648289
H   9.2574898891 -4.6612183953  11.8740648289
H   12.5114898891 -3.5212183953  9.2520648289
H   10.7694898891 -2.7352183953  7.5490648289
H   11.4904898891 -5.1912183953  12.1080648289
H   7.3454898891 -4.4712183953  11.1880648289
H   7.0084898891 -2.8352183953  8.3440648289
H   8.5054898891 -3.8862183953  6.4300648289
H   8.9574898891 -3.9322183953  4.2810648289
H   8.6244898891 -5.0542183953  2.0290648289
H   4.8514898891 -2.7582183953  5.4330648289
H   5.4214898891 -5.6252183953  0.6590648289
H   3.1154898891 -4.2992183953  2.8990648289
H   3.8614898891 -4.1872183953  1.3640648289
H   2.9624898891 -6.3012183953  1.1840648289
H   2.8034898891 -9.1482183953  3.2090648289
H   4.2364898891 -9.1182183953  2.1500648289
H   2.5234898891 -8.5592183953  1.6350648289
H   5.4594898891 -7.5992183953  4.3610648289
H   3.8314898891 -7.5942183953  4.9790648289
H   4.4794898891 -6.1072183953  4.6300648289
84
Scanning combination 87/256: [2.6000, 1.9000]  Energy = -385.8360680338
O   11.1233000000 -4.8002000000  5.0341000000
O   11.3873000000 -0.2652000000  3.3291000000
O   18.1143000000 -4.2382000000 -2.5629000000
O   15.0523000000 -3.1142000000  0.9841000000
C   13.0053000000 -3.3232000000  2.3291000000
C   12.6993000000 -1.9792000000  2.4491000000
C   12.3973000000 -4.3072000000  3.1831000000
C   11.6323000000 -1.5992000000  3.2951000000
C   11.4783000000 -3.8632000000  4.1231000000
C   11.0613000000 -2.4802000000  4.2331000000
C   10.1223000000 -1.9712000000  5.2561000000
C   10.5373000000 -1.3232000000  6.3251000000
C   9.8643000000 -1.0622000000  7.5921000000
C   8.6825000000 -1.0450000000  7.8959000000
C   10.8123000000 -0.2992000000  8.5731000000
C   14.6833000000 -4.8512000000 -0.4449000000
C   15.5183000000 -3.8012000000 -0.0889000000
C   16.6953000000 -3.5982000000 -0.8399000000
C   16.9703000000 -4.4882000000 -1.8899000000
C   16.1523000000 -5.5962000000 -2.2009000000
C   14.9513000000 -5.7522000000 -1.5279000000
C   13.6583000000 -4.8752000000  0.4711000000
C   13.8893000000 -3.7772000000  1.2511000000
H   13.1623000000 -1.2452000000  1.7971000000
H   12.5583000000 -5.3772000000  3.0881000000
H   11.7383000000 -5.5442000000  4.9131000000
H   11.8513000000  0.1658000000  2.5901000000
H   9.4643000000 -1.3292000000  4.6731000000
H   11.4933000000 -0.8182000000  6.2071000000
H   7.9073000000 -0.9712000000  7.1161000000
H   8.2313000000 -0.9072000000  8.8131000000
H   11.1183000000  0.6778000000  8.1811000000
H   11.7213000000 -0.7962000000  8.9311000000
H   10.3263000000 -0.0742000000  9.5301000000
H   17.3553000000 -2.7642000000 -0.6209000000
H   16.3753000000 -6.3042000000 -2.9929000000
H   14.4873000000 -6.7332000000 -1.5779000000
H   12.8783000000 -5.6272000000  0.4831000000
H   18.2613000000 -4.9422000000 -3.2189000000
C   9.6056046753 -4.2812016263  10.9399752162
O   11.9366046753 -4.6332016263  11.4279752162
C   10.9636046753 -4.2112016263  10.5819752162
O   7.3826046753 -3.7652016263  10.4679752162
C   11.4216046753 -3.5392016263  9.4019752162
O   6.1346046753 -1.8092016263  6.2679752162
C   10.4426046753 -3.0602016263  8.5449752162
O   4.4316046753 -3.0452016263  4.7009752162
C   9.0556046753 -3.1702016263  8.8119752162
O   6.3456046753 -5.3252016263  0.8809752162
C   8.6596046753 -3.7482016263  10.0309752162
C   7.8834046753 -2.7644016263  8.0182752162
C   8.2226046753 -2.7302016263  6.6609752162
C   6.9976046753 -2.5452016263  5.8829752162
C   6.8316046753 -3.3262016263  4.5739752162
C   7.9556046753 -3.8552016263  3.8819752162
C   5.5236046753 -3.4692016263  4.0039752162
C   7.7816046753 -4.6152016263  2.7129752162
C   5.3596046753 -4.2262016263  2.8109752162
C   6.5196046753 -4.6532016263  2.1249752162
C   3.9636046753 -4.5552016263  2.3939752162
C   3.5786046753 -6.0012016263  2.1049752162
C   3.7566046753 -7.1002016263  2.9099752162
C   3.2886046753 -8.4772016263  2.4589752162
C   4.4616046753 -7.0072016263  4.2809752162
H   9.2406046753 -4.5412016263  11.9289752162
H   12.4946046753 -3.4012016263  9.3069752162
H   10.7526046753 -2.6152016263  7.6039752162
H   11.4736046753 -5.0712016263  12.1629752162
H   7.3286046753 -4.3512016263  11.2429752162
H   6.9916046753 -2.7152016263  8.3989752162
H   8.4886046753 -3.7662016263  6.4849752162
H   8.9406046753 -3.8122016263  4.3359752162
H   8.6076046753 -4.9342016263  2.0839752162
H   4.8346046753 -2.6382016263  5.4879752162
H   5.4046046753 -5.5052016263  0.7139752162
H   3.0986046753 -4.1792016263  2.9539752162
H   3.8446046753 -4.0672016263  1.4189752162
H   2.9456046753 -6.1812016263  1.2389752162
H   2.7866046753 -9.0282016263  3.2639752162
H   4.2196046753 -8.9982016263  2.2049752162
H   2.5066046753 -8.4392016263  1.6899752162
H   5.4426046753 -7.4792016263  4.4159752162
H   3.8146046753 -7.4742016263  5.0339752162
H   4.4626046753 -5.9872016263  4.6849752162
84
Scanning combination 88/256: [2.6000, 1.8000]  Energy = -385.7930928465
O   11.1233000000 -4.8002000000  5.0341000000
O   11.3873000000 -0.2652000000  3.3291000000
O   18.1143000000 -4.2382000000 -2.5629000000
O   15.0523000000 -3.1142000000  0.9841000000
C   13.0053000000 -3.3232000000  2.3291000000
C   12.6993000000 -1.9792000000  2.4491000000
C   12.3973000000 -4.3072000000  3.1831000000
C   11.6323000000 -1.5992000000  3.2951000000
C   11.4783000000 -3.8632000000  4.1231000000
C   11.0613000000 -2.4802000000  4.2331000000
C   10.1223000000 -1.9712000000  5.2561000000
C   10.5373000000 -1.3232000000  6.3251000000
C   9.8643000000 -1.0622000000  7.5921000000
C   8.6825000000 -1.0450000000  7.8959000000
C   10.8123000000 -0.2992000000  8.5731000000
C   14.6833000000 -4.8512000000 -0.4449000000
C   15.5183000000 -3.8012000000 -0.0889000000
C   16.6953000000 -3.5982000000 -0.8399000000
C   16.9703000000 -4.4882000000 -1.8899000000
C   16.1523000000 -5.5962000000 -2.2009000000
C   14.9513000000 -5.7522000000 -1.5279000000
C   13.6583000000 -4.8752000000  0.4711000000
C   13.8893000000 -3.7772000000  1.2511000000
H   13.1623000000 -1.2452000000  1.7971000000
H   12.5583000000 -5.3772000000  3.0881000000
H   11.7383000000 -5.5442000000  4.9131000000
H   11.8513000000  0.1658000000  2.5901000000
H   9.4643000000 -1.3292000000  4.6731000000
H   11.4933000000 -0.8182000000  6.2071000000
H   7.9073000000 -0.9712000000  7.1161000000
H   8.2313000000 -0.9072000000  8.8131000000
H   11.1183000000  0.6778000000  8.1811000000
H   11.7213000000 -0.7962000000  8.9311000000
H   10.3263000000 -0.0742000000  9.5301000000
H   17.3553000000 -2.7642000000 -0.6209000000
H   16.3753000000 -6.3042000000 -2.9929000000
H   14.4873000000 -6.7332000000 -1.5779000000
H   12.8783000000 -5.6272000000  0.4831000000
H   18.2613000000 -4.9422000000 -3.2189000000
C   9.5947653119 -4.1599732736  10.9900116093
O   11.9257653119 -4.5119732736  11.4780116093
C   10.9527653119 -4.0899732736  10.6320116093
O   7.3717653119 -3.6439732736  10.5180116093
C   11.4107653119 -3.4179732736  9.4520116093
O   6.1237653119 -1.6879732736  6.3180116093
C   10.4317653119 -2.9389732736  8.5950116093
O   4.4207653119 -2.9239732736  4.7510116093
C   9.0447653119 -3.0489732736  8.8620116093
O   6.3347653119 -5.2039732736  0.9310116093
C   8.6487653119 -3.6269732736  10.0810116093
C   7.8725653119 -2.6431732736  8.0683116093
C   8.2117653119 -2.6089732736  6.7110116093
C   6.9867653119 -2.4239732736  5.9330116093
C   6.8207653119 -3.2049732736  4.6240116093
C   7.9447653119 -3.7339732736  3.9320116093
C   5.5127653119 -3.3479732736  4.0540116093
C   7.7707653119 -4.4939732736  2.7630116093
C   5.3487653119 -4.1049732736  2.8610116093
C   6.5087653119 -4.5319732736  2.1750116093
C   3.9527653119 -4.4339732736  2.4440116093
C   3.5677653119 -5.8799732736  2.1550116093
C   3.7457653119 -6.9789732736  2.9600116093
C   3.2777653119 -8.3559732736  2.5090116093
C   4.4507653119 -6.8859732736  4.3310116093
H   9.2297653119 -4.4199732736  11.9790116093
H   12.4837653119 -3.2799732736  9.3570116093
H   10.7417653119 -2.4939732736  7.6540116093
H   11.4627653119 -4.9499732736  12.2130116093
H   7.3177653119 -4.2299732736  11.2930116093
H   6.9807653119 -2.5939732736  8.4490116093
H   8.4777653119 -3.6449732736  6.5350116093
H   8.9297653119 -3.6909732736  4.3860116093
H   8.5967653119 -4.8129732736  2.1340116093
H   4.8237653119 -2.5169732736  5.5380116093
H   5.3937653119 -5.3839732736  0.7640116093
H   3.0877653119 -4.0579732736  3.0040116093
H   3.8337653119 -3.9459732736  1.4690116093
H   2.9347653119 -6.0599732736  1.2890116093
H   2.7757653119 -8.9069732736  3.3140116093
H   4.2087653119 -8.8769732736  2.2550116093
H   2.4957653119 -8.3179732736  1.7400116093
H   5.4317653119 -7.3579732736  4.4660116093
H   3.8037653119 -7.3529732736  5.0840116093
H   4.4517653119 -5.8659732736  4.7350116093
84
Scanning combination 89/256: [2.6000, 1.7000]  Energy = -385.7400766607
O   11.1233000000 -4.8002000000  5.0341000000
O   11.3873000000 -0.2652000000  3.3291000000
O   18.1143000000 -4.2382000000 -2.5629000000
O   15.0523000000 -3.1142000000  0.9841000000
C   13.0053000000 -3.3232000000  2.3291000000
C   12.6993000000 -1.9792000000  2.4491000000
C   12.3973000000 -4.3072000000  3.1831000000
C   11.6323000000 -1.5992000000  3.2951000000
C   11.4783000000 -3.8632000000  4.1231000000
C   11.0613000000 -2.4802000000  4.2331000000
C   10.1223000000 -1.9712000000  5.2561000000
C   10.5373000000 -1.3232000000  6.3251000000
C   9.8643000000 -1.0622000000  7.5921000000
C   8.6825000000 -1.0450000000  7.8959000000
C   10.8123000000 -0.2992000000  8.5731000000
C   14.6833000000 -4.8512000000 -0.4449000000
C   15.5183000000 -3.8012000000 -0.0889000000
C   16.6953000000 -3.5982000000 -0.8399000000
C   16.9703000000 -4.4882000000 -1.8899000000
C   16.1523000000 -5.5962000000 -2.2009000000
C   14.9513000000 -5.7522000000 -1.5279000000
C   13.6583000000 -4.8752000000  0.4711000000
C   13.8893000000 -3.7772000000  1.2511000000
H   13.1623000000 -1.2452000000  1.7971000000
H   12.5583000000 -5.3772000000  3.0881000000
H   11.7383000000 -5.5442000000  4.9131000000
H   11.8513000000  0.1658000000  2.5901000000
H   9.4643000000 -1.3292000000  4.6731000000
H   11.4933000000 -0.8182000000  6.2071000000
H   7.9073000000 -0.9712000000  7.1161000000
H   8.2313000000 -0.9072000000  8.8131000000
H   11.1183000000  0.6778000000  8.1811000000
H   11.7213000000 -0.7962000000  8.9311000000
H   10.3263000000 -0.0742000000  9.5301000000
H   17.3553000000 -2.7642000000 -0.6209000000
H   16.3753000000 -6.3042000000 -2.9929000000
H   14.4873000000 -6.7332000000 -1.5779000000
H   12.8783000000 -5.6272000000  0.4831000000
H   18.2613000000 -4.9422000000 -3.2189000000
C   9.5898588097 -4.0377999465  11.0351834495
O   11.9208588097 -4.3897999465  11.5231834495
C   10.9478588097 -3.9677999465  10.6771834495
O   7.3668588097 -3.5217999465  10.5631834495
C   11.4058588097 -3.2957999465  9.4971834495
O   6.1188588097 -1.5657999465  6.3631834495
C   10.4268588097 -2.8167999465  8.6401834495
O   4.4158588097 -2.8017999465  4.7961834495
C   9.0398588097 -2.9267999465  8.9071834495
O   6.3298588097 -5.0817999465  0.9761834495
C   8.6438588097 -3.5047999465  10.1261834495
C   7.8676588097 -2.5209999465  8.1134834495
C   8.2068588097 -2.4867999465  6.7561834495
C   6.9818588097 -2.3017999465  5.9781834495
C   6.8158588097 -3.0827999465  4.6691834495
C   7.9398588097 -3.6117999465  3.9771834495
C   5.5078588097 -3.2257999465  4.0991834495
C   7.7658588097 -4.3717999465  2.8081834495
C   5.3438588097 -3.9827999465  2.9061834495
C   6.5038588097 -4.4097999465  2.2201834495
C   3.9478588097 -4.3117999465  2.4891834495
C   3.5628588097 -5.7577999465  2.2001834495
C   3.7408588097 -6.8567999465  3.0051834495
C   3.2728588097 -8.2337999465  2.5541834495
C   4.4458588097 -6.7637999465  4.3761834495
H   9.2248588097 -4.2977999465  12.0241834495
H   12.4788588097 -3.1577999465  9.4021834495
H   10.7368588097 -2.3717999465  7.6991834495
H   11.4578588097 -4.8277999465  12.2581834495
H   7.3128588097 -4.1077999465  11.3381834495
H   6.9758588097 -2.4717999465  8.4941834495
H   8.4728588097 -3.5227999465  6.5801834495
H   8.9248588097 -3.5687999465  4.4311834495
H   8.5918588097 -4.6907999465  2.1791834495
H   4.8188588097 -2.3947999465  5.5831834495
H   5.3888588097 -5.2617999465  0.8091834495
H   3.0828588097 -3.9357999465  3.0491834495
H   3.8288588097 -3.8237999465  1.5141834495
H   2.9298588097 -5.9377999465  1.3341834495
H   2.7708588097 -8.7847999465  3.3591834495
H   4.2038588097 -8.7547999465  2.3001834495
H   2.4908588097 -8.1957999465  1.7851834495
H   5.4268588097 -7.2357999465  4.5111834495
H   3.7988588097 -7.2307999465  5.1291834495
H   4.4468588097 -5.7437999465  4.7801834495
84
Scanning combination 90/256: [2.6000, 1.6000]  Energy = -385.6735159155
O   11.1233000000 -4.8002000000  5.0341000000
O   11.3873000000 -0.2652000000  3.3291000000
O   18.1143000000 -4.2382000000 -2.5629000000
O   15.0523000000 -3.1142000000  0.9841000000
C   13.0053000000 -3.3232000000  2.3291000000
C   12.6993000000 -1.9792000000  2.4491000000
C   12.3973000000 -4.3072000000  3.1831000000
C   11.6323000000 -1.5992000000  3.2951000000
C   11.4783000000 -3.8632000000  4.1231000000
C   11.0613000000 -2.4802000000  4.2331000000
C   10.1223000000 -1.9712000000  5.2561000000
C   10.5373000000 -1.3232000000  6.3251000000
C   9.8643000000 -1.0622000000  7.5921000000
C   8.6825000000 -1.0450000000  7.8959000000
C   10.8123000000 -0.2992000000  8.5731000000
C   14.6833000000 -4.8512000000 -0.4449000000
C   15.5183000000 -3.8012000000 -0.0889000000
C   16.6953000000 -3.5982000000 -0.8399000000
C   16.9703000000 -4.4882000000 -1.8899000000
C   16.1523000000 -5.5962000000 -2.2009000000
C   14.9513000000 -5.7522000000 -1.5279000000
C   13.6583000000 -4.8752000000  0.4711000000
C   13.8893000000 -3.7772000000  1.2511000000
H   13.1623000000 -1.2452000000  1.7971000000
H   12.5583000000 -5.3772000000  3.0881000000
H   11.7383000000 -5.5442000000  4.9131000000
H   11.8513000000  0.1658000000  2.5901000000
H   9.4643000000 -1.3292000000  4.6731000000
H   11.4933000000 -0.8182000000  6.2071000000
H   7.9073000000 -0.9712000000  7.1161000000
H   8.2313000000 -0.9072000000  8.8131000000
H   11.1183000000  0.6778000000  8.1811000000
H   11.7213000000 -0.7962000000  8.9311000000
H   10.3263000000 -0.0742000000  9.5301000000
H   17.3553000000 -2.7642000000 -0.6209000000
H   16.3753000000 -6.3042000000 -2.9929000000
H   14.4873000000 -6.7332000000 -1.5779000000
H   12.8783000000 -5.6272000000  0.4831000000
H   18.2613000000 -4.9422000000 -3.2189000000
C   9.5907864909 -3.9149166401  11.0754982611
O   11.9217864909 -4.2669166401  11.5634982611
C   10.9487864909 -3.8449166401  10.7174982611
O   7.3677864909 -3.3989166401  10.6034982611
C   11.4067864909 -3.1729166401  9.5374982611
O   6.1197864909 -1.4429166401  6.4034982611
C   10.4277864909 -2.6939166401  8.6804982611
O   4.4167864909 -2.6789166401  4.8364982611
C   9.0407864909 -2.8039166401  8.9474982611
O   6.3307864909 -4.9589166401  1.0164982611
C   8.6447864909 -3.3819166401  10.1664982611
C   7.8685864909 -2.3981166401  8.1537982611
C   8.2077864909 -2.3639166401  6.7964982611
C   6.9827864909 -2.1789166401  6.0184982611
C   6.8167864909 -2.9599166401  4.7094982611
C   7.9407864909 -3.4889166401  4.0174982611
C   5.5087864909 -3.1029166401  4.1394982611
C   7.7667864909 -4.2489166401  2.8484982611
C   5.3447864909 -3.8599166401  2.9464982611
C   6.5047864909 -4.2869166401  2.2604982611
C   3.9487864909 -4.1889166401  2.5294982611
C   3.5637864909 -5.6349166401  2.2404982611
C   3.7417864909 -6.7339166401  3.0454982611
C   3.2737864909 -8.1109166401  2.5944982611
C   4.4467864909 -6.6409166401  4.4164982611
H   9.2257864909 -4.1749166401  12.0644982611
H   12.4797864909 -3.0349166401  9.4424982611
H   10.7377864909 -2.2489166401  7.7394982611
H   11.4587864909 -4.7049166401  12.2984982611
H   7.3137864909 -3.9849166401  11.3784982611
H   6.9767864909 -2.3489166401  8.5344982611
H   8.4737864909 -3.3999166401  6.6204982611
H   8.9257864909 -3.4459166401  4.4714982611
H   8.5927864909 -4.5679166401  2.2194982611
H   4.8197864909 -2.2719166401  5.6234982611
H   5.3897864909 -5.1389166401  0.8494982611
H   3.0837864909 -3.8129166401  3.0894982611
H   3.8297864909 -3.7009166401  1.5544982611
H   2.9307864909 -5.8149166401  1.3744982611
H   2.7717864909 -8.6619166401  3.3994982611
H   4.2047864909 -8.6319166401  2.3404982611
H   2.4917864909 -8.0729166401  1.8254982611
H   5.4277864909 -7.1129166401  4.5514982611
H   3.7997864909 -7.1079166401  5.1694982611
H   4.4477864909 -5.6209166401  4.8204982611
84
Scanning combination 91/256: [2.6000, 1.5000]  Energy = -385.5822137590
O   11.1233000000 -4.8002000000  5.0341000000
O   11.3873000000 -0.2652000000  3.3291000000
O   18.1143000000 -4.2382000000 -2.5629000000
O   15.0523000000 -3.1142000000  0.9841000000
C   13.0053000000 -3.3232000000  2.3291000000
C   12.6993000000 -1.9792000000  2.4491000000
C   12.3973000000 -4.3072000000  3.1831000000
C   11.6323000000 -1.5992000000  3.2951000000
C   11.4783000000 -3.8632000000  4.1231000000
C   11.0613000000 -2.4802000000  4.2331000000
C   10.1223000000 -1.9712000000  5.2561000000
C   10.5373000000 -1.3232000000  6.3251000000
C   9.8643000000 -1.0622000000  7.5921000000
C   8.6825000000 -1.0450000000  7.8959000000
C   10.8123000000 -0.2992000000  8.5731000000
C   14.6833000000 -4.8512000000 -0.4449000000
C   15.5183000000 -3.8012000000 -0.0889000000
C   16.6953000000 -3.5982000000 -0.8399000000
C   16.9703000000 -4.4882000000 -1.8899000000
C   16.1523000000 -5.5962000000 -2.2009000000
C   14.9513000000 -5.7522000000 -1.5279000000
C   13.6583000000 -4.8752000000  0.4711000000
C   13.8893000000 -3.7772000000  1.2511000000
H   13.1623000000 -1.2452000000  1.7971000000
H   12.5583000000 -5.3772000000  3.0881000000
H   11.7383000000 -5.5442000000  4.9131000000
H   11.8513000000  0.1658000000  2.5901000000
H   9.4643000000 -1.3292000000  4.6731000000
H   11.4933000000 -0.8182000000  6.2071000000
H   7.9073000000 -0.9712000000  7.1161000000
H   8.2313000000 -0.9072000000  8.8131000000
H   11.1183000000  0.6778000000  8.1811000000
H   11.7213000000 -0.7962000000  8.9311000000
H   10.3263000000 -0.0742000000  9.5301000000
H   17.3553000000 -2.7642000000 -0.6209000000
H   16.3753000000 -6.3042000000 -2.9929000000
H   14.4873000000 -6.7332000000 -1.5779000000
H   12.8783000000 -5.6272000000  0.4831000000
H   18.2613000000 -4.9422000000 -3.2189000000
C   9.5974845911 -3.7915369346  11.1109402476
O   11.9284845911 -4.1435369346  11.5989402476
C   10.9554845911 -3.7215369346  10.7529402476
O   7.3744845911 -3.2755369346  10.6389402476
C   11.4134845911 -3.0495369346  9.5729402476
O   6.1264845911 -1.3195369346  6.4389402476
C   10.4344845911 -2.5705369346  8.7159402476
O   4.4234845911 -2.5555369346  4.8719402476
C   9.0474845911 -2.6805369346  8.9829402476
O   6.3374845911 -4.8355369346  1.0519402476
C   8.6514845911 -3.2585369346  10.2019402476
C   7.8752845911 -2.2747369346  8.1892402476
C   8.2144845911 -2.2405369346  6.8319402476
C   6.9894845911 -2.0555369346  6.0539402476
C   6.8234845911 -2.8365369346  4.7449402476
C   7.9474845911 -3.3655369346  4.0529402476
C   5.5154845911 -2.9795369346  4.1749402476
C   7.7734845911 -4.1255369346  2.8839402476
C   5.3514845911 -3.7365369346  2.9819402476
C   6.5114845911 -4.1635369346  2.2959402476
C   3.9554845911 -4.0655369346  2.5649402476
C   3.5704845911 -5.5115369346  2.2759402476
C   3.7484845911 -6.6105369346  3.0809402476
C   3.2804845911 -7.9875369346  2.6299402476
C   4.4534845911 -6.5175369346  4.4519402476
H   9.2324845911 -4.0515369346  12.0999402476
H   12.4864845911 -2.9115369346  9.4779402476
H   10.7444845911 -2.1255369346  7.7749402476
H   11.4654845911 -4.5815369346  12.3339402476
H   7.3204845911 -3.8615369346  11.4139402476
H   6.9834845911 -2.2255369346  8.5699402476
H   8.4804845911 -3.2765369346  6.6559402476
H   8.9324845911 -3.3225369346  4.5069402476
H   8.5994845911 -4.4445369346  2.2549402476
H   4.8264845911 -2.1485369346  5.6589402476
H   5.3964845911 -5.0155369346  0.8849402476
H   3.0904845911 -3.6895369346  3.1249402476
H   3.8364845911 -3.5775369346  1.5899402476
H   2.9374845911 -5.6915369346  1.4099402476
H   2.7784845911 -8.5385369346  3.4349402476
H   4.2114845911 -8.5085369346  2.3759402476
H   2.4984845911 -7.9495369346  1.8609402476
H   5.4344845911 -6.9895369346  4.5869402476
H   3.8064845911 -6.9845369346  5.2049402476
H   4.4544845911 -5.4975369346  4.8559402476
84
Scanning combination 92/256: [2.5000, 2.9000]  Energy = -385.9726020094
O   11.1233000000 -4.8002000000  5.0341000000
O   11.3873000000 -0.2652000000  3.3291000000
O   18.1143000000 -4.2382000000 -2.5629000000
O   15.0523000000 -3.1142000000  0.9841000000
C   13.0053000000 -3.3232000000  2.3291000000
C   12.6993000000 -1.9792000000  2.4491000000
C   12.3973000000 -4.3072000000  3.1831000000
C   11.6323000000 -1.5992000000  3.2951000000
C   11.4783000000 -3.8632000000  4.1231000000
C   11.0613000000 -2.4802000000  4.2331000000
C   10.1223000000 -1.9712000000  5.2561000000
C   10.5373000000 -1.3232000000  6.3251000000
C   9.8643000000 -1.0622000000  7.5921000000
C   8.6825000000 -1.0450000000  7.8959000000
C   10.8123000000 -0.2992000000  8.5731000000
C   14.6833000000 -4.8512000000 -0.4449000000
C   15.5183000000 -3.8012000000 -0.0889000000
C   16.6953000000 -3.5982000000 -0.8399000000
C   16.9703000000 -4.4882000000 -1.8899000000
C   16.1523000000 -5.5962000000 -2.2009000000
C   14.9513000000 -5.7522000000 -1.5279000000
C   13.6583000000 -4.8752000000  0.4711000000
C   13.8893000000 -3.7772000000  1.2511000000
H   13.1623000000 -1.2452000000  1.7971000000
H   12.5583000000 -5.3772000000  3.0881000000
H   11.7383000000 -5.5442000000  4.9131000000
H   11.8513000000  0.1658000000  2.5901000000
H   9.4643000000 -1.3292000000  4.6731000000
H   11.4933000000 -0.8182000000  6.2071000000
H   7.9073000000 -0.9712000000  7.1161000000
H   8.2313000000 -0.9072000000  8.8131000000
H   11.1183000000  0.6778000000  8.1811000000
H   11.7213000000 -0.7962000000  8.9311000000
H   10.3263000000 -0.0742000000  9.5301000000
H   17.3553000000 -2.7642000000 -0.6209000000
H   16.3753000000 -6.3042000000 -2.9929000000
H   14.4873000000 -6.7332000000 -1.5779000000
H   12.8783000000 -5.6272000000  0.4831000000
H   18.2613000000 -4.9422000000 -3.2189000000
C   9.9839928837 -5.3731888301  10.2441006986
O   12.3149928837 -5.7251888301  10.7321006986
C   11.3419928837 -5.3031888301  9.8861006986
O   7.7609928837 -4.8571888301  9.7721006986
C   11.7999928837 -4.6311888301  8.7061006986
O   6.5129928837 -2.9011888301  5.5721006986
C   10.8209928837 -4.1521888301  7.8491006986
O   4.8099928837 -4.1371888301  4.0051006986
C   9.4339928837 -4.2621888301  8.1161006986
O   6.7239928837 -6.4171888301  0.1851006986
C   9.0379928837 -4.8401888301  9.3351006986
C   8.2617928837 -3.8563888301  7.3224006986
C   8.6009928837 -3.8221888301  5.9651006986
C   7.3759928837 -3.6371888301  5.1871006986
C   7.2099928837 -4.4181888301  3.8781006986
C   8.3339928837 -4.9471888301  3.1861006986
C   5.9019928837 -4.5611888301  3.3081006986
C   8.1599928837 -5.7071888301  2.0171006986
C   5.7379928837 -5.3181888301  2.1151006986
C   6.8979928837 -5.7451888301  1.4291006986
C   4.3419928837 -5.6471888301  1.6981006986
C   3.9569928837 -7.0931888301  1.4091006986
C   4.1349928837 -8.1921888301  2.2141006986
C   3.6669928837 -9.5691888301  1.7631006986
C   4.8399928837 -8.0991888301  3.5851006986
H   9.6189928837 -5.6331888301  11.2331006986
H   12.8729928837 -4.4931888301  8.6111006986
H   11.1309928837 -3.7071888301  6.9081006986
H   11.8519928837 -6.1631888301  11.4671006986
H   7.7069928837 -5.4431888301  10.5471006986
H   7.3699928837 -3.8071888301  7.7031006986
H   8.8669928837 -4.8581888301  5.7891006986
H   9.3189928837 -4.9041888301  3.6401006986
H   8.9859928837 -6.0261888301  1.3881006986
H   5.2129928837 -3.7301888301  4.7921006986
H   5.7829928837 -6.5971888301  0.0181006986
H   3.4769928837 -5.2711888301  2.2581006986
H   4.2229928837 -5.1591888301  0.7231006986
H   3.3239928837 -7.2731888301  0.5431006986
H   3.1649928837 -10.1201888301  2.5681006986
H   4.5979928837 -10.0901888301  1.5091006986
H   2.8849928837 -9.5311888301  0.9941006986
H   5.8209928837 -8.5711888301  3.7201006986
H   4.1929928837 -8.5661888301  4.3381006986
H   4.8409928837 -7.0791888301  3.9891006986
84
Scanning combination 93/256: [2.5000, 2.8000]  Energy = -385.9700921770
O   11.1233000000 -4.8002000000  5.0341000000
O   11.3873000000 -0.2652000000  3.3291000000
O   18.1143000000 -4.2382000000 -2.5629000000
O   15.0523000000 -3.1142000000  0.9841000000
C   13.0053000000 -3.3232000000  2.3291000000
C   12.6993000000 -1.9792000000  2.4491000000
C   12.3973000000 -4.3072000000  3.1831000000
C   11.6323000000 -1.5992000000  3.2951000000
C   11.4783000000 -3.8632000000  4.1231000000
C   11.0613000000 -2.4802000000  4.2331000000
C   10.1223000000 -1.9712000000  5.2561000000
C   10.5373000000 -1.3232000000  6.3251000000
C   9.8643000000 -1.0622000000  7.5921000000
C   8.6825000000 -1.0450000000  7.8959000000
C   10.8123000000 -0.2992000000  8.5731000000
C   14.6833000000 -4.8512000000 -0.4449000000
C   15.5183000000 -3.8012000000 -0.0889000000
C   16.6953000000 -3.5982000000 -0.8399000000
C   16.9703000000 -4.4882000000 -1.8899000000
C   16.1523000000 -5.5962000000 -2.2009000000
C   14.9513000000 -5.7522000000 -1.5279000000
C   13.6583000000 -4.8752000000  0.4711000000
C   13.8893000000 -3.7772000000  1.2511000000
H   13.1623000000 -1.2452000000  1.7971000000
H   12.5583000000 -5.3772000000  3.0881000000
H   11.7383000000 -5.5442000000  4.9131000000
H   11.8513000000  0.1658000000  2.5901000000
H   9.4643000000 -1.3292000000  4.6731000000
H   11.4933000000 -0.8182000000  6.2071000000
H   7.9073000000 -0.9712000000  7.1161000000
H   8.2313000000 -0.9072000000  8.8131000000
H   11.1183000000  0.6778000000  8.1811000000
H   11.7213000000 -0.7962000000  8.9311000000
H   10.3263000000 -0.0742000000  9.5301000000
H   17.3553000000 -2.7642000000 -0.6209000000
H   16.3753000000 -6.3042000000 -2.9929000000
H   14.4873000000 -6.7332000000 -1.5779000000
H   12.8783000000 -5.6272000000  0.4831000000
H   18.2613000000 -4.9422000000 -3.2189000000
C   9.9978250614 -5.2762611203  10.2644603416
O   12.3288250614 -5.6282611203  10.7524603416
C   11.3558250614 -5.2062611203  9.9064603416
O   7.7748250614 -4.7602611203  9.7924603416
C   11.8138250614 -4.5342611203  8.7264603416
O   6.5268250614 -2.8042611203  5.5924603416
C   10.8348250614 -4.0552611203  7.8694603416
O   4.8238250614 -4.0402611203  4.0254603416
C   9.4478250614 -4.1652611203  8.1364603416
O   6.7378250614 -6.3202611203  0.2054603416
C   9.0518250614 -4.7432611203  9.3554603416
C   8.2756250614 -3.7594611203  7.3427603416
C   8.6148250614 -3.7252611203  5.9854603416
C   7.3898250614 -3.5402611203  5.2074603416
C   7.2238250614 -4.3212611203  3.8984603416
C   8.3478250614 -4.8502611203  3.2064603416
C   5.9158250614 -4.4642611203  3.3284603416
C   8.1738250614 -5.6102611203  2.0374603416
C   5.7518250614 -5.2212611203  2.1354603416
C   6.9118250614 -5.6482611203  1.4494603416
C   4.3558250614 -5.5502611203  1.7184603416
C   3.9708250614 -6.9962611203  1.4294603416
C   4.1488250614 -8.0952611203  2.2344603416
C   3.6808250614 -9.4722611203  1.7834603416
C   4.8538250614 -8.0022611203  3.6054603416
H   9.6328250614 -5.5362611203  11.2534603416
H   12.8868250614 -4.3962611203  8.6314603416
H   11.1448250614 -3.6102611203  6.9284603416
H   11.8658250614 -6.0662611203  11.4874603416
H   7.7208250614 -5.3462611203  10.5674603416
H   7.3838250614 -3.7102611203  7.7234603416
H   8.8808250614 -4.7612611203  5.8094603416
H   9.3328250614 -4.8072611203  3.6604603416
H   8.9998250614 -5.9292611203  1.4084603416
H   5.2268250614 -3.6332611203  4.8124603416
H   5.7968250614 -6.5002611203  0.0384603416
H   3.4908250614 -5.1742611203  2.2784603416
H   4.2368250614 -5.0622611203  0.7434603416
H   3.3378250614 -7.1762611203  0.5634603416
H   3.1788250614 -10.0232611203  2.5884603416
H   4.6118250614 -9.9932611203  1.5294603416
H   2.8988250614 -9.4342611203  1.0144603416
H   5.8348250614 -8.4742611203  3.7404603416
H   4.2068250614 -8.4692611203  4.3584603416
H   4.8548250614 -6.9822611203  4.0094603416
84
Scanning combination 94/256: [2.5000, 2.7000]  Energy = -385.9668551680
O   11.1233000000 -4.8002000000  5.0341000000
O   11.3873000000 -0.2652000000  3.3291000000
O   18.1143000000 -4.2382000000 -2.5629000000
O   15.0523000000 -3.1142000000  0.9841000000
C   13.0053000000 -3.3232000000  2.3291000000
C   12.6993000000 -1.9792000000  2.4491000000
C   12.3973000000 -4.3072000000  3.1831000000
C   11.6323000000 -1.5992000000  3.2951000000
C   11.4783000000 -3.8632000000  4.1231000000
C   11.0613000000 -2.4802000000  4.2331000000
C   10.1223000000 -1.9712000000  5.2561000000
C   10.5373000000 -1.3232000000  6.3251000000
C   9.8643000000 -1.0622000000  7.5921000000
C   8.6825000000 -1.0450000000  7.8959000000
C   10.8123000000 -0.2992000000  8.5731000000
C   14.6833000000 -4.8512000000 -0.4449000000
C   15.5183000000 -3.8012000000 -0.0889000000
C   16.6953000000 -3.5982000000 -0.8399000000
C   16.9703000000 -4.4882000000 -1.8899000000
C   16.1523000000 -5.5962000000 -2.2009000000
C   14.9513000000 -5.7522000000 -1.5279000000
C   13.6583000000 -4.8752000000  0.4711000000
C   13.8893000000 -3.7772000000  1.2511000000
H   13.1623000000 -1.2452000000  1.7971000000
H   12.5583000000 -5.3772000000  3.0881000000
H   11.7383000000 -5.5442000000  4.9131000000
H   11.8513000000  0.1658000000  2.5901000000
H   9.4643000000 -1.3292000000  4.6731000000
H   11.4933000000 -0.8182000000  6.2071000000
H   7.9073000000 -0.9712000000  7.1161000000
H   8.2313000000 -0.9072000000  8.8131000000
H   11.1183000000  0.6778000000  8.1811000000
H   11.7213000000 -0.7962000000  8.9311000000
H   10.3263000000 -0.0742000000  9.5301000000
H   17.3553000000 -2.7642000000 -0.6209000000
H   16.3753000000 -6.3042000000 -2.9929000000
H   14.4873000000 -6.7332000000 -1.5779000000
H   12.8783000000 -5.6272000000  0.4831000000
H   18.2613000000 -4.9422000000 -3.2189000000
C   9.9759143667 -5.1798553604  10.3158573648
O   12.3069143667 -5.5318553604  10.8038573648
C   11.3339143667 -5.1098553604  9.9578573648
O   7.7529143667 -4.6638553604  9.8438573648
C   11.7919143667 -4.4378553604  8.7778573648
O   6.5049143667 -2.7078553604  5.6438573648
C   10.8129143667 -3.9588553604  7.9208573648
O   4.8019143667 -3.9438553604  4.0768573648
C   9.4259143667 -4.0688553604  8.1878573648
O   6.7159143667 -6.2238553604  0.2568573648
C   9.0299143667 -4.6468553604  9.4068573648
C   8.2537143667 -3.6630553604  7.3941573648
C   8.5929143667 -3.6288553604  6.0368573648
C   7.3679143667 -3.4438553604  5.2588573648
C   7.2019143667 -4.2248553604  3.9498573648
C   8.3259143667 -4.7538553604  3.2578573648
C   5.8939143667 -4.3678553604  3.3798573648
C   8.1519143667 -5.5138553604  2.0888573648
C   5.7299143667 -5.1248553604  2.1868573648
C   6.8899143667 -5.5518553604  1.5008573648
C   4.3339143667 -5.4538553604  1.7698573648
C   3.9489143667 -6.8998553604  1.4808573648
C   4.1269143667 -7.9988553604  2.2858573648
C   3.6589143667 -9.3758553604  1.8348573648
C   4.8319143667 -7.9058553604  3.6568573648
H   9.6109143667 -5.4398553604  11.3048573648
H   12.8649143667 -4.2998553604  8.6828573648
H   11.1229143667 -3.5138553604  6.9798573648
H   11.8439143667 -5.9698553604  11.5388573648
H   7.6989143667 -5.2498553604  10.6188573648
H   7.3619143667 -3.6138553604  7.7748573648
H   8.8589143667 -4.6648553604  5.8608573648
H   9.3109143667 -4.7108553604  3.7118573648
H   8.9779143667 -5.8328553604  1.4598573648
H   5.2049143667 -3.5368553604  4.8638573648
H   5.7749143667 -6.4038553604  0.0898573648
H   3.4689143667 -5.0778553604  2.3298573648
H   4.2149143667 -4.9658553604  0.7948573648
H   3.3159143667 -7.0798553604  0.6148573648
H   3.1569143667 -9.9268553604  2.6398573648
H   4.5899143667 -9.8968553604  1.5808573648
H   2.8769143667 -9.3378553604  1.0658573648
H   5.8129143667 -8.3778553604  3.7918573648
H   4.1849143667 -8.3728553604  4.4098573648
H   4.8329143667 -6.8858553604  4.0608573648
84
Scanning combination 95/256: [2.5000, 2.6000]  Energy = -385.9616369005
O   11.1233000000 -4.8002000000  5.0341000000
O   11.3873000000 -0.2652000000  3.3291000000
O   18.1143000000 -4.2382000000 -2.5629000000
O   15.0523000000 -3.1142000000  0.9841000000
C   13.0053000000 -3.3232000000  2.3291000000
C   12.6993000000 -1.9792000000  2.4491000000
C   12.3973000000 -4.3072000000  3.1831000000
C   11.6323000000 -1.5992000000  3.2951000000
C   11.4783000000 -3.8632000000  4.1231000000
C   11.0613000000 -2.4802000000  4.2331000000
C   10.1223000000 -1.9712000000  5.2561000000
C   10.5373000000 -1.3232000000  6.3251000000
C   9.8643000000 -1.0622000000  7.5921000000
C   8.6825000000 -1.0450000000  7.8959000000
C   10.8123000000 -0.2992000000  8.5731000000
C   14.6833000000 -4.8512000000 -0.4449000000
C   15.5183000000 -3.8012000000 -0.0889000000
C   16.6953000000 -3.5982000000 -0.8399000000
C   16.9703000000 -4.4882000000 -1.8899000000
C   16.1523000000 -5.5962000000 -2.2009000000
C   14.9513000000 -5.7522000000 -1.5279000000
C   13.6583000000 -4.8752000000  0.4711000000
C   13.8893000000 -3.7772000000  1.2511000000
H   13.1623000000 -1.2452000000  1.7971000000
H   12.5583000000 -5.3772000000  3.0881000000
H   11.7383000000 -5.5442000000  4.9131000000
H   11.8513000000  0.1658000000  2.5901000000
H   9.4643000000 -1.3292000000  4.6731000000
H   11.4933000000 -0.8182000000  6.2071000000
H   7.9073000000 -0.9712000000  7.1161000000
H   8.2313000000 -0.9072000000  8.8131000000
H   11.1183000000  0.6778000000  8.1811000000
H   11.7213000000 -0.7962000000  8.9311000000
H   10.3263000000 -0.0742000000  9.5301000000
H   17.3553000000 -2.7642000000 -0.6209000000
H   16.3753000000 -6.3042000000 -2.9929000000
H   14.4873000000 -6.7332000000 -1.5779000000
H   12.8783000000 -5.6272000000  0.4831000000
H   18.2613000000 -4.9422000000 -3.2189000000
C   9.9361156209 -5.0820524778  10.3833424963
O   12.2671156209 -5.4340524778  10.8713424963
C   11.2941156209 -5.0120524778  10.0253424963
O   7.7131156209 -4.5660524778  9.9113424963
C   11.7521156209 -4.3400524778  8.8453424963
O   6.4651156209 -2.6100524778  5.7113424963
C   10.7731156209 -3.8610524778  7.9883424963
O   4.7621156209 -3.8460524778  4.1443424963
C   9.3861156209 -3.9710524778  8.2553424963
O   6.6761156209 -6.1260524778  0.3243424963
C   8.9901156209 -4.5490524778  9.4743424963
C   8.2139156209 -3.5652524778  7.4616424963
C   8.5531156209 -3.5310524778  6.1043424963
C   7.3281156209 -3.3460524778  5.3263424963
C   7.1621156209 -4.1270524778  4.0173424963
C   8.2861156209 -4.6560524778  3.3253424963
C   5.8541156209 -4.2700524778  3.4473424963
C   8.1121156209 -5.4160524778  2.1563424963
C   5.6901156209 -5.0270524778  2.2543424963
C   6.8501156209 -5.4540524778  1.5683424963
C   4.2941156209 -5.3560524778  1.8373424963
C   3.9091156209 -6.8020524778  1.5483424963
C   4.0871156209 -7.9010524778  2.3533424963
C   3.6191156209 -9.2780524778  1.9023424963
C   4.7921156209 -7.8080524778  3.7243424963
H   9.5711156209 -5.3420524778  11.3723424963
H   12.8251156209 -4.2020524778  8.7503424963
H   11.0831156209 -3.4160524778  7.0473424963
H   11.8041156209 -5.8720524778  11.6063424963
H   7.6591156209 -5.1520524778  10.6863424963
H   7.3221156209 -3.5160524778  7.8423424963
H   8.8191156209 -4.5670524778  5.9283424963
H   9.2711156209 -4.6130524778  3.7793424963
H   8.9381156209 -5.7350524778  1.5273424963
H   5.1651156209 -3.4390524778  4.9313424963
H   5.7351156209 -6.3060524778  0.1573424963
H   3.4291156209 -4.9800524778  2.3973424963
H   4.1751156209 -4.8680524778  0.8623424963
H   3.2761156209 -6.9820524778  0.6823424963
H   3.1171156209 -9.8290524778  2.7073424963
H   4.5501156209 -9.7990524778  1.6483424963
H   2.8371156209 -9.2400524778  1.1333424963
H   5.7731156209 -8.2800524778  3.8593424963
H   4.1451156209 -8.2750524778  4.4773424963
H   4.7931156209 -6.7880524778  4.1283424963
84
Scanning combination 96/256: [2.5000, 2.5000]  Energy = -385.9545239206
O   11.1233000000 -4.8002000000  5.0341000000
O   11.3873000000 -0.2652000000  3.3291000000
O   18.1143000000 -4.2382000000 -2.5629000000
O   15.0523000000 -3.1142000000  0.9841000000
C   13.0053000000 -3.3232000000  2.3291000000
C   12.6993000000 -1.9792000000  2.4491000000
C   12.3973000000 -4.3072000000  3.1831000000
C   11.6323000000 -1.5992000000  3.2951000000
C   11.4783000000 -3.8632000000  4.1231000000
C   11.0613000000 -2.4802000000  4.2331000000
C   10.1223000000 -1.9712000000  5.2561000000
C   10.5373000000 -1.3232000000  6.3251000000
C   9.8643000000 -1.0622000000  7.5921000000
C   8.6825000000 -1.0450000000  7.8959000000
C   10.8123000000 -0.2992000000  8.5731000000
C   14.6833000000 -4.8512000000 -0.4449000000
C   15.5183000000 -3.8012000000 -0.0889000000
C   16.6953000000 -3.5982000000 -0.8399000000
C   16.9703000000 -4.4882000000 -1.8899000000
C   16.1523000000 -5.5962000000 -2.2009000000
C   14.9513000000 -5.7522000000 -1.5279000000
C   13.6583000000 -4.8752000000  0.4711000000
C   13.8893000000 -3.7772000000  1.2511000000
H   13.1623000000 -1.2452000000  1.7971000000
H   12.5583000000 -5.3772000000  3.0881000000
H   11.7383000000 -5.5442000000  4.9131000000
H   11.8513000000  0.1658000000  2.5901000000
H   9.4643000000 -1.3292000000  4.6731000000
H   11.4933000000 -0.8182000000  6.2071000000
H   7.9073000000 -0.9712000000  7.1161000000
H   8.2313000000 -0.9072000000  8.8131000000
H   11.1183000000  0.6778000000  8.1811000000
H   11.7213000000 -0.7962000000  8.9311000000
H   10.3263000000 -0.0742000000  9.5301000000
H   17.3553000000 -2.7642000000 -0.6209000000
H   16.3753000000 -6.3042000000 -2.9929000000
H   14.4873000000 -6.7332000000 -1.5779000000
H   12.8783000000 -5.6272000000  0.4831000000
H   18.2613000000 -4.9422000000 -3.2189000000
C   9.8894356457 -4.9814798541  10.4577635225
O   12.2204356457 -5.3334798541  10.9457635225
C   11.2474356457 -4.9114798541  10.0997635225
O   7.6664356457 -4.4654798541  9.9857635225
C   11.7054356457 -4.2394798541  8.9197635225
O   6.4184356457 -2.5094798541  5.7857635225
C   10.7264356457 -3.7604798541  8.0627635225
O   4.7154356457 -3.7454798541  4.2187635225
C   9.3394356457 -3.8704798541  8.3297635225
O   6.6294356457 -6.0254798541  0.3987635225
C   8.9434356457 -4.4484798541  9.5487635225
C   8.1672356457 -3.4646798541  7.5360635225
C   8.5064356457 -3.4304798541  6.1787635225
C   7.2814356457 -3.2454798541  5.4007635225
C   7.1154356457 -4.0264798541  4.0917635225
C   8.2394356457 -4.5554798541  3.3997635225
C   5.8074356457 -4.1694798541  3.5217635225
C   8.0654356457 -5.3154798541  2.2307635225
C   5.6434356457 -4.9264798541  2.3287635225
C   6.8034356457 -5.3534798541  1.6427635225
C   4.2474356457 -5.2554798541  1.9117635225
C   3.8624356457 -6.7014798541  1.6227635225
C   4.0404356457 -7.8004798541  2.4277635225
C   3.5724356457 -9.1774798541  1.9767635225
C   4.7454356457 -7.7074798541  3.7987635225
H   9.5244356457 -5.2414798541  11.4467635225
H   12.7784356457 -4.1014798541  8.8247635225
H   11.0364356457 -3.3154798541  7.1217635225
H   11.7574356457 -5.7714798541  11.6807635225
H   7.6124356457 -5.0514798541  10.7607635225
H   7.2754356457 -3.4154798541  7.9167635225
H   8.7724356457 -4.4664798541  6.0027635225
H   9.2244356457 -4.5124798541  3.8537635225
H   8.8914356457 -5.6344798541  1.6017635225
H   5.1184356457 -3.3384798541  5.0057635225
H   5.6884356457 -6.2054798541  0.2317635225
H   3.3824356457 -4.8794798541  2.4717635225
H   4.1284356457 -4.7674798541  0.9367635225
H   3.2294356457 -6.8814798541  0.7567635225
H   3.0704356457 -9.7284798541  2.7817635225
H   4.5034356457 -9.6984798541  1.7227635225
H   2.7904356457 -9.1394798541  1.2077635225
H   5.7264356457 -8.1794798541  3.9337635225
H   4.0984356457 -8.1744798541  4.5517635225
H   4.7464356457 -6.6874798541  4.2027635225
84
Scanning combination 97/256: [2.5000, 2.4000]  Energy = -385.9459758993
O   11.1233000000 -4.8002000000  5.0341000000
O   11.3873000000 -0.2652000000  3.3291000000
O   18.1143000000 -4.2382000000 -2.5629000000
O   15.0523000000 -3.1142000000  0.9841000000
C   13.0053000000 -3.3232000000  2.3291000000
C   12.6993000000 -1.9792000000  2.4491000000
C   12.3973000000 -4.3072000000  3.1831000000
C   11.6323000000 -1.5992000000  3.2951000000
C   11.4783000000 -3.8632000000  4.1231000000
C   11.0613000000 -2.4802000000  4.2331000000
C   10.1223000000 -1.9712000000  5.2561000000
C   10.5373000000 -1.3232000000  6.3251000000
C   9.8643000000 -1.0622000000  7.5921000000
C   8.6825000000 -1.0450000000  7.8959000000
C   10.8123000000 -0.2992000000  8.5731000000
C   14.6833000000 -4.8512000000 -0.4449000000
C   15.5183000000 -3.8012000000 -0.0889000000
C   16.6953000000 -3.5982000000 -0.8399000000
C   16.9703000000 -4.4882000000 -1.8899000000
C   16.1523000000 -5.5962000000 -2.2009000000
C   14.9513000000 -5.7522000000 -1.5279000000
C   13.6583000000 -4.8752000000  0.4711000000
C   13.8893000000 -3.7772000000  1.2511000000
H   13.1623000000 -1.2452000000  1.7971000000
H   12.5583000000 -5.3772000000  3.0881000000
H   11.7383000000 -5.5442000000  4.9131000000
H   11.8513000000  0.1658000000  2.5901000000
H   9.4643000000 -1.3292000000  4.6731000000
H   11.4933000000 -0.8182000000  6.2071000000
H   7.9073000000 -0.9712000000  7.1161000000
H   8.2313000000 -0.9072000000  8.8131000000
H   11.1183000000  0.6778000000  8.1811000000
H   11.7213000000 -0.7962000000  8.9311000000
H   10.3263000000 -0.0742000000  9.5301000000
H   17.3553000000 -2.7642000000 -0.6209000000
H   16.3753000000 -6.3042000000 -2.9929000000
H   14.4873000000 -6.7332000000 -1.5779000000
H   12.8783000000 -5.6272000000  0.4831000000
H   18.2613000000 -4.9422000000 -3.2189000000
C   9.8424481523 -4.8776210455  10.5335528607
O   12.1734481523 -5.2296210455  11.0215528607
C   11.2004481523 -4.8076210455  10.1755528607
O   7.6194481523 -4.3616210455  10.0615528607
C   11.6584481523 -4.1356210455  8.9955528607
O   6.3714481523 -2.4056210455  5.8615528607
C   10.6794481523 -3.6566210455  8.1385528607
O   4.6684481523 -3.6416210455  4.2945528607
C   9.2924481523 -3.7666210455  8.4055528607
O   6.5824481523 -5.9216210455  0.4745528607
C   8.8964481523 -4.3446210455  9.6245528607
C   8.1202481523 -3.3608210455  7.6118528607
C   8.4594481523 -3.3266210455  6.2545528607
C   7.2344481523 -3.1416210455  5.4765528607
C   7.0684481523 -3.9226210455  4.1675528607
C   8.1924481523 -4.4516210455  3.4755528607
C   5.7604481523 -4.0656210455  3.5975528607
C   8.0184481523 -5.2116210455  2.3065528607
C   5.5964481523 -4.8226210455  2.4045528607
C   6.7564481523 -5.2496210455  1.7185528607
C   4.2004481523 -5.1516210455  1.9875528607
C   3.8154481523 -6.5976210455  1.6985528607
C   3.9934481523 -7.6966210455  2.5035528607
C   3.5254481523 -9.0736210455  2.0525528607
C   4.6984481523 -7.6036210455  3.8745528607
H   9.4774481523 -5.1376210455  11.5225528607
H   12.7314481523 -3.9976210455  8.9005528607
H   10.9894481523 -3.2116210455  7.1975528607
H   11.7104481523 -5.6676210455  11.7565528607
H   7.5654481523 -4.9476210455  10.8365528607
H   7.2284481523 -3.3116210455  7.9925528607
H   8.7254481523 -4.3626210455  6.0785528607
H   9.1774481523 -4.4086210455  3.9295528607
H   8.8444481523 -5.5306210455  1.6775528607
H   5.0714481523 -3.2346210455  5.0815528607
H   5.6414481523 -6.1016210455  0.3075528607
H   3.3354481523 -4.7756210455  2.5475528607
H   4.0814481523 -4.6636210455  1.0125528607
H   3.1824481523 -6.7776210455  0.8325528607
H   3.0234481523 -9.6246210455  2.8575528607
H   4.4564481523 -9.5946210455  1.7985528607
H   2.7434481523 -9.0356210455  1.2835528607
H   5.6794481523 -8.0756210455  4.0095528607
H   4.0514481523 -8.0706210455  4.6275528607
H   4.6994481523 -6.5836210455  4.2785528607
84
Scanning combination 98/256: [2.5000, 2.3000]  Energy = -385.9351137873
O   11.1233000000 -4.8002000000  5.0341000000
O   11.3873000000 -0.2652000000  3.3291000000
O   18.1143000000 -4.2382000000 -2.5629000000
O   15.0523000000 -3.1142000000  0.9841000000
C   13.0053000000 -3.3232000000  2.3291000000
C   12.6993000000 -1.9792000000  2.4491000000
C   12.3973000000 -4.3072000000  3.1831000000
C   11.6323000000 -1.5992000000  3.2951000000
C   11.4783000000 -3.8632000000  4.1231000000
C   11.0613000000 -2.4802000000  4.2331000000
C   10.1223000000 -1.9712000000  5.2561000000
C   10.5373000000 -1.3232000000  6.3251000000
C   9.8643000000 -1.0622000000  7.5921000000
C   8.6825000000 -1.0450000000  7.8959000000
C   10.8123000000 -0.2992000000  8.5731000000
C   14.6833000000 -4.8512000000 -0.4449000000
C   15.5183000000 -3.8012000000 -0.0889000000
C   16.6953000000 -3.5982000000 -0.8399000000
C   16.9703000000 -4.4882000000 -1.8899000000
C   16.1523000000 -5.5962000000 -2.2009000000
C   14.9513000000 -5.7522000000 -1.5279000000
C   13.6583000000 -4.8752000000  0.4711000000
C   13.8893000000 -3.7772000000  1.2511000000
H   13.1623000000 -1.2452000000  1.7971000000
H   12.5583000000 -5.3772000000  3.0881000000
H   11.7383000000 -5.5442000000  4.9131000000
H   11.8513000000  0.1658000000  2.5901000000
H   9.4643000000 -1.3292000000  4.6731000000
H   11.4933000000 -0.8182000000  6.2071000000
H   7.9073000000 -0.9712000000  7.1161000000
H   8.2313000000 -0.9072000000  8.8131000000
H   11.1183000000  0.6778000000  8.1811000000
H   11.7213000000 -0.7962000000  8.9311000000
H   10.3263000000 -0.0742000000  9.5301000000
H   17.3553000000 -2.7642000000 -0.6209000000
H   16.3753000000 -6.3042000000 -2.9929000000
H   14.4873000000 -6.7332000000 -1.5779000000
H   12.8783000000 -5.6272000000  0.4831000000
H   18.2613000000 -4.9422000000 -3.2189000000
C   9.7988200922 -4.7705561236  10.6074815899
O   12.1298200922 -5.1225561236  11.0954815899
C   11.1568200922 -4.7005561236  10.2494815899
O   7.5758200922 -4.2545561236  10.1354815899
C   11.6148200922 -4.0285561236  9.0694815899
O   6.3278200922 -2.2985561236  5.9354815899
C   10.6358200922 -3.5495561236  8.2124815899
O   4.6248200922 -3.5345561236  4.3684815899
C   9.2488200922 -3.6595561236  8.4794815899
O   6.5388200922 -5.8145561236  0.5484815899
C   8.8528200922 -4.2375561236  9.6984815899
C   8.0766200922 -3.2537561236  7.6857815899
C   8.4158200922 -3.2195561236  6.3284815899
C   7.1908200922 -3.0345561236  5.5504815899
C   7.0248200922 -3.8155561236  4.2414815899
C   8.1488200922 -4.3445561236  3.5494815899
C   5.7168200922 -3.9585561236  3.6714815899
C   7.9748200922 -5.1045561236  2.3804815899
C   5.5528200922 -4.7155561236  2.4784815899
C   6.7128200922 -5.1425561236  1.7924815899
C   4.1568200922 -5.0445561236  2.0614815899
C   3.7718200922 -6.4905561236  1.7724815899
C   3.9498200922 -7.5895561236  2.5774815899
C   3.4818200922 -8.9665561236  2.1264815899
C   4.6548200922 -7.4965561236  3.9484815899
H   9.4338200922 -5.0305561236  11.5964815899
H   12.6878200922 -3.8905561236  8.9744815899
H   10.9458200922 -3.1045561236  7.2714815899
H   11.6668200922 -5.5605561236  11.8304815899
H   7.5218200922 -4.8405561236  10.9104815899
H   7.1848200922 -3.2045561236  8.0664815899
H   8.6818200922 -4.2555561236  6.1524815899
H   9.1338200922 -4.3015561236  4.0034815899
H   8.8008200922 -5.4235561236  1.7514815899
H   5.0278200922 -3.1275561236  5.1554815899
H   5.5978200922 -5.9945561236  0.3814815899
H   3.2918200922 -4.6685561236  2.6214815899
H   4.0378200922 -4.5565561236  1.0864815899
H   3.1388200922 -6.6705561236  0.9064815899
H   2.9798200922 -9.5175561236  2.9314815899
H   4.4128200922 -9.4875561236  1.8724815899
H   2.6998200922 -8.9285561236  1.3574815899
H   5.6358200922 -7.9685561236  4.0834815899
H   4.0078200922 -7.9635561236  4.7014815899
H   4.6558200922 -6.4765561236  4.3524815899
84
Scanning combination 99/256: [2.5000, 2.2000]  Energy = -385.9200543161
O   11.1233000000 -4.8002000000  5.0341000000
O   11.3873000000 -0.2652000000  3.3291000000
O   18.1143000000 -4.2382000000 -2.5629000000
O   15.0523000000 -3.1142000000  0.9841000000
C   13.0053000000 -3.3232000000  2.3291000000
C   12.6993000000 -1.9792000000  2.4491000000
C   12.3973000000 -4.3072000000  3.1831000000
C   11.6323000000 -1.5992000000  3.2951000000
C   11.4783000000 -3.8632000000  4.1231000000
C   11.0613000000 -2.4802000000  4.2331000000
C   10.1223000000 -1.9712000000  5.2561000000
C   10.5373000000 -1.3232000000  6.3251000000
C   9.8643000000 -1.0622000000  7.5921000000
C   8.6825000000 -1.0450000000  7.8959000000
C   10.8123000000 -0.2992000000  8.5731000000
C   14.6833000000 -4.8512000000 -0.4449000000
C   15.5183000000 -3.8012000000 -0.0889000000
C   16.6953000000 -3.5982000000 -0.8399000000
C   16.9703000000 -4.4882000000 -1.8899000000
C   16.1523000000 -5.5962000000 -2.2009000000
C   14.9513000000 -5.7522000000 -1.5279000000
C   13.6583000000 -4.8752000000  0.4711000000
C   13.8893000000 -3.7772000000  1.2511000000
H   13.1623000000 -1.2452000000  1.7971000000
H   12.5583000000 -5.3772000000  3.0881000000
H   11.7383000000 -5.5442000000  4.9131000000
H   11.8513000000  0.1658000000  2.5901000000
H   9.4643000000 -1.3292000000  4.6731000000
H   11.4933000000 -0.8182000000  6.2071000000
H   7.9073000000 -0.9712000000  7.1161000000
H   8.2313000000 -0.9072000000  8.8131000000
H   11.1183000000  0.6778000000  8.1811000000
H   11.7213000000 -0.7962000000  8.9311000000
H   10.3263000000 -0.0742000000  9.5301000000
H   17.3553000000 -2.7642000000 -0.6209000000
H   16.3753000000 -6.3042000000 -2.9929000000
H   14.4873000000 -6.7332000000 -1.5779000000
H   12.8783000000 -5.6272000000  0.4831000000
H   18.2613000000 -4.9422000000 -3.2189000000
C   9.7603942260 -4.6606524396  10.6778175999
O   12.0913942260 -5.0126524396  11.1658175999
C   11.1183942260 -4.5906524396  10.3198175999
O   7.5373942260 -4.1446524396  10.2058175999
C   11.5763942260 -3.9186524396  9.1398175999
O   6.2893942260 -2.1886524396  6.0058175999
C   10.5973942260 -3.4396524396  8.2828175999
O   4.5863942260 -3.4246524396  4.4388175999
C   9.2103942260 -3.5496524396  8.5498175999
O   6.5003942260 -5.7046524396  0.6188175999
C   8.8143942260 -4.1276524396  9.7688175999
C   8.0381942260 -3.1438524396  7.7561175999
C   8.3773942260 -3.1096524396  6.3988175999
C   7.1523942260 -2.9246524396  5.6208175999
C   6.9863942260 -3.7056524396  4.3118175999
C   8.1103942260 -4.2346524396  3.6198175999
C   5.6783942260 -3.8486524396  3.7418175999
C   7.9363942260 -4.9946524396  2.4508175999
C   5.5143942260 -4.6056524396  2.5488175999
C   6.6743942260 -5.0326524396  1.8628175999
C   4.1183942260 -4.9346524396  2.1318175999
C   3.7333942260 -6.3806524396  1.8428175999
C   3.9113942260 -7.4796524396  2.6478175999
C   3.4433942260 -8.8566524396  2.1968175999
C   4.6163942260 -7.3866524396  4.0188175999
H   9.3953942260 -4.9206524396  11.6668175999
H   12.6493942260 -3.7806524396  9.0448175999
H   10.9073942260 -2.9946524396  7.3418175999
H   11.6283942260 -5.4506524396  11.9008175999
H   7.4833942260 -4.7306524396  10.9808175999
H   7.1463942260 -3.0946524396  8.1368175999
H   8.6433942260 -4.1456524396  6.2228175999
H   9.0953942260 -4.1916524396  4.0738175999
H   8.7623942260 -5.3136524396  1.8218175999
H   4.9893942260 -3.0176524396  5.2258175999
H   5.5593942260 -5.8846524396  0.4518175999
H   3.2533942260 -4.5586524396  2.6918175999
H   3.9993942260 -4.4466524396  1.1568175999
H   3.1003942260 -6.5606524396  0.9768175999
H   2.9413942260 -9.4076524396  3.0018175999
H   4.3743942260 -9.3776524396  1.9428175999
H   2.6613942260 -8.8186524396  1.4278175999
H   5.5973942260 -7.8586524396  4.1538175999
H   3.9693942260 -7.8536524396  4.7718175999
H   4.6173942260 -6.3666524396  4.4228175999
84
Scanning combination 100/256: [2.5000, 2.1000]  Energy = -385.8998502489
O   11.1233000000 -4.8002000000  5.0341000000
O   11.3873000000 -0.2652000000  3.3291000000
O   18.1143000000 -4.2382000000 -2.5629000000
O   15.0523000000 -3.1142000000  0.9841000000
C   13.0053000000 -3.3232000000  2.3291000000
C   12.6993000000 -1.9792000000  2.4491000000
C   12.3973000000 -4.3072000000  3.1831000000
C   11.6323000000 -1.5992000000  3.2951000000
C   11.4783000000 -3.8632000000  4.1231000000
C   11.0613000000 -2.4802000000  4.2331000000
C   10.1223000000 -1.9712000000  5.2561000000
C   10.5373000000 -1.3232000000  6.3251000000
C   9.8643000000 -1.0622000000  7.5921000000
C   8.6825000000 -1.0450000000  7.8959000000
C   10.8123000000 -0.2992000000  8.5731000000
C   14.6833000000 -4.8512000000 -0.4449000000
C   15.5183000000 -3.8012000000 -0.0889000000
C   16.6953000000 -3.5982000000 -0.8399000000
C   16.9703000000 -4.4882000000 -1.8899000000
C   16.1523000000 -5.5962000000 -2.2009000000
C   14.9513000000 -5.7522000000 -1.5279000000
C   13.6583000000 -4.8752000000  0.4711000000
C   13.8893000000 -3.7772000000  1.2511000000
H   13.1623000000 -1.2452000000  1.7971000000
H   12.5583000000 -5.3772000000  3.0881000000
H   11.7383000000 -5.5442000000  4.9131000000
H   11.8513000000  0.1658000000  2.5901000000
H   9.4643000000 -1.3292000000  4.6731000000
H   11.4933000000 -0.8182000000  6.2071000000
H   7.9073000000 -0.9712000000  7.1161000000
H   8.2313000000 -0.9072000000  8.8131000000
H   11.1183000000  0.6778000000  8.1811000000
H   11.7213000000 -0.7962000000  8.9311000000
H   10.3263000000 -0.0742000000  9.5301000000
H   17.3553000000 -2.7642000000 -0.6209000000
H   16.3753000000 -6.3042000000 -2.9929000000
H   14.4873000000 -6.7332000000 -1.5779000000
H   12.8783000000 -5.6272000000  0.4831000000
H   18.2613000000 -4.9422000000 -3.2189000000
C   9.7279523405 -4.5483580719  10.7437282477
O   12.0589523405 -4.9003580719  11.2317282477
C   11.0859523405 -4.4783580719  10.3857282477
O   7.5049523405 -4.0323580719  10.2717282477
C   11.5439523405 -3.8063580719  9.2057282477
O   6.2569523405 -2.0763580719  6.0717282477
C   10.5649523405 -3.3273580719  8.3487282477
O   4.5539523405 -3.3123580719  4.5047282477
C   9.1779523405 -3.4373580719  8.6157282477
O   6.4679523405 -5.5923580719  0.6847282477
C   8.7819523405 -4.0153580719  9.8347282477
C   8.0057523405 -3.0315580719  7.8220282477
C   8.3449523405 -2.9973580719  6.4647282477
C   7.1199523405 -2.8123580719  5.6867282477
C   6.9539523405 -3.5933580719  4.3777282477
C   8.0779523405 -4.1223580719  3.6857282477
C   5.6459523405 -3.7363580719  3.8077282477
C   7.9039523405 -4.8823580719  2.5167282477
C   5.4819523405 -4.4933580719  2.6147282477
C   6.6419523405 -4.9203580719  1.9287282477
C   4.0859523405 -4.8223580719  2.1977282477
C   3.7009523405 -6.2683580719  1.9087282477
C   3.8789523405 -7.3673580719  2.7137282477
C   3.4109523405 -8.7443580719  2.2627282477
C   4.5839523405 -7.2743580719  4.0847282477
H   9.3629523405 -4.8083580719  11.7327282477
H   12.6169523405 -3.6683580719  9.1107282477
H   10.8749523405 -2.8823580719  7.4077282477
H   11.5959523405 -5.3383580719  11.9667282477
H   7.4509523405 -4.6183580719  11.0467282477
H   7.1139523405 -2.9823580719  8.2027282477
H   8.6109523405 -4.0333580719  6.2887282477
H   9.0629523405 -4.0793580719  4.1397282477
H   8.7299523405 -5.2013580719  1.8877282477
H   4.9569523405 -2.9053580719  5.2917282477
H   5.5269523405 -5.7723580719  0.5177282477
H   3.2209523405 -4.4463580719  2.7577282477
H   3.9669523405 -4.3343580719  1.2227282477
H   3.0679523405 -6.4483580719  1.0427282477
H   2.9089523405 -9.2953580719  3.0677282477
H   4.3419523405 -9.2653580719  2.0087282477
H   2.6289523405 -8.7063580719  1.4937282477
H   5.5649523405 -7.7463580719  4.2197282477
H   3.9369523405 -7.7413580719  4.8377282477
H   4.5849523405 -6.2543580719  4.4887282477
84
Scanning combination 101/256: [2.5000, 2.0000]  Energy = -385.8746279474
O   11.1233000000 -4.8002000000  5.0341000000
O   11.3873000000 -0.2652000000  3.3291000000
O   18.1143000000 -4.2382000000 -2.5629000000
O   15.0523000000 -3.1142000000  0.9841000000
C   13.0053000000 -3.3232000000  2.3291000000
C   12.6993000000 -1.9792000000  2.4491000000
C   12.3973000000 -4.3072000000  3.1831000000
C   11.6323000000 -1.5992000000  3.2951000000
C   11.4783000000 -3.8632000000  4.1231000000
C   11.0613000000 -2.4802000000  4.2331000000
C   10.1223000000 -1.9712000000  5.2561000000
C   10.5373000000 -1.3232000000  6.3251000000
C   9.8643000000 -1.0622000000  7.5921000000
C   8.6825000000 -1.0450000000  7.8959000000
C   10.8123000000 -0.2992000000  8.5731000000
C   14.6833000000 -4.8512000000 -0.4449000000
C   15.5183000000 -3.8012000000 -0.0889000000
C   16.6953000000 -3.5982000000 -0.8399000000
C   16.9703000000 -4.4882000000 -1.8899000000
C   16.1523000000 -5.5962000000 -2.2009000000
C   14.9513000000 -5.7522000000 -1.5279000000
C   13.6583000000 -4.8752000000  0.4711000000
C   13.8893000000 -3.7772000000  1.2511000000
H   13.1623000000 -1.2452000000  1.7971000000
H   12.5583000000 -5.3772000000  3.0881000000
H   11.7383000000 -5.5442000000  4.9131000000
H   11.8513000000  0.1658000000  2.5901000000
H   9.4643000000 -1.3292000000  4.6731000000
H   11.4933000000 -0.8182000000  6.2071000000
H   7.9073000000 -0.9712000000  7.1161000000
H   8.2313000000 -0.9072000000  8.8131000000
H   11.1183000000  0.6778000000  8.1811000000
H   11.7213000000 -0.7962000000  8.9311000000
H   10.3263000000 -0.0742000000  9.5301000000
H   17.3553000000 -2.7642000000 -0.6209000000
H   16.3753000000 -6.3042000000 -2.9929000000
H   14.4873000000 -6.7332000000 -1.5779000000
H   12.8783000000 -5.6272000000  0.4831000000
H   18.2613000000 -4.9422000000 -3.2189000000
C   9.7017152468 -4.4341019948  10.8048771491
O   12.0327152468 -4.7861019948  11.2928771491
C   11.0597152468 -4.3641019948  10.4468771491
O   7.4787152468 -3.9181019948  10.3328771491
C   11.5177152468 -3.6921019948  9.2668771491
O   6.2307152468 -1.9621019948  6.1328771491
C   10.5387152468 -3.2131019948  8.4098771491
O   4.5277152468 -3.1981019948  4.5658771491
C   9.1517152468 -3.3231019948  8.6768771491
O   6.4417152468 -5.4781019948  0.7458771491
C   8.7557152468 -3.9011019948  9.8958771491
C   7.9795152468 -2.9173019948  7.8831771491
C   8.3187152468 -2.8831019948  6.5258771491
C   7.0937152468 -2.6981019948  5.7478771491
C   6.9277152468 -3.4791019948  4.4388771491
C   8.0517152468 -4.0081019948  3.7468771491
C   5.6197152468 -3.6221019948  3.8688771491
C   7.8777152468 -4.7681019948  2.5778771491
C   5.4557152468 -4.3791019948  2.6758771491
C   6.6157152468 -4.8061019948  1.9898771491
C   4.0597152468 -4.7081019948  2.2588771491
C   3.6747152468 -6.1541019948  1.9698771491
C   3.8527152468 -7.2531019948  2.7748771491
C   3.3847152468 -8.6301019948  2.3238771491
C   4.5577152468 -7.1601019948  4.1458771491
H   9.3367152468 -4.6941019948  11.7938771491
H   12.5907152468 -3.5541019948  9.1718771491
H   10.8487152468 -2.7681019948  7.4688771491
H   11.5697152468 -5.2241019948  12.0278771491
H   7.4247152468 -4.5041019948  11.1078771491
H   7.0877152468 -2.8681019948  8.2638771491
H   8.5847152468 -3.9191019948  6.3498771491
H   9.0367152468 -3.9651019948  4.2008771491
H   8.7037152468 -5.0871019948  1.9488771491
H   4.9307152468 -2.7911019948  5.3528771491
H   5.5007152468 -5.6581019948  0.5788771491
H   3.1947152468 -4.3321019948  2.8188771491
H   3.9407152468 -4.2201019948  1.2838771491
H   3.0417152468 -6.3341019948  1.1038771491
H   2.8827152468 -9.1811019948  3.1288771491
H   4.3157152468 -9.1511019948  2.0698771491
H   2.6027152468 -8.5921019948  1.5548771491
H   5.5387152468 -7.6321019948  4.2808771491
H   3.9107152468 -7.6271019948  4.8988771491
H   4.5587152468 -6.1401019948  4.5498771491
84
Scanning combination 102/256: [2.5000, 1.9000]  Energy = -385.8441261049
O   11.1233000000 -4.8002000000  5.0341000000
O   11.3873000000 -0.2652000000  3.3291000000
O   18.1143000000 -4.2382000000 -2.5629000000
O   15.0523000000 -3.1142000000  0.9841000000
C   13.0053000000 -3.3232000000  2.3291000000
C   12.6993000000 -1.9792000000  2.4491000000
C   12.3973000000 -4.3072000000  3.1831000000
C   11.6323000000 -1.5992000000  3.2951000000
C   11.4783000000 -3.8632000000  4.1231000000
C   11.0613000000 -2.4802000000  4.2331000000
C   10.1223000000 -1.9712000000  5.2561000000
C   10.5373000000 -1.3232000000  6.3251000000
C   9.8643000000 -1.0622000000  7.5921000000
C   8.6825000000 -1.0450000000  7.8959000000
C   10.8123000000 -0.2992000000  8.5731000000
C   14.6833000000 -4.8512000000 -0.4449000000
C   15.5183000000 -3.8012000000 -0.0889000000
C   16.6953000000 -3.5982000000 -0.8399000000
C   16.9703000000 -4.4882000000 -1.8899000000
C   16.1523000000 -5.5962000000 -2.2009000000
C   14.9513000000 -5.7522000000 -1.5279000000
C   13.6583000000 -4.8752000000  0.4711000000
C   13.8893000000 -3.7772000000  1.2511000000
H   13.1623000000 -1.2452000000  1.7971000000
H   12.5583000000 -5.3772000000  3.0881000000
H   11.7383000000 -5.5442000000  4.9131000000
H   11.8513000000  0.1658000000  2.5901000000
H   9.4643000000 -1.3292000000  4.6731000000
H   11.4933000000 -0.8182000000  6.2071000000
H   7.9073000000 -0.9712000000  7.1161000000
H   8.2313000000 -0.9072000000  8.8131000000
H   11.1183000000  0.6778000000  8.1811000000
H   11.7213000000 -0.7962000000  8.9311000000
H   10.3263000000 -0.0742000000  9.5301000000
H   17.3553000000 -2.7642000000 -0.6209000000
H   16.3753000000 -6.3042000000 -2.9929000000
H   14.4873000000 -6.7332000000 -1.5779000000
H   12.8783000000 -5.6272000000  0.4831000000
H   18.2613000000 -4.9422000000 -3.2189000000
C   9.6816411025 -4.3182618072  10.8611744730
O   12.0126411025 -4.6702618072  11.3491744730
C   11.0396411025 -4.2482618072  10.5031744730
O   7.4586411025 -3.8022618072  10.3891744730
C   11.4976411025 -3.5762618072  9.3231744730
O   6.2106411025 -1.8462618072  6.1891744730
C   10.5186411025 -3.0972618072  8.4661744730
O   4.5076411025 -3.0822618072  4.6221744730
C   9.1316411025 -3.2072618072  8.7331744730
O   6.4216411025 -5.3622618072  0.8021744730
C   8.7356411025 -3.7852618072  9.9521744730
C   7.9594411025 -2.8014618072  7.9394744730
C   8.2986411025 -2.7672618072  6.5821744730
C   7.0736411025 -2.5822618072  5.8041744730
C   6.9076411025 -3.3632618072  4.4951744730
C   8.0316411025 -3.8922618072  3.8031744730
C   5.5996411025 -3.5062618072  3.9251744730
C   7.8576411025 -4.6522618072  2.6341744730
C   5.4356411025 -4.2632618072  2.7321744730
C   6.5956411025 -4.6902618072  2.0461744730
C   4.0396411025 -4.5922618072  2.3151744730
C   3.6546411025 -6.0382618072  2.0261744730
C   3.8326411025 -7.1372618072  2.8311744730
C   3.3646411025 -8.5142618072  2.3801744730
C   4.5376411025 -7.0442618072  4.2021744730
H   9.3166411025 -4.5782618072  11.8501744730
H   12.5706411025 -3.4382618072  9.2281744730
H   10.8286411025 -2.6522618072  7.5251744730
H   11.5496411025 -5.1082618072  12.0841744730
H   7.4046411025 -4.3882618072  11.1641744730
H   7.0676411025 -2.7522618072  8.3201744730
H   8.5646411025 -3.8032618072  6.4061744730
H   9.0166411025 -3.8492618072  4.2571744730
H   8.6836411025 -4.9712618072  2.0051744730
H   4.9106411025 -2.6752618072  5.4091744730
H   5.4806411025 -5.5422618072  0.6351744730
H   3.1746411025 -4.2162618072  2.8751744730
H   3.9206411025 -4.1042618072  1.3401744730
H   3.0216411025 -6.2182618072  1.1601744730
H   2.8626411025 -9.0652618072  3.1851744730
H   4.2956411025 -9.0352618072  2.1261744730
H   2.5826411025 -8.4762618072  1.6111744730
H   5.5186411025 -7.5162618072  4.3371744730
H   3.8906411025 -7.5112618072  4.9551744730
H   4.5386411025 -6.0242618072  4.6061744730
84
Scanning combination 103/256: [2.5000, 1.8000]  Energy = -385.8047591444
O   11.1233000000 -4.8002000000  5.0341000000
O   11.3873000000 -0.2652000000  3.3291000000
O   18.1143000000 -4.2382000000 -2.5629000000
O   15.0523000000 -3.1142000000  0.9841000000
C   13.0053000000 -3.3232000000  2.3291000000
C   12.6993000000 -1.9792000000  2.4491000000
C   12.3973000000 -4.3072000000  3.1831000000
C   11.6323000000 -1.5992000000  3.2951000000
C   11.4783000000 -3.8632000000  4.1231000000
C   11.0613000000 -2.4802000000  4.2331000000
C   10.1223000000 -1.9712000000  5.2561000000
C   10.5373000000 -1.3232000000  6.3251000000
C   9.8643000000 -1.0622000000  7.5921000000
C   8.6825000000 -1.0450000000  7.8959000000
C   10.8123000000 -0.2992000000  8.5731000000
C   14.6833000000 -4.8512000000 -0.4449000000
C   15.5183000000 -3.8012000000 -0.0889000000
C   16.6953000000 -3.5982000000 -0.8399000000
C   16.9703000000 -4.4882000000 -1.8899000000
C   16.1523000000 -5.5962000000 -2.2009000000
C   14.9513000000 -5.7522000000 -1.5279000000
C   13.6583000000 -4.8752000000  0.4711000000
C   13.8893000000 -3.7772000000  1.2511000000
H   13.1623000000 -1.2452000000  1.7971000000
H   12.5583000000 -5.3772000000  3.0881000000
H   11.7383000000 -5.5442000000  4.9131000000
H   11.8513000000  0.1658000000  2.5901000000
H   9.4643000000 -1.3292000000  4.6731000000
H   11.4933000000 -0.8182000000  6.2071000000
H   7.9073000000 -0.9712000000  7.1161000000
H   8.2313000000 -0.9072000000  8.8131000000
H   11.1183000000  0.6778000000  8.1811000000
H   11.7213000000 -0.7962000000  8.9311000000
H   10.3263000000 -0.0742000000  9.5301000000
H   17.3553000000 -2.7642000000 -0.6209000000
H   16.3753000000 -6.3042000000 -2.9929000000
H   14.4873000000 -6.7332000000 -1.5779000000
H   12.8783000000 -5.6272000000  0.4831000000
H   18.2613000000 -4.9422000000 -3.2189000000
C   9.6675872886 -4.2011629287  10.9126358529
O   11.9985872886 -4.5531629287  11.4006358529
C   11.0255872886 -4.1311629287  10.5546358529
O   7.4445872886 -3.6851629287  10.4406358529
C   11.4835872886 -3.4591629287  9.3746358529
O   6.1965872886 -1.7291629287  6.2406358529
C   10.5045872886 -2.9801629287  8.5176358529
O   4.4935872886 -2.9651629287  4.6736358529
C   9.1175872886 -3.0901629287  8.7846358529
O   6.4075872886 -5.2451629287  0.8536358529
C   8.7215872886 -3.6681629287  10.0036358529
C   7.9453872886 -2.6843629287  7.9909358529
C   8.2845872886 -2.6501629287  6.6336358529
C   7.0595872886 -2.4651629287  5.8556358529
C   6.8935872886 -3.2461629287  4.5466358529
C   8.0175872886 -3.7751629287  3.8546358529
C   5.5855872886 -3.3891629287  3.9766358529
C   7.8435872886 -4.5351629287  2.6856358529
C   5.4215872886 -4.1461629287  2.7836358529
C   6.5815872886 -4.5731629287  2.0976358529
C   4.0255872886 -4.4751629287  2.3666358529
C   3.6405872886 -5.9211629287  2.0776358529
C   3.8185872886 -7.0201629287  2.8826358529
C   3.3505872886 -8.3971629287  2.4316358529
C   4.5235872886 -6.9271629287  4.2536358529
H   9.3025872886 -4.4611629287  11.9016358529
H   12.5565872886 -3.3211629287  9.2796358529
H   10.8145872886 -2.5351629287  7.5766358529
H   11.5355872886 -4.9911629287  12.1356358529
H   7.3905872886 -4.2711629287  11.2156358529
H   7.0535872886 -2.6351629287  8.3716358529
H   8.5505872886 -3.6861629287  6.4576358529
H   9.0025872886 -3.7321629287  4.3086358529
H   8.6695872886 -4.8541629287  2.0566358529
H   4.8965872886 -2.5581629287  5.4606358529
H   5.4665872886 -5.4251629287  0.6866358529
H   3.1605872886 -4.0991629287  2.9266358529
H   3.9065872886 -3.9871629287  1.3916358529
H   3.0075872886 -6.1011629287  1.2116358529
H   2.8485872886 -8.9481629287  3.2366358529
H   4.2815872886 -8.9181629287  2.1776358529
H   2.5685872886 -8.3591629287  1.6626358529
H   5.5045872886 -7.3991629287  4.3886358529
H   3.8765872886 -7.3941629287  5.0066358529
H   4.5245872886 -5.9071629287  4.6576358529
84
Scanning combination 104/256: [2.5000, 1.7000]  Energy = -385.7547987696
O   11.1233000000 -4.8002000000  5.0341000000
O   11.3873000000 -0.2652000000  3.3291000000
O   18.1143000000 -4.2382000000 -2.5629000000
O   15.0523000000 -3.1142000000  0.9841000000
C   13.0053000000 -3.3232000000  2.3291000000
C   12.6993000000 -1.9792000000  2.4491000000
C   12.3973000000 -4.3072000000  3.1831000000
C   11.6323000000 -1.5992000000  3.2951000000
C   11.4783000000 -3.8632000000  4.1231000000
C   11.0613000000 -2.4802000000  4.2331000000
C   10.1223000000 -1.9712000000  5.2561000000
C   10.5373000000 -1.3232000000  6.3251000000
C   9.8643000000 -1.0622000000  7.5921000000
C   8.6825000000 -1.0450000000  7.8959000000
C   10.8123000000 -0.2992000000  8.5731000000
C   14.6833000000 -4.8512000000 -0.4449000000
C   15.5183000000 -3.8012000000 -0.0889000000
C   16.6953000000 -3.5982000000 -0.8399000000
C   16.9703000000 -4.4882000000 -1.8899000000
C   16.1523000000 -5.5962000000 -2.2009000000
C   14.9513000000 -5.7522000000 -1.5279000000
C   13.6583000000 -4.8752000000  0.4711000000
C   13.8893000000 -3.7772000000  1.2511000000
H   13.1623000000 -1.2452000000  1.7971000000
H   12.5583000000 -5.3772000000  3.0881000000
H   11.7383000000 -5.5442000000  4.9131000000
H   11.8513000000  0.1658000000  2.5901000000
H   9.4643000000 -1.3292000000  4.6731000000
H   11.4933000000 -0.8182000000  6.2071000000
H   7.9073000000 -0.9712000000  7.1161000000
H   8.2313000000 -0.9072000000  8.8131000000
H   11.1183000000  0.6778000000  8.1811000000
H   11.7213000000 -0.7962000000  8.9311000000
H   10.3263000000 -0.0742000000  9.5301000000
H   17.3553000000 -2.7642000000 -0.6209000000
H   16.3753000000 -6.3042000000 -2.9929000000
H   14.4873000000 -6.7332000000 -1.5779000000
H   12.8783000000 -5.6272000000  0.4831000000
H   18.2613000000 -4.9422000000 -3.2189000000
C   9.6593905932 -4.0830879222  10.9593092474
O   11.9903905932 -4.4350879222  11.4473092474
C   11.0173905932 -4.0130879222  10.6013092474
O   7.4363905932 -3.5670879222  10.4873092474
C   11.4753905932 -3.3410879222  9.4213092474
O   6.1883905932 -1.6110879222  6.2873092474
C   10.4963905932 -2.8620879222  8.5643092474
O   4.4853905932 -2.8470879222  4.7203092474
C   9.1093905932 -2.9720879222  8.8313092474
O   6.3993905932 -5.1270879222  0.9003092474
C   8.7133905932 -3.5500879222  10.0503092474
C   7.9371905932 -2.5662879222  8.0376092474
C   8.2763905932 -2.5320879222  6.6803092474
C   7.0513905932 -2.3470879222  5.9023092474
C   6.8853905932 -3.1280879222  4.5933092474
C   8.0093905932 -3.6570879222  3.9013092474
C   5.5773905932 -3.2710879222  4.0233092474
C   7.8353905932 -4.4170879222  2.7323092474
C   5.4133905932 -4.0280879222  2.8303092474
C   6.5733905932 -4.4550879222  2.1443092474
C   4.0173905932 -4.3570879222  2.4133092474
C   3.6323905932 -5.8030879222  2.1243092474
C   3.8103905932 -6.9020879222  2.9293092474
C   3.3423905932 -8.2790879222  2.4783092474
C   4.5153905932 -6.8090879222  4.3003092474
H   9.2943905932 -4.3430879222  11.9483092474
H   12.5483905932 -3.2030879222  9.3263092474
H   10.8063905932 -2.4170879222  7.6233092474
H   11.5273905932 -4.8730879222  12.1823092474
H   7.3823905932 -4.1530879222  11.2623092474
H   7.0453905932 -2.5170879222  8.4183092474
H   8.5423905932 -3.5680879222  6.5043092474
H   8.9943905932 -3.6140879222  4.3553092474
H   8.6613905932 -4.7360879222  2.1033092474
H   4.8883905932 -2.4400879222  5.5073092474
H   5.4583905932 -5.3070879222  0.7333092474
H   3.1523905932 -3.9810879222  2.9733092474
H   3.8983905932 -3.8690879222  1.4383092474
H   2.9993905932 -5.9830879222  1.2583092474
H   2.8403905932 -8.8300879222  3.2833092474
H   4.2733905932 -8.8000879222  2.2243092474
H   2.5603905932 -8.2410879222  1.7093092474
H   5.4963905932 -7.2810879222  4.4353092474
H   3.8683905932 -7.2760879222  5.0533092474
H   4.5163905932 -5.7890879222  4.7043092474
84
Scanning combination 105/256: [2.5000, 1.6000]  Energy = -385.6917766329
O   11.1233000000 -4.8002000000  5.0341000000
O   11.3873000000 -0.2652000000  3.3291000000
O   18.1143000000 -4.2382000000 -2.5629000000
O   15.0523000000 -3.1142000000  0.9841000000
C   13.0053000000 -3.3232000000  2.3291000000
C   12.6993000000 -1.9792000000  2.4491000000
C   12.3973000000 -4.3072000000  3.1831000000
C   11.6323000000 -1.5992000000  3.2951000000
C   11.4783000000 -3.8632000000  4.1231000000
C   11.0613000000 -2.4802000000  4.2331000000
C   10.1223000000 -1.9712000000  5.2561000000
C   10.5373000000 -1.3232000000  6.3251000000
C   9.8643000000 -1.0622000000  7.5921000000
C   8.6825000000 -1.0450000000  7.8959000000
C   10.8123000000 -0.2992000000  8.5731000000
C   14.6833000000 -4.8512000000 -0.4449000000
C   15.5183000000 -3.8012000000 -0.0889000000
C   16.6953000000 -3.5982000000 -0.8399000000
C   16.9703000000 -4.4882000000 -1.8899000000
C   16.1523000000 -5.5962000000 -2.2009000000
C   14.9513000000 -5.7522000000 -1.5279000000
C   13.6583000000 -4.8752000000  0.4711000000
C   13.8893000000 -3.7772000000  1.2511000000
H   13.1623000000 -1.2452000000  1.7971000000
H   12.5583000000 -5.3772000000  3.0881000000
H   11.7383000000 -5.5442000000  4.9131000000
H   11.8513000000  0.1658000000  2.5901000000
H   9.4643000000 -1.3292000000  4.6731000000
H   11.4933000000 -0.8182000000  6.2071000000
H   7.9073000000 -0.9712000000  7.1161000000
H   8.2313000000 -0.9072000000  8.8131000000
H   11.1183000000  0.6778000000  8.1811000000
H   11.7213000000 -0.7962000000  8.9311000000
H   10.3263000000 -0.0742000000  9.5301000000
H   17.3553000000 -2.7642000000 -0.6209000000
H   16.3753000000 -6.3042000000 -2.9929000000
H   14.4873000000 -6.7332000000 -1.5779000000
H   12.8783000000 -5.6272000000  0.4831000000
H   18.2613000000 -4.9422000000 -3.2189000000
C   9.6569038519 -3.9642866462  11.0012395469
O   11.9879038519 -4.3162866462  11.4892395469
C   11.0149038519 -3.8942866462  10.6432395469
O   7.4339038519 -3.4482866462  10.5292395469
C   11.4729038519 -3.2222866462  9.4632395469
O   6.1859038519 -1.4922866462  6.3292395469
C   10.4939038519 -2.7432866462  8.6062395469
O   4.4829038519 -2.7282866462  4.7622395469
C   9.1069038519 -2.8532866462  8.8732395469
O   6.3969038519 -5.0082866462  0.9422395469
C   8.7109038519 -3.4312866462  10.0922395469
C   7.9347038519 -2.4474866462  8.0795395469
C   8.2739038519 -2.4132866462  6.7222395469
C   7.0489038519 -2.2282866462  5.9442395469
C   6.8829038519 -3.0092866462  4.6352395469
C   8.0069038519 -3.5382866462  3.9432395469
C   5.5749038519 -3.1522866462  4.0652395469
C   7.8329038519 -4.2982866462  2.7742395469
C   5.4109038519 -3.9092866462  2.8722395469
C   6.5709038519 -4.3362866462  2.1862395469
C   4.0149038519 -4.2382866462  2.4552395469
C   3.6299038519 -5.6842866462  2.1662395469
C   3.8079038519 -6.7832866462  2.9712395469
C   3.3399038519 -8.1602866462  2.5202395469
C   4.5129038519 -6.6902866462  4.3422395469
H   9.2919038519 -4.2242866462  11.9902395469
H   12.5459038519 -3.0842866462  9.3682395469
H   10.8039038519 -2.2982866462  7.6652395469
H   11.5249038519 -4.7542866462  12.2242395469
H   7.3799038519 -4.0342866462  11.3042395469
H   7.0429038519 -2.3982866462  8.4602395469
H   8.5399038519 -3.4492866462  6.5462395469
H   8.9919038519 -3.4952866462  4.3972395469
H   8.6589038519 -4.6172866462  2.1452395469
H   4.8859038519 -2.3212866462  5.5492395469
H   5.4559038519 -5.1882866462  0.7752395469
H   3.1499038519 -3.8622866462  3.0152395469
H   3.8959038519 -3.7502866462  1.4802395469
H   2.9969038519 -5.8642866462  1.3002395469
H   2.8379038519 -8.7112866462  3.3252395469
H   4.2709038519 -8.6812866462  2.2662395469
H   2.5579038519 -8.1222866462  1.7512395469
H   5.4939038519 -7.1622866462  4.4772395469
H   3.8659038519 -7.1572866462  5.0952395469
H   4.5139038519 -5.6702866462  4.7462395469
84
Scanning combination 106/256: [2.5000, 1.5000]  Energy = -385.6088973280
O   11.1233000000 -4.8002000000  5.0341000000
O   11.3873000000 -0.2652000000  3.3291000000
O   18.1143000000 -4.2382000000 -2.5629000000
O   15.0523000000 -3.1142000000  0.9841000000
C   13.0053000000 -3.3232000000  2.3291000000
C   12.6993000000 -1.9792000000  2.4491000000
C   12.3973000000 -4.3072000000  3.1831000000
C   11.6323000000 -1.5992000000  3.2951000000
C   11.4783000000 -3.8632000000  4.1231000000
C   11.0613000000 -2.4802000000  4.2331000000
C   10.1223000000 -1.9712000000  5.2561000000
C   10.5373000000 -1.3232000000  6.3251000000
C   9.8643000000 -1.0622000000  7.5921000000
C   8.6825000000 -1.0450000000  7.8959000000
C   10.8123000000 -0.2992000000  8.5731000000
C   14.6833000000 -4.8512000000 -0.4449000000
C   15.5183000000 -3.8012000000 -0.0889000000
C   16.6953000000 -3.5982000000 -0.8399000000
C   16.9703000000 -4.4882000000 -1.8899000000
C   16.1523000000 -5.5962000000 -2.2009000000
C   14.9513000000 -5.7522000000 -1.5279000000
C   13.6583000000 -4.8752000000  0.4711000000
C   13.8893000000 -3.7772000000  1.2511000000
H   13.1623000000 -1.2452000000  1.7971000000
H   12.5583000000 -5.3772000000  3.0881000000
H   11.7383000000 -5.5442000000  4.9131000000
H   11.8513000000  0.1658000000  2.5901000000
H   9.4643000000 -1.3292000000  4.6731000000
H   11.4933000000 -0.8182000000  6.2071000000
H   7.9073000000 -0.9712000000  7.1161000000
H   8.2313000000 -0.9072000000  8.8131000000
H   11.1183000000  0.6778000000  8.1811000000
H   11.7213000000 -0.7962000000  8.9311000000
H   10.3263000000 -0.0742000000  9.5301000000
H   17.3553000000 -2.7642000000 -0.6209000000
H   16.3753000000 -6.3042000000 -2.9929000000
H   14.4873000000 -6.7332000000 -1.5779000000
H   12.8783000000 -5.6272000000  0.4831000000
H   18.2613000000 -4.9422000000 -3.2189000000
C   9.6600121912 -3.8449846280  11.0384515871
O   11.9910121912 -4.1969846280  11.5264515871
C   11.0180121912 -3.7749846280  10.6804515871
O   7.4370121912 -3.3289846280  10.5664515871
C   11.4760121912 -3.1029846280  9.5004515871
O   6.1890121912 -1.3729846280  6.3664515871
C   10.4970121912 -2.6239846280  8.6434515871
O   4.4860121912 -2.6089846280  4.7994515871
C   9.1100121912 -2.7339846280  8.9104515871
O   6.4000121912 -4.8889846280  0.9794515871
C   8.7140121912 -3.3119846280  10.1294515871
C   7.9378121912 -2.3281846280  8.1167515871
C   8.2770121912 -2.2939846280  6.7594515871
C   7.0520121912 -2.1089846280  5.9814515871
C   6.8860121912 -2.8899846280  4.6724515871
C   8.0100121912 -3.4189846280  3.9804515871
C   5.5780121912 -3.0329846280  4.1024515871
C   7.8360121912 -4.1789846280  2.8114515871
C   5.4140121912 -3.7899846280  2.9094515871
C   6.5740121912 -4.2169846280  2.2234515871
C   4.0180121912 -4.1189846280  2.4924515871
C   3.6330121912 -5.5649846280  2.2034515871
C   3.8110121912 -6.6639846280  3.0084515871
C   3.3430121912 -8.0409846280  2.5574515871
C   4.5160121912 -6.5709846280  4.3794515871
H   9.2950121912 -4.1049846280  12.0274515871
H   12.5490121912 -2.9649846280  9.4054515871
H   10.8070121912 -2.1789846280  7.7024515871
H   11.5280121912 -4.6349846280  12.2614515871
H   7.3830121912 -3.9149846280  11.3414515871
H   7.0460121912 -2.2789846280  8.4974515871
H   8.5430121912 -3.3299846280  6.5834515871
H   8.9950121912 -3.3759846280  4.4344515871
H   8.6620121912 -4.4979846280  2.1824515871
H   4.8890121912 -2.2019846280  5.5864515871
H   5.4590121912 -5.0689846280  0.8124515871
H   3.1530121912 -3.7429846280  3.0524515871
H   3.8990121912 -3.6309846280  1.5174515871
H   3.0000121912 -5.7449846280  1.3374515871
H   2.8410121912 -8.5919846280  3.3624515871
H   4.2740121912 -8.5619846280  2.3034515871
H   2.5610121912 -8.0029846280  1.7884515871
H   5.4970121912 -7.0429846280  4.5144515871
H   3.8690121912 -7.0379846280  5.1324515871
H   4.5170121912 -5.5509846280  4.7834515871
84
Scanning combination 107/256: [2.4000, 2.9000]  Energy = -385.9684499498
O   11.1233000000 -4.8002000000  5.0341000000
O   11.3873000000 -0.2652000000  3.3291000000
O   18.1143000000 -4.2382000000 -2.5629000000
O   15.0523000000 -3.1142000000  0.9841000000
C   13.0053000000 -3.3232000000  2.3291000000
C   12.6993000000 -1.9792000000  2.4491000000
C   12.3973000000 -4.3072000000  3.1831000000
C   11.6323000000 -1.5992000000  3.2951000000
C   11.4783000000 -3.8632000000  4.1231000000
C   11.0613000000 -2.4802000000  4.2331000000
C   10.1223000000 -1.9712000000  5.2561000000
C   10.5373000000 -1.3232000000  6.3251000000
C   9.8643000000 -1.0622000000  7.5921000000
C   8.6825000000 -1.0450000000  7.8959000000
C   10.8123000000 -0.2992000000  8.5731000000
C   14.6833000000 -4.8512000000 -0.4449000000
C   15.5183000000 -3.8012000000 -0.0889000000
C   16.6953000000 -3.5982000000 -0.8399000000
C   16.9703000000 -4.4882000000 -1.8899000000
C   16.1523000000 -5.5962000000 -2.2009000000
C   14.9513000000 -5.7522000000 -1.5279000000
C   13.6583000000 -4.8752000000  0.4711000000
C   13.8893000000 -3.7772000000  1.2511000000
H   13.1623000000 -1.2452000000  1.7971000000
H   12.5583000000 -5.3772000000  3.0881000000
H   11.7383000000 -5.5442000000  4.9131000000
H   11.8513000000  0.1658000000  2.5901000000
H   9.4643000000 -1.3292000000  4.6731000000
H   11.4933000000 -0.8182000000  6.2071000000
H   7.9073000000 -0.9712000000  7.1161000000
H   8.2313000000 -0.9072000000  8.8131000000
H   11.1183000000  0.6778000000  8.1811000000
H   11.7213000000 -0.7962000000  8.9311000000
H   10.3263000000 -0.0742000000  9.5301000000
H   17.3553000000 -2.7642000000 -0.6209000000
H   16.3753000000 -6.3042000000 -2.9929000000
H   14.4873000000 -6.7332000000 -1.5779000000
H   12.8783000000 -5.6272000000  0.4831000000
H   18.2613000000 -4.9422000000 -3.2189000000
C   10.0987233479 -5.3663344603  10.1462075442
O   12.4297233479 -5.7183344603  10.6342075442
C   11.4567233479 -5.2963344603  9.7882075442
O   7.8757233479 -4.8503344603  9.6742075442
C   11.9147233479 -4.6243344603  8.6082075442
O   6.6277233479 -2.8943344603  5.4742075442
C   10.9357233479 -4.1453344603  7.7512075442
O   4.9247233479 -4.1303344603  3.9072075442
C   9.5487233479 -4.2553344603  8.0182075442
O   6.8387233479 -6.4103344603  0.0872075442
C   9.1527233479 -4.8333344603  9.2372075442
C   8.3765233479 -3.8495344603  7.2245075442
C   8.7157233479 -3.8153344603  5.8672075442
C   7.4907233479 -3.6303344603  5.0892075442
C   7.3247233479 -4.4113344603  3.7802075442
C   8.4487233479 -4.9403344603  3.0882075442
C   6.0167233479 -4.5543344603  3.2102075442
C   8.2747233479 -5.7003344603  1.9192075442
C   5.8527233479 -5.3113344603  2.0172075442
C   7.0127233479 -5.7383344603  1.3312075442
C   4.4567233479 -5.6403344603  1.6002075442
C   4.0717233479 -7.0863344603  1.3112075442
C   4.2497233479 -8.1853344603  2.1162075442
C   3.7817233479 -9.5623344603  1.6652075442
C   4.9547233479 -8.0923344603  3.4872075442
H   9.7337233479 -5.6263344603  11.1352075442
H   12.9877233479 -4.4863344603  8.5132075442
H   11.2457233479 -3.7003344603  6.8102075442
H   11.9667233479 -6.1563344603  11.3692075442
H   7.8217233479 -5.4363344603  10.4492075442
H   7.4847233479 -3.8003344603  7.6052075442
H   8.9817233479 -4.8513344603  5.6912075442
H   9.4337233479 -4.8973344603  3.5422075442
H   9.1007233479 -6.0193344603  1.2902075442
H   5.3277233479 -3.7233344603  4.6942075442
H   5.8977233479 -6.5903344603 -0.0797924558
H   3.5917233479 -5.2643344603  2.1602075442
H   4.3377233479 -5.1523344603  0.6252075442
H   3.4387233479 -7.2663344603  0.4452075442
H   3.2797233479 -10.1133344603  2.4702075442
H   4.7127233479 -10.0833344603  1.4112075442
H   2.9997233479 -9.5243344603  0.8962075442
H   5.9357233479 -8.5643344603  3.6222075442
H   4.3077233479 -8.5593344603  4.2402075442
H   4.9557233479 -7.0723344603  3.8912075442
84
Scanning combination 108/256: [2.4000, 2.8000]  Energy = -385.9673677679
O   11.1233000000 -4.8002000000  5.0341000000
O   11.3873000000 -0.2652000000  3.3291000000
O   18.1143000000 -4.2382000000 -2.5629000000
O   15.0523000000 -3.1142000000  0.9841000000
C   13.0053000000 -3.3232000000  2.3291000000
C   12.6993000000 -1.9792000000  2.4491000000
C   12.3973000000 -4.3072000000  3.1831000000
C   11.6323000000 -1.5992000000  3.2951000000
C   11.4783000000 -3.8632000000  4.1231000000
C   11.0613000000 -2.4802000000  4.2331000000
C   10.1223000000 -1.9712000000  5.2561000000
C   10.5373000000 -1.3232000000  6.3251000000
C   9.8643000000 -1.0622000000  7.5921000000
C   8.6825000000 -1.0450000000  7.8959000000
C   10.8123000000 -0.2992000000  8.5731000000
C   14.6833000000 -4.8512000000 -0.4449000000
C   15.5183000000 -3.8012000000 -0.0889000000
C   16.6953000000 -3.5982000000 -0.8399000000
C   16.9703000000 -4.4882000000 -1.8899000000
C   16.1523000000 -5.5962000000 -2.2009000000
C   14.9513000000 -5.7522000000 -1.5279000000
C   13.6583000000 -4.8752000000  0.4711000000
C   13.8893000000 -3.7772000000  1.2511000000
H   13.1623000000 -1.2452000000  1.7971000000
H   12.5583000000 -5.3772000000  3.0881000000
H   11.7383000000 -5.5442000000  4.9131000000
H   11.8513000000  0.1658000000  2.5901000000
H   9.4643000000 -1.3292000000  4.6731000000
H   11.4933000000 -0.8182000000  6.2071000000
H   7.9073000000 -0.9712000000  7.1161000000
H   8.2313000000 -0.9072000000  8.8131000000
H   11.1183000000  0.6778000000  8.1811000000
H   11.7213000000 -0.7962000000  8.9311000000
H   10.3263000000 -0.0742000000  9.5301000000
H   17.3553000000 -2.7642000000 -0.6209000000
H   16.3753000000 -6.3042000000 -2.9929000000
H   14.4873000000 -6.7332000000 -1.5779000000
H   12.8783000000 -5.6272000000  0.4831000000
H   18.2613000000 -4.9422000000 -3.2189000000
C   10.1085126822 -5.2696955574  10.1700009006
O   12.4395126822 -5.6216955574  10.6580009006
C   11.4665126822 -5.1996955574  9.8120009006
O   7.8855126822 -4.7536955574  9.6980009006
C   11.9245126822 -4.5276955574  8.6320009006
O   6.6375126822 -2.7976955574  5.4980009006
C   10.9455126822 -4.0486955574  7.7750009006
O   4.9345126822 -4.0336955574  3.9310009006
C   9.5585126822 -4.1586955574  8.0420009006
O   6.8485126822 -6.3136955574  0.1110009006
C   9.1625126822 -4.7366955574  9.2610009006
C   8.3863126822 -3.7528955574  7.2483009006
C   8.7255126822 -3.7186955574  5.8910009006
C   7.5005126822 -3.5336955574  5.1130009006
C   7.3345126822 -4.3146955574  3.8040009006
C   8.4585126822 -4.8436955574  3.1120009006
C   6.0265126822 -4.4576955574  3.2340009006
C   8.2845126822 -5.6036955574  1.9430009006
C   5.8625126822 -5.2146955574  2.0410009006
C   7.0225126822 -5.6416955574  1.3550009006
C   4.4665126822 -5.5436955574  1.6240009006
C   4.0815126822 -6.9896955574  1.3350009006
C   4.2595126822 -8.0886955574  2.1400009006
C   3.7915126822 -9.4656955574  1.6890009006
C   4.9645126822 -7.9956955574  3.5110009006
H   9.7435126822 -5.5296955574  11.1590009006
H   12.9975126822 -4.3896955574  8.5370009006
H   11.2555126822 -3.6036955574  6.8340009006
H   11.9765126822 -6.0596955574  11.3930009006
H   7.8315126822 -5.3396955574  10.4730009006
H   7.4945126822 -3.7036955574  7.6290009006
H   8.9915126822 -4.7546955574  5.7150009006
H   9.4435126822 -4.8006955574  3.5660009006
H   9.1105126822 -5.9226955574  1.3140009006
H   5.3375126822 -3.6266955574  4.7180009006
H   5.9075126822 -6.4936955574 -0.0559990994
H   3.6015126822 -5.1676955574  2.1840009006
H   4.3475126822 -5.0556955574  0.6490009006
H   3.4485126822 -7.1696955574  0.4690009006
H   3.2895126822 -10.0166955574  2.4940009006
H   4.7225126822 -9.9866955574  1.4350009006
H   3.0095126822 -9.4276955574  0.9200009006
H   5.9455126822 -8.4676955574  3.6460009006
H   4.3175126822 -8.4626955574  4.2640009006
H   4.9655126822 -6.9756955574  3.9150009006
84
Scanning combination 109/256: [2.4000, 2.7000]  Energy = -385.9657541510
O   11.1233000000 -4.8002000000  5.0341000000
O   11.3873000000 -0.2652000000  3.3291000000
O   18.1143000000 -4.2382000000 -2.5629000000
O   15.0523000000 -3.1142000000  0.9841000000
C   13.0053000000 -3.3232000000  2.3291000000
C   12.6993000000 -1.9792000000  2.4491000000
C   12.3973000000 -4.3072000000  3.1831000000
C   11.6323000000 -1.5992000000  3.2951000000
C   11.4783000000 -3.8632000000  4.1231000000
C   11.0613000000 -2.4802000000  4.2331000000
C   10.1223000000 -1.9712000000  5.2561000000
C   10.5373000000 -1.3232000000  6.3251000000
C   9.8643000000 -1.0622000000  7.5921000000
C   8.6825000000 -1.0450000000  7.8959000000
C   10.8123000000 -0.2992000000  8.5731000000
C   14.6833000000 -4.8512000000 -0.4449000000
C   15.5183000000 -3.8012000000 -0.0889000000
C   16.6953000000 -3.5982000000 -0.8399000000
C   16.9703000000 -4.4882000000 -1.8899000000
C   16.1523000000 -5.5962000000 -2.2009000000
C   14.9513000000 -5.7522000000 -1.5279000000
C   13.6583000000 -4.8752000000  0.4711000000
C   13.8893000000 -3.7772000000  1.2511000000
H   13.1623000000 -1.2452000000  1.7971000000
H   12.5583000000 -5.3772000000  3.0881000000
H   11.7383000000 -5.5442000000  4.9131000000
H   11.8513000000  0.1658000000  2.5901000000
H   9.4643000000 -1.3292000000  4.6731000000
H   11.4933000000 -0.8182000000  6.2071000000
H   7.9073000000 -0.9712000000  7.1161000000
H   8.2313000000 -0.9072000000  8.8131000000
H   11.1183000000  0.6778000000  8.1811000000
H   11.7213000000 -0.7962000000  8.9311000000
H   10.3263000000 -0.0742000000  9.5301000000
H   17.3553000000 -2.7642000000 -0.6209000000
H   16.3753000000 -6.3042000000 -2.9929000000
H   14.4873000000 -6.7332000000 -1.5779000000
H   12.8783000000 -5.6272000000  0.4831000000
H   18.2613000000 -4.9422000000 -3.2189000000
C   10.0822023343 -5.1759652250  10.2243444959
O   12.4132023343 -5.5279652250  10.7123444959
C   11.4402023343 -5.1059652250  9.8663444959
O   7.8592023343 -4.6599652250  9.7523444959
C   11.8982023343 -4.4339652250  8.6863444959
O   6.6112023343 -2.7039652250  5.5523444959
C   10.9192023343 -3.9549652250  7.8293444959
O   4.9082023343 -3.9399652250  3.9853444959
C   9.5322023343 -4.0649652250  8.0963444959
O   6.8222023343 -6.2199652250  0.1653444959
C   9.1362023343 -4.6429652250  9.3153444959
C   8.3600023343 -3.6591652250  7.3026444959
C   8.6992023343 -3.6249652250  5.9453444959
C   7.4742023343 -3.4399652250  5.1673444959
C   7.3082023343 -4.2209652250  3.8583444959
C   8.4322023343 -4.7499652250  3.1663444959
C   6.0002023343 -4.3639652250  3.2883444959
C   8.2582023343 -5.5099652250  1.9973444959
C   5.8362023343 -5.1209652250  2.0953444959
C   6.9962023343 -5.5479652250  1.4093444959
C   4.4402023343 -5.4499652250  1.6783444959
C   4.0552023343 -6.8959652250  1.3893444959
C   4.2332023343 -7.9949652250  2.1943444959
C   3.7652023343 -9.3719652250  1.7433444959
C   4.9382023343 -7.9019652250  3.5653444959
H   9.7172023343 -5.4359652250  11.2133444959
H   12.9712023343 -4.2959652250  8.5913444959
H   11.2292023343 -3.5099652250  6.8883444959
H   11.9502023343 -5.9659652250  11.4473444959
H   7.8052023343 -5.2459652250  10.5273444959
H   7.4682023343 -3.6099652250  7.6833444959
H   8.9652023343 -4.6609652250  5.7693444959
H   9.4172023343 -4.7069652250  3.6203444959
H   9.0842023343 -5.8289652250  1.3683444959
H   5.3112023343 -3.5329652250  4.7723444959
H   5.8812023343 -6.3999652250 -0.0016555041
H   3.5752023343 -5.0739652250  2.2383444959
H   4.3212023343 -4.9619652250  0.7033444959
H   3.4222023343 -7.0759652250  0.5233444959
H   3.2632023343 -9.9229652250  2.5483444959
H   4.6962023343 -9.8929652250  1.4893444959
H   2.9832023343 -9.3339652250  0.9743444959
H   5.9192023343 -8.3739652250  3.7003444959
H   4.2912023343 -8.3689652250  4.3183444959
H   4.9392023343 -6.8819652250  3.9693444959
84
Scanning combination 110/256: [2.4000, 2.6000]  Energy = -385.9618810411
O   11.1233000000 -4.8002000000  5.0341000000
O   11.3873000000 -0.2652000000  3.3291000000
O   18.1143000000 -4.2382000000 -2.5629000000
O   15.0523000000 -3.1142000000  0.9841000000
C   13.0053000000 -3.3232000000  2.3291000000
C   12.6993000000 -1.9792000000  2.4491000000
C   12.3973000000 -4.3072000000  3.1831000000
C   11.6323000000 -1.5992000000  3.2951000000
C   11.4783000000 -3.8632000000  4.1231000000
C   11.0613000000 -2.4802000000  4.2331000000
C   10.1223000000 -1.9712000000  5.2561000000
C   10.5373000000 -1.3232000000  6.3251000000
C   9.8643000000 -1.0622000000  7.5921000000
C   8.6825000000 -1.0450000000  7.8959000000
C   10.8123000000 -0.2992000000  8.5731000000
C   14.6833000000 -4.8512000000 -0.4449000000
C   15.5183000000 -3.8012000000 -0.0889000000
C   16.6953000000 -3.5982000000 -0.8399000000
C   16.9703000000 -4.4882000000 -1.8899000000
C   16.1523000000 -5.5962000000 -2.2009000000
C   14.9513000000 -5.7522000000 -1.5279000000
C   13.6583000000 -4.8752000000  0.4711000000
C   13.8893000000 -3.7772000000  1.2511000000
H   13.1623000000 -1.2452000000  1.7971000000
H   12.5583000000 -5.3772000000  3.0881000000
H   11.7383000000 -5.5442000000  4.9131000000
H   11.8513000000  0.1658000000  2.5901000000
H   9.4643000000 -1.3292000000  4.6731000000
H   11.4933000000 -0.8182000000  6.2071000000
H   7.9073000000 -0.9712000000  7.1161000000
H   8.2313000000 -0.9072000000  8.8131000000
H   11.1183000000  0.6778000000  8.1811000000
H   11.7213000000 -0.7962000000  8.9311000000
H   10.3263000000 -0.0742000000  9.5301000000
H   17.3553000000 -2.7642000000 -0.6209000000
H   16.3753000000 -6.3042000000 -2.9929000000
H   14.4873000000 -6.7332000000 -1.5779000000
H   12.8783000000 -5.6272000000  0.4831000000
H   18.2613000000 -4.9422000000 -3.2189000000
C   10.0379953100 -5.0820369847  10.2943823946
O   12.3689953100 -5.4340369847  10.7823823946
C   11.3959953100 -5.0120369847  9.9363823946
O   7.8149953100 -4.5660369847  9.8223823946
C   11.8539953100 -4.3400369847  8.7563823946
O   6.5669953100 -2.6100369847  5.6223823946
C   10.8749953100 -3.8610369847  7.8993823946
O   4.8639953100 -3.8460369847  4.0553823946
C   9.4879953100 -3.9710369847  8.1663823946
O   6.7779953100 -6.1260369847  0.2353823946
C   9.0919953100 -4.5490369847  9.3853823946
C   8.3157953100 -3.5652369847  7.3726823946
C   8.6549953100 -3.5310369847  6.0153823946
C   7.4299953100 -3.3460369847  5.2373823946
C   7.2639953100 -4.1270369847  3.9283823946
C   8.3879953100 -4.6560369847  3.2363823946
C   5.9559953100 -4.2700369847  3.3583823946
C   8.2139953100 -5.4160369847  2.0673823946
C   5.7919953100 -5.0270369847  2.1653823946
C   6.9519953100 -5.4540369847  1.4793823946
C   4.3959953100 -5.3560369847  1.7483823946
C   4.0109953100 -6.8020369847  1.4593823946
C   4.1889953100 -7.9010369847  2.2643823946
C   3.7209953100 -9.2780369847  1.8133823946
C   4.8939953100 -7.8080369847  3.6353823946
H   9.6729953100 -5.3420369847  11.2833823946
H   12.9269953100 -4.2020369847  8.6613823946
H   11.1849953100 -3.4160369847  6.9583823946
H   11.9059953100 -5.8720369847  11.5173823946
H   7.7609953100 -5.1520369847  10.5973823946
H   7.4239953100 -3.5160369847  7.7533823946
H   8.9209953100 -4.5670369847  5.8393823946
H   9.3729953100 -4.6130369847  3.6903823946
H   9.0399953100 -5.7350369847  1.4383823946
H   5.2669953100 -3.4390369847  4.8423823946
H   5.8369953100 -6.3060369847  0.0683823946
H   3.5309953100 -4.9800369847  2.3083823946
H   4.2769953100 -4.8680369847  0.7733823946
H   3.3779953100 -6.9820369847  0.5933823946
H   3.2189953100 -9.8290369847  2.6183823946
H   4.6519953100 -9.7990369847  1.5593823946
H   2.9389953100 -9.2400369847  1.0443823946
H   5.8749953100 -8.2800369847  3.7703823946
H   4.2469953100 -8.2750369847  4.3883823946
H   4.8949953100 -6.7880369847  4.0393823946
84
Scanning combination 111/256: [2.4000, 2.5000]  Energy = -385.9554527994
O   11.1233000000 -4.8002000000  5.0341000000
O   11.3873000000 -0.2652000000  3.3291000000
O   18.1143000000 -4.2382000000 -2.5629000000
O   15.0523000000 -3.1142000000  0.9841000000
C   13.0053000000 -3.3232000000  2.3291000000
C   12.6993000000 -1.9792000000  2.4491000000
C   12.3973000000 -4.3072000000  3.1831000000
C   11.6323000000 -1.5992000000  3.2951000000
C   11.4783000000 -3.8632000000  4.1231000000
C   11.0613000000 -2.4802000000  4.2331000000
C   10.1223000000 -1.9712000000  5.2561000000
C   10.5373000000 -1.3232000000  6.3251000000
C   9.8643000000 -1.0622000000  7.5921000000
C   8.6825000000 -1.0450000000  7.8959000000
C   10.8123000000 -0.2992000000  8.5731000000
C   14.6833000000 -4.8512000000 -0.4449000000
C   15.5183000000 -3.8012000000 -0.0889000000
C   16.6953000000 -3.5982000000 -0.8399000000
C   16.9703000000 -4.4882000000 -1.8899000000
C   16.1523000000 -5.5962000000 -2.2009000000
C   14.9513000000 -5.7522000000 -1.5279000000
C   13.6583000000 -4.8752000000  0.4711000000
C   13.8893000000 -3.7772000000  1.2511000000
H   13.1623000000 -1.2452000000  1.7971000000
H   12.5583000000 -5.3772000000  3.0881000000
H   11.7383000000 -5.5442000000  4.9131000000
H   11.8513000000  0.1658000000  2.5901000000
H   9.4643000000 -1.3292000000  4.6731000000
H   11.4933000000 -0.8182000000  6.2071000000
H   7.9073000000 -0.9712000000  7.1161000000
H   8.2313000000 -0.9072000000  8.8131000000
H   11.1183000000  0.6778000000  8.1811000000
H   11.7213000000 -0.7962000000  8.9311000000
H   10.3263000000 -0.0742000000  9.5301000000
H   17.3553000000 -2.7642000000 -0.6209000000
H   16.3753000000 -6.3042000000 -2.9929000000
H   14.4873000000 -6.7332000000 -1.5779000000
H   12.8783000000 -5.6272000000  0.4831000000
H   18.2613000000 -4.9422000000 -3.2189000000
C   9.9870923541 -4.9858470863  10.3710243406
O   12.3180923541 -5.3378470863  10.8590243406
C   11.3450923541 -4.9158470863  10.0130243406
O   7.7640923541 -4.4698470863  9.8990243406
C   11.8030923541 -4.2438470863  8.8330243406
O   6.5160923541 -2.5138470863  5.6990243406
C   10.8240923541 -3.7648470863  7.9760243406
O   4.8130923541 -3.7498470863  4.1320243406
C   9.4370923541 -3.8748470863  8.2430243406
O   6.7270923541 -6.0298470863  0.3120243406
C   9.0410923541 -4.4528470863  9.4620243406
C   8.2648923541 -3.4690470863  7.4493243406
C   8.6040923541 -3.4348470863  6.0920243406
C   7.3790923541 -3.2498470863  5.3140243406
C   7.2130923541 -4.0308470863  4.0050243406
C   8.3370923541 -4.5598470863  3.3130243406
C   5.9050923541 -4.1738470863  3.4350243406
C   8.1630923541 -5.3198470863  2.1440243406
C   5.7410923541 -4.9308470863  2.2420243406
C   6.9010923541 -5.3578470863  1.5560243406
C   4.3450923541 -5.2598470863  1.8250243406
C   3.9600923541 -6.7058470863  1.5360243406
C   4.1380923541 -7.8048470863  2.3410243406
C   3.6700923541 -9.1818470863  1.8900243406
C   4.8430923541 -7.7118470863  3.7120243406
H   9.6220923541 -5.2458470863  11.3600243406
H   12.8760923541 -4.1058470863  8.7380243406
H   11.1340923541 -3.3198470863  7.0350243406
H   11.8550923541 -5.7758470863  11.5940243406
H   7.7100923541 -5.0558470863  10.6740243406
H   7.3730923541 -3.4198470863  7.8300243406
H   8.8700923541 -4.4708470863  5.9160243406
H   9.3220923541 -4.5168470863  3.7670243406
H   8.9890923541 -5.6388470863  1.5150243406
H   5.2160923541 -3.3428470863  4.9190243406
H   5.7860923541 -6.2098470863  0.1450243406
H   3.4800923541 -4.8838470863  2.3850243406
H   4.2260923541 -4.7718470863  0.8500243406
H   3.3270923541 -6.8858470863  0.6700243406
H   3.1680923541 -9.7328470863  2.6950243406
H   4.6010923541 -9.7028470863  1.6360243406
H   2.8880923541 -9.1438470863  1.1210243406
H   5.8240923541 -8.1838470863  3.8470243406
H   4.1960923541 -8.1788470863  4.4650243406
H   4.8440923541 -6.6918470863  4.1160243406
84
Scanning combination 112/256: [2.4000, 2.4000]  Energy = -385.9469851252
O   11.1233000000 -4.8002000000  5.0341000000
O   11.3873000000 -0.2652000000  3.3291000000
O   18.1143000000 -4.2382000000 -2.5629000000
O   15.0523000000 -3.1142000000  0.9841000000
C   13.0053000000 -3.3232000000  2.3291000000
C   12.6993000000 -1.9792000000  2.4491000000
C   12.3973000000 -4.3072000000  3.1831000000
C   11.6323000000 -1.5992000000  3.2951000000
C   11.4783000000 -3.8632000000  4.1231000000
C   11.0613000000 -2.4802000000  4.2331000000
C   10.1223000000 -1.9712000000  5.2561000000
C   10.5373000000 -1.3232000000  6.3251000000
C   9.8643000000 -1.0622000000  7.5921000000
C   8.6825000000 -1.0450000000  7.8959000000
C   10.8123000000 -0.2992000000  8.5731000000
C   14.6833000000 -4.8512000000 -0.4449000000
C   15.5183000000 -3.8012000000 -0.0889000000
C   16.6953000000 -3.5982000000 -0.8399000000
C   16.9703000000 -4.4882000000 -1.8899000000
C   16.1523000000 -5.5962000000 -2.2009000000
C   14.9513000000 -5.7522000000 -1.5279000000
C   13.6583000000 -4.8752000000  0.4711000000
C   13.8893000000 -3.7772000000  1.2511000000
H   13.1623000000 -1.2452000000  1.7971000000
H   12.5583000000 -5.3772000000  3.0881000000
H   11.7383000000 -5.5442000000  4.9131000000
H   11.8513000000  0.1658000000  2.5901000000
H   9.4643000000 -1.3292000000  4.6731000000
H   11.4933000000 -0.8182000000  6.2071000000
H   7.9073000000 -0.9712000000  7.1161000000
H   8.2313000000 -0.9072000000  8.8131000000
H   11.1183000000  0.6778000000  8.1811000000
H   11.7213000000 -0.7962000000  8.9311000000
H   10.3263000000 -0.0742000000  9.5301000000
H   17.3553000000 -2.7642000000 -0.6209000000
H   16.3753000000 -6.3042000000 -2.9929000000
H   14.4873000000 -6.7332000000 -1.5779000000
H   12.8783000000 -5.6272000000  0.4831000000
H   18.2613000000 -4.9422000000 -3.2189000000
C   9.9361706184 -4.8865059101  10.4487373123
O   12.2671706184 -5.2385059101  10.9367373123
C   11.2941706184 -4.8165059101  10.0907373123
O   7.7131706184 -4.3705059101  9.9767373123
C   11.7521706184 -4.1445059101  8.9107373123
O   6.4651706184 -2.4145059101  5.7767373123
C   10.7731706184 -3.6655059101  8.0537373123
O   4.7621706184 -3.6505059101  4.2097373123
C   9.3861706184 -3.7755059101  8.3207373123
O   6.6761706184 -5.9305059101  0.3897373123
C   8.9901706184 -4.3535059101  9.5397373123
C   8.2139706184 -3.3697059101  7.5270373123
C   8.5531706184 -3.3355059101  6.1697373123
C   7.3281706184 -3.1505059101  5.3917373123
C   7.1621706184 -3.9315059101  4.0827373123
C   8.2861706184 -4.4605059101  3.3907373123
C   5.8541706184 -4.0745059101  3.5127373123
C   8.1121706184 -5.2205059101  2.2217373123
C   5.6901706184 -4.8315059101  2.3197373123
C   6.8501706184 -5.2585059101  1.6337373123
C   4.2941706184 -5.1605059101  1.9027373123
C   3.9091706184 -6.6065059101  1.6137373123
C   4.0871706184 -7.7055059101  2.4187373123
C   3.6191706184 -9.0825059101  1.9677373123
C   4.7921706184 -7.6125059101  3.7897373123
H   9.5711706184 -5.1465059101  11.4377373123
H   12.8251706184 -4.0065059101  8.8157373123
H   11.0831706184 -3.2205059101  7.1127373123
H   11.8041706184 -5.6765059101  11.6717373123
H   7.6591706184 -4.9565059101  10.7517373123
H   7.3221706184 -3.3205059101  7.9077373123
H   8.8191706184 -4.3715059101  5.9937373123
H   9.2711706184 -4.4175059101  3.8447373123
H   8.9381706184 -5.5395059101  1.5927373123
H   5.1651706184 -3.2435059101  4.9967373123
H   5.7351706184 -6.1105059101  0.2227373123
H   3.4291706184 -4.7845059101  2.4627373123
H   4.1751706184 -4.6725059101  0.9277373123
H   3.2761706184 -6.7865059101  0.7477373123
H   3.1171706184 -9.6335059101  2.7727373123
H   4.5501706184 -9.6035059101  1.7137373123
H   2.8371706184 -9.0445059101  1.1987373123
H   5.7731706184 -8.0845059101  3.9247373123
H   4.1451706184 -8.0795059101  4.5427373123
H   4.7931706184 -6.5925059101  4.1937373123
84
Scanning combination 113/256: [2.4000, 2.3000]  Energy = -385.9363881346
O   11.1233000000 -4.8002000000  5.0341000000
O   11.3873000000 -0.2652000000  3.3291000000
O   18.1143000000 -4.2382000000 -2.5629000000
O   15.0523000000 -3.1142000000  0.9841000000
C   13.0053000000 -3.3232000000  2.3291000000
C   12.6993000000 -1.9792000000  2.4491000000
C   12.3973000000 -4.3072000000  3.1831000000
C   11.6323000000 -1.5992000000  3.2951000000
C   11.4783000000 -3.8632000000  4.1231000000
C   11.0613000000 -2.4802000000  4.2331000000
C   10.1223000000 -1.9712000000  5.2561000000
C   10.5373000000 -1.3232000000  6.3251000000
C   9.8643000000 -1.0622000000  7.5921000000
C   8.6825000000 -1.0450000000  7.8959000000
C   10.8123000000 -0.2992000000  8.5731000000
C   14.6833000000 -4.8512000000 -0.4449000000
C   15.5183000000 -3.8012000000 -0.0889000000
C   16.6953000000 -3.5982000000 -0.8399000000
C   16.9703000000 -4.4882000000 -1.8899000000
C   16.1523000000 -5.5962000000 -2.2009000000
C   14.9513000000 -5.7522000000 -1.5279000000
C   13.6583000000 -4.8752000000  0.4711000000
C   13.8893000000 -3.7772000000  1.2511000000
H   13.1623000000 -1.2452000000  1.7971000000
H   12.5583000000 -5.3772000000  3.0881000000
H   11.7383000000 -5.5442000000  4.9131000000
H   11.8513000000  0.1658000000  2.5901000000
H   9.4643000000 -1.3292000000  4.6731000000
H   11.4933000000 -0.8182000000  6.2071000000
H   7.9073000000 -0.9712000000  7.1161000000
H   8.2313000000 -0.9072000000  8.8131000000
H   11.1183000000  0.6778000000  8.1811000000
H   11.7213000000 -0.7962000000  8.9311000000
H   10.3263000000 -0.0742000000  9.5301000000
H   17.3553000000 -2.7642000000 -0.6209000000
H   16.3753000000 -6.3042000000 -2.9929000000
H   14.4873000000 -6.7332000000 -1.5779000000
H   12.8783000000 -5.6272000000  0.4831000000
H   18.2613000000 -4.9422000000 -3.2189000000
C   9.8889173435 -4.7839176504  10.5243335313
O   12.2199173435 -5.1359176504  11.0123335313
C   11.2469173435 -4.7139176504  10.1663335313
O   7.6659173435 -4.2679176504  10.0523335313
C   11.7049173435 -4.0419176504  8.9863335313
O   6.4179173435 -2.3119176504  5.8523335313
C   10.7259173435 -3.5629176504  8.1293335313
O   4.7149173435 -3.5479176504  4.2853335313
C   9.3389173435 -3.6729176504  8.3963335313
O   6.6289173435 -5.8279176504  0.4653335313
C   8.9429173435 -4.2509176504  9.6153335313
C   8.1667173435 -3.2671176504  7.6026335313
C   8.5059173435 -3.2329176504  6.2453335313
C   7.2809173435 -3.0479176504  5.4673335313
C   7.1149173435 -3.8289176504  4.1583335313
C   8.2389173435 -4.3579176504  3.4663335313
C   5.8069173435 -3.9719176504  3.5883335313
C   8.0649173435 -5.1179176504  2.2973335313
C   5.6429173435 -4.7289176504  2.3953335313
C   6.8029173435 -5.1559176504  1.7093335313
C   4.2469173435 -5.0579176504  1.9783335313
C   3.8619173435 -6.5039176504  1.6893335313
C   4.0399173435 -7.6029176504  2.4943335313
C   3.5719173435 -8.9799176504  2.0433335313
C   4.7449173435 -7.5099176504  3.8653335313
H   9.5239173435 -5.0439176504  11.5133335313
H   12.7779173435 -3.9039176504  8.8913335313
H   11.0359173435 -3.1179176504  7.1883335313
H   11.7569173435 -5.5739176504  11.7473335313
H   7.6119173435 -4.8539176504  10.8273335313
H   7.2749173435 -3.2179176504  7.9833335313
H   8.7719173435 -4.2689176504  6.0693335313
H   9.2239173435 -4.3149176504  3.9203335313
H   8.8909173435 -5.4369176504  1.6683335313
H   5.1179173435 -3.1409176504  5.0723335313
H   5.6879173435 -6.0079176504  0.2983335313
H   3.3819173435 -4.6819176504  2.5383335313
H   4.1279173435 -4.5699176504  1.0033335313
H   3.2289173435 -6.6839176504  0.8233335313
H   3.0699173435 -9.5309176504  2.8483335313
H   4.5029173435 -9.5009176504  1.7893335313
H   2.7899173435 -8.9419176504  1.2743335313
H   5.7259173435 -7.9819176504  4.0003335313
H   4.0979173435 -7.9769176504  4.6183335313
H   4.7459173435 -6.4899176504  4.2693335313
84
Scanning combination 114/256: [2.4000, 2.2000]  Energy = -385.9221099611
O   11.1233000000 -4.8002000000  5.0341000000
O   11.3873000000 -0.2652000000  3.3291000000
O   18.1143000000 -4.2382000000 -2.5629000000
O   15.0523000000 -3.1142000000  0.9841000000
C   13.0053000000 -3.3232000000  2.3291000000
C   12.6993000000 -1.9792000000  2.4491000000
C   12.3973000000 -4.3072000000  3.1831000000
C   11.6323000000 -1.5992000000  3.2951000000
C   11.4783000000 -3.8632000000  4.1231000000
C   11.0613000000 -2.4802000000  4.2331000000
C   10.1223000000 -1.9712000000  5.2561000000
C   10.5373000000 -1.3232000000  6.3251000000
C   9.8643000000 -1.0622000000  7.5921000000
C   8.6825000000 -1.0450000000  7.8959000000
C   10.8123000000 -0.2992000000  8.5731000000
C   14.6833000000 -4.8512000000 -0.4449000000
C   15.5183000000 -3.8012000000 -0.0889000000
C   16.6953000000 -3.5982000000 -0.8399000000
C   16.9703000000 -4.4882000000 -1.8899000000
C   16.1523000000 -5.5962000000 -2.2009000000
C   14.9513000000 -5.7522000000 -1.5279000000
C   13.6583000000 -4.8752000000  0.4711000000
C   13.8893000000 -3.7772000000  1.2511000000
H   13.1623000000 -1.2452000000  1.7971000000
H   12.5583000000 -5.3772000000  3.0881000000
H   11.7383000000 -5.5442000000  4.9131000000
H   11.8513000000  0.1658000000  2.5901000000
H   9.4643000000 -1.3292000000  4.6731000000
H   11.4933000000 -0.8182000000  6.2071000000
H   7.9073000000 -0.9712000000  7.1161000000
H   8.2313000000 -0.9072000000  8.8131000000
H   11.1183000000  0.6778000000  8.1811000000
H   11.7213000000 -0.7962000000  8.9311000000
H   10.3263000000 -0.0742000000  9.5301000000
H   17.3553000000 -2.7642000000 -0.6209000000
H   16.3753000000 -6.3042000000 -2.9929000000
H   14.4873000000 -6.7332000000 -1.5779000000
H   12.8783000000 -5.6272000000  0.4831000000
H   18.2613000000 -4.9422000000 -3.2189000000
C   9.8471350759 -4.6783837061  10.5961380765
O   12.1781350759 -5.0303837061  11.0841380765
C   11.2051350759 -4.6083837061  10.2381380765
O   7.6241350759 -4.1623837061  10.1241380765
C   11.6631350759 -3.9363837061  9.0581380765
O   6.3761350759 -2.2063837061  5.9241380765
C   10.6841350759 -3.4573837061  8.2011380765
O   4.6731350759 -3.4423837061  4.3571380765
C   9.2971350759 -3.5673837061  8.4681380765
O   6.5871350759 -5.7223837061  0.5371380765
C   8.9011350759 -4.1453837061  9.6871380765
C   8.1249350759 -3.1615837061  7.6744380765
C   8.4641350759 -3.1273837061  6.3171380765
C   7.2391350759 -2.9423837061  5.5391380765
C   7.0731350759 -3.7233837061  4.2301380765
C   8.1971350759 -4.2523837061  3.5381380765
C   5.7651350759 -3.8663837061  3.6601380765
C   8.0231350759 -5.0123837061  2.3691380765
C   5.6011350759 -4.6233837061  2.4671380765
C   6.7611350759 -5.0503837061  1.7811380765
C   4.2051350759 -4.9523837061  2.0501380765
C   3.8201350759 -6.3983837061  1.7611380765
C   3.9981350759 -7.4973837061  2.5661380765
C   3.5301350759 -8.8743837061  2.1151380765
C   4.7031350759 -7.4043837061  3.9371380765
H   9.4821350759 -4.9383837061  11.5851380765
H   12.7361350759 -3.7983837061  8.9631380765
H   10.9941350759 -3.0123837061  7.2601380765
H   11.7151350759 -5.4683837061  11.8191380765
H   7.5701350759 -4.7483837061  10.8991380765
H   7.2331350759 -3.1123837061  8.0551380765
H   8.7301350759 -4.1633837061  6.1411380765
H   9.1821350759 -4.2093837061  3.9921380765
H   8.8491350759 -5.3313837061  1.7401380765
H   5.0761350759 -3.0353837061  5.1441380765
H   5.6461350759 -5.9023837061  0.3701380765
H   3.3401350759 -4.5763837061  2.6101380765
H   4.0861350759 -4.4643837061  1.0751380765
H   3.1871350759 -6.5783837061  0.8951380765
H   3.0281350759 -9.4253837061  2.9201380765
H   4.4611350759 -9.3953837061  1.8611380765
H   2.7481350759 -8.8363837061  1.3461380765
H   5.6841350759 -7.8763837061  4.0721380765
H   4.0561350759 -7.8713837061  4.6901380765
H   4.7041350759 -6.3843837061  4.3411380765
84
Scanning combination 115/256: [2.4000, 2.1000]  Energy = -385.9027293917
O   11.1233000000 -4.8002000000  5.0341000000
O   11.3873000000 -0.2652000000  3.3291000000
O   18.1143000000 -4.2382000000 -2.5629000000
O   15.0523000000 -3.1142000000  0.9841000000
C   13.0053000000 -3.3232000000  2.3291000000
C   12.6993000000 -1.9792000000  2.4491000000
C   12.3973000000 -4.3072000000  3.1831000000
C   11.6323000000 -1.5992000000  3.2951000000
C   11.4783000000 -3.8632000000  4.1231000000
C   11.0613000000 -2.4802000000  4.2331000000
C   10.1223000000 -1.9712000000  5.2561000000
C   10.5373000000 -1.3232000000  6.3251000000
C   9.8643000000 -1.0622000000  7.5921000000
C   8.6825000000 -1.0450000000  7.8959000000
C   10.8123000000 -0.2992000000  8.5731000000
C   14.6833000000 -4.8512000000 -0.4449000000
C   15.5183000000 -3.8012000000 -0.0889000000
C   16.6953000000 -3.5982000000 -0.8399000000
C   16.9703000000 -4.4882000000 -1.8899000000
C   16.1523000000 -5.5962000000 -2.2009000000
C   14.9513000000 -5.7522000000 -1.5279000000
C   13.6583000000 -4.8752000000  0.4711000000
C   13.8893000000 -3.7772000000  1.2511000000
H   13.1623000000 -1.2452000000  1.7971000000
H   12.5583000000 -5.3772000000  3.0881000000
H   11.7383000000 -5.5442000000  4.9131000000
H   11.8513000000  0.1658000000  2.5901000000
H   9.4643000000 -1.3292000000  4.6731000000
H   11.4933000000 -0.8182000000  6.2071000000
H   7.9073000000 -0.9712000000  7.1161000000
H   8.2313000000 -0.9072000000  8.8131000000
H   11.1183000000  0.6778000000  8.1811000000
H   11.7213000000 -0.7962000000  8.9311000000
H   10.3263000000 -0.0742000000  9.5301000000
H   17.3553000000 -2.7642000000 -0.6209000000
H   16.3753000000 -6.3042000000 -2.9929000000
H   14.4873000000 -6.7332000000 -1.5779000000
H   12.8783000000 -5.6272000000  0.4831000000
H   18.2613000000 -4.9422000000 -3.2189000000
C   9.8115366427 -4.5703396830  10.6633826968
O   12.1425366427 -4.9223396830  11.1513826968
C   11.1695366427 -4.5003396830  10.3053826968
O   7.5885366427 -4.0543396830  10.1913826968
C   11.6275366427 -3.8283396830  9.1253826968
O   6.3405366427 -2.0983396830  5.9913826968
C   10.6485366427 -3.3493396830  8.2683826968
O   4.6375366427 -3.3343396830  4.4243826968
C   9.2615366427 -3.4593396830  8.5353826968
O   6.5515366427 -5.6143396830  0.6043826968
C   8.8655366427 -4.0373396830  9.7543826968
C   8.0893366427 -3.0535396830  7.7416826968
C   8.4285366427 -3.0193396830  6.3843826968
C   7.2035366427 -2.8343396830  5.6063826968
C   7.0375366427 -3.6153396830  4.2973826968
C   8.1615366427 -4.1443396830  3.6053826968
C   5.7295366427 -3.7583396830  3.7273826968
C   7.9875366427 -4.9043396830  2.4363826968
C   5.5655366427 -4.5153396830  2.5343826968
C   6.7255366427 -4.9423396830  1.8483826968
C   4.1695366427 -4.8443396830  2.1173826968
C   3.7845366427 -6.2903396830  1.8283826968
C   3.9625366427 -7.3893396830  2.6333826968
C   3.4945366427 -8.7663396830  2.1823826968
C   4.6675366427 -7.2963396830  4.0043826968
H   9.4465366427 -4.8303396830  11.6523826968
H   12.7005366427 -3.6903396830  9.0303826968
H   10.9585366427 -2.9043396830  7.3273826968
H   11.6795366427 -5.3603396830  11.8863826968
H   7.5345366427 -4.6403396830  10.9663826968
H   7.1975366427 -3.0043396830  8.1223826968
H   8.6945366427 -4.0553396830  6.2083826968
H   9.1465366427 -4.1013396830  4.0593826968
H   8.8135366427 -5.2233396830  1.8073826968
H   5.0405366427 -2.9273396830  5.2113826968
H   5.6105366427 -5.7943396830  0.4373826968
H   3.3045366427 -4.4683396830  2.6773826968
H   4.0505366427 -4.3563396830  1.1423826968
H   3.1515366427 -6.4703396830  0.9623826968
H   2.9925366427 -9.3173396830  2.9873826968
H   4.4255366427 -9.2873396830  1.9283826968
H   2.7125366427 -8.7283396830  1.4133826968
H   5.6485366427 -7.7683396830  4.1393826968
H   4.0205366427 -7.7633396830  4.7573826968
H   4.6685366427 -6.2763396830  4.4083826968
84
Scanning combination 116/256: [2.4000, 2.0000]  Energy = -385.8785315748
O   11.1233000000 -4.8002000000  5.0341000000
O   11.3873000000 -0.2652000000  3.3291000000
O   18.1143000000 -4.2382000000 -2.5629000000
O   15.0523000000 -3.1142000000  0.9841000000
C   13.0053000000 -3.3232000000  2.3291000000
C   12.6993000000 -1.9792000000  2.4491000000
C   12.3973000000 -4.3072000000  3.1831000000
C   11.6323000000 -1.5992000000  3.2951000000
C   11.4783000000 -3.8632000000  4.1231000000
C   11.0613000000 -2.4802000000  4.2331000000
C   10.1223000000 -1.9712000000  5.2561000000
C   10.5373000000 -1.3232000000  6.3251000000
C   9.8643000000 -1.0622000000  7.5921000000
C   8.6825000000 -1.0450000000  7.8959000000
C   10.8123000000 -0.2992000000  8.5731000000
C   14.6833000000 -4.8512000000 -0.4449000000
C   15.5183000000 -3.8012000000 -0.0889000000
C   16.6953000000 -3.5982000000 -0.8399000000
C   16.9703000000 -4.4882000000 -1.8899000000
C   16.1523000000 -5.5962000000 -2.2009000000
C   14.9513000000 -5.7522000000 -1.5279000000
C   13.6583000000 -4.8752000000  0.4711000000
C   13.8893000000 -3.7772000000  1.2511000000
H   13.1623000000 -1.2452000000  1.7971000000
H   12.5583000000 -5.3772000000  3.0881000000
H   11.7383000000 -5.5442000000  4.9131000000
H   11.8513000000  0.1658000000  2.5901000000
H   9.4643000000 -1.3292000000  4.6731000000
H   11.4933000000 -0.8182000000  6.2071000000
H   7.9073000000 -0.9712000000  7.1161000000
H   8.2313000000 -0.9072000000  8.8131000000
H   11.1183000000  0.6778000000  8.1811000000
H   11.7213000000 -0.7962000000  8.9311000000
H   10.3263000000 -0.0742000000  9.5301000000
H   17.3553000000 -2.7642000000 -0.6209000000
H   16.3753000000 -6.3042000000 -2.9929000000
H   14.4873000000 -6.7332000000 -1.5779000000
H   12.8783000000 -5.6272000000  0.4831000000
H   18.2613000000 -4.9422000000 -3.2189000000
C   9.7822699671 -4.4602246642  10.7257912738
O   12.1132699671 -4.8122246642  11.2137912738
C   11.1402699671 -4.3902246642  10.3677912738
O   7.5592699671 -3.9442246642  10.2537912738
C   11.5982699671 -3.7182246642  9.1877912738
O   6.3112699671 -1.9882246642  6.0537912738
C   10.6192699671 -3.2392246642  8.3307912738
O   4.6082699671 -3.2242246642  4.4867912738
C   9.2322699671 -3.3492246642  8.5977912738
O   6.5222699671 -5.5042246642  0.6667912738
C   8.8362699671 -3.9272246642  9.8167912738
C   8.0600699671 -2.9434246642  7.8040912738
C   8.3992699671 -2.9092246642  6.4467912738
C   7.1742699671 -2.7242246642  5.6687912738
C   7.0082699671 -3.5052246642  4.3597912738
C   8.1322699671 -4.0342246642  3.6677912738
C   5.7002699671 -3.6482246642  3.7897912738
C   7.9582699671 -4.7942246642  2.4987912738
C   5.5362699671 -4.4052246642  2.5967912738
C   6.6962699671 -4.8322246642  1.9107912738
C   4.1402699671 -4.7342246642  2.1797912738
C   3.7552699671 -6.1802246642  1.8907912738
C   3.9332699671 -7.2792246642  2.6957912738
C   3.4652699671 -8.6562246642  2.2447912738
C   4.6382699671 -7.1862246642  4.0667912738
H   9.4172699671 -4.7202246642  11.7147912738
H   12.6712699671 -3.5802246642  9.0927912738
H   10.9292699671 -2.7942246642  7.3897912738
H   11.6502699671 -5.2502246642  11.9487912738
H   7.5052699671 -4.5302246642  11.0287912738
H   7.1682699671 -2.8942246642  8.1847912738
H   8.6652699671 -3.9452246642  6.2707912738
H   9.1172699671 -3.9912246642  4.1217912738
H   8.7842699671 -5.1132246642  1.8697912738
H   5.0112699671 -2.8172246642  5.2737912738
H   5.5812699671 -5.6842246642  0.4997912738
H   3.2752699671 -4.3582246642  2.7397912738
H   4.0212699671 -4.2462246642  1.2047912738
H   3.1222699671 -6.3602246642  1.0247912738
H   2.9632699671 -9.2072246642  3.0497912738
H   4.3962699671 -9.1772246642  1.9907912738
H   2.6832699671 -8.6182246642  1.4757912738
H   5.6192699671 -7.6582246642  4.2017912738
H   3.9912699671 -7.6532246642  4.8197912738
H   4.6392699671 -6.1662246642  4.4707912738
84
Scanning combination 117/256: [2.4000, 1.9000]  Energy = -385.8497117754
O   11.1233000000 -4.8002000000  5.0341000000
O   11.3873000000 -0.2652000000  3.3291000000
O   18.1143000000 -4.2382000000 -2.5629000000
O   15.0523000000 -3.1142000000  0.9841000000
C   13.0053000000 -3.3232000000  2.3291000000
C   12.6993000000 -1.9792000000  2.4491000000
C   12.3973000000 -4.3072000000  3.1831000000
C   11.6323000000 -1.5992000000  3.2951000000
C   11.4783000000 -3.8632000000  4.1231000000
C   11.0613000000 -2.4802000000  4.2331000000
C   10.1223000000 -1.9712000000  5.2561000000
C   10.5373000000 -1.3232000000  6.3251000000
C   9.8643000000 -1.0622000000  7.5921000000
C   8.6825000000 -1.0450000000  7.8959000000
C   10.8123000000 -0.2992000000  8.5731000000
C   14.6833000000 -4.8512000000 -0.4449000000
C   15.5183000000 -3.8012000000 -0.0889000000
C   16.6953000000 -3.5982000000 -0.8399000000
C   16.9703000000 -4.4882000000 -1.8899000000
C   16.1523000000 -5.5962000000 -2.2009000000
C   14.9513000000 -5.7522000000 -1.5279000000
C   13.6583000000 -4.8752000000  0.4711000000
C   13.8893000000 -3.7772000000  1.2511000000
H   13.1623000000 -1.2452000000  1.7971000000
H   12.5583000000 -5.3772000000  3.0881000000
H   11.7383000000 -5.5442000000  4.9131000000
H   11.8513000000  0.1658000000  2.5901000000
H   9.4643000000 -1.3292000000  4.6731000000
H   11.4933000000 -0.8182000000  6.2071000000
H   7.9073000000 -0.9712000000  7.1161000000
H   8.2313000000 -0.9072000000  8.8131000000
H   11.1183000000  0.6778000000  8.1811000000
H   11.7213000000 -0.7962000000  8.9311000000
H   10.3263000000 -0.0742000000  9.5301000000
H   17.3553000000 -2.7642000000 -0.6209000000
H   16.3753000000 -6.3042000000 -2.9929000000
H   14.4873000000 -6.7332000000 -1.5779000000
H   12.8783000000 -5.6272000000  0.4831000000
H   18.2613000000 -4.9422000000 -3.2189000000
C   9.7592286222 -4.3484345061  10.7833242638
O   12.0902286222 -4.7004345061  11.2713242638
C   11.1172286222 -4.2784345061  10.4253242638
O   7.5362286222 -3.8324345061  10.3113242638
C   11.5752286222 -3.6064345061  9.2453242638
O   6.2882286222 -1.8764345061  6.1113242638
C   10.5962286222 -3.1274345061  8.3883242638
O   4.5852286222 -3.1124345061  4.5443242638
C   9.2092286222 -3.2374345061  8.6553242638
O   6.4992286222 -5.3924345061  0.7243242638
C   8.8132286222 -3.8154345061  9.8743242638
C   8.0370286222 -2.8316345061  7.8616242638
C   8.3762286222 -2.7974345061  6.5043242638
C   7.1512286222 -2.6124345061  5.7263242638
C   6.9852286222 -3.3934345061  4.4173242638
C   8.1092286222 -3.9224345061  3.7253242638
C   5.6772286222 -3.5364345061  3.8473242638
C   7.9352286222 -4.6824345061  2.5563242638
C   5.5132286222 -4.2934345061  2.6543242638
C   6.6732286222 -4.7204345061  1.9683242638
C   4.1172286222 -4.6224345061  2.2373242638
C   3.7322286222 -6.0684345061  1.9483242638
C   3.9102286222 -7.1674345061  2.7533242638
C   3.4422286222 -8.5444345061  2.3023242638
C   4.6152286222 -7.0744345061  4.1243242638
H   9.3942286222 -4.6084345061  11.7723242638
H   12.6482286222 -3.4684345061  9.1503242638
H   10.9062286222 -2.6824345061  7.4473242638
H   11.6272286222 -5.1384345061  12.0063242638
H   7.4822286222 -4.4184345061  11.0863242638
H   7.1452286222 -2.7824345061  8.2423242638
H   8.6422286222 -3.8334345061  6.3283242638
H   9.0942286222 -3.8794345061  4.1793242638
H   8.7612286222 -5.0014345061  1.9273242638
H   4.9882286222 -2.7054345061  5.3313242638
H   5.5582286222 -5.5724345061  0.5573242638
H   3.2522286222 -4.2464345061  2.7973242638
H   3.9982286222 -4.1344345061  1.2623242638
H   3.0992286222 -6.2484345061  1.0823242638
H   2.9402286222 -9.0954345061  3.1073242638
H   4.3732286222 -9.0654345061  2.0483242638
H   2.6602286222 -8.5064345061  1.5333242638
H   5.5962286222 -7.5464345061  4.2593242638
H   3.9682286222 -7.5414345061  4.8773242638
H   4.6162286222 -6.0544345061  4.5283242638
84
Scanning combination 118/256: [2.4000, 1.8000]  Energy = -385.8131889101
O   11.1233000000 -4.8002000000  5.0341000000
O   11.3873000000 -0.2652000000  3.3291000000
O   18.1143000000 -4.2382000000 -2.5629000000
O   15.0523000000 -3.1142000000  0.9841000000
C   13.0053000000 -3.3232000000  2.3291000000
C   12.6993000000 -1.9792000000  2.4491000000
C   12.3973000000 -4.3072000000  3.1831000000
C   11.6323000000 -1.5992000000  3.2951000000
C   11.4783000000 -3.8632000000  4.1231000000
C   11.0613000000 -2.4802000000  4.2331000000
C   10.1223000000 -1.9712000000  5.2561000000
C   10.5373000000 -1.3232000000  6.3251000000
C   9.8643000000 -1.0622000000  7.5921000000
C   8.6825000000 -1.0450000000  7.8959000000
C   10.8123000000 -0.2992000000  8.5731000000
C   14.6833000000 -4.8512000000 -0.4449000000
C   15.5183000000 -3.8012000000 -0.0889000000
C   16.6953000000 -3.5982000000 -0.8399000000
C   16.9703000000 -4.4882000000 -1.8899000000
C   16.1523000000 -5.5962000000 -2.2009000000
C   14.9513000000 -5.7522000000 -1.5279000000
C   13.6583000000 -4.8752000000  0.4711000000
C   13.8893000000 -3.7772000000  1.2511000000
H   13.1623000000 -1.2452000000  1.7971000000
H   12.5583000000 -5.3772000000  3.0881000000
H   11.7383000000 -5.5442000000  4.9131000000
H   11.8513000000  0.1658000000  2.5901000000
H   9.4643000000 -1.3292000000  4.6731000000
H   11.4933000000 -0.8182000000  6.2071000000
H   7.9073000000 -0.9712000000  7.1161000000
H   8.2313000000 -0.9072000000  8.8131000000
H   11.1183000000  0.6778000000  8.1811000000
H   11.7213000000 -0.7962000000  8.9311000000
H   10.3263000000 -0.0742000000  9.5301000000
H   17.3553000000 -2.7642000000 -0.6209000000
H   16.3753000000 -6.3042000000 -2.9929000000
H   14.4873000000 -6.7332000000 -1.5779000000
H   12.8783000000 -5.6272000000  0.4831000000
H   18.2613000000 -4.9422000000 -3.2189000000
C   9.7422160515 -4.2353151178  10.8360375434
O   12.0732160515 -4.5873151178  11.3240375434
C   11.1002160515 -4.1653151178  10.4780375434
O   7.5192160515 -3.7193151178  10.3640375434
C   11.5582160515 -3.4933151178  9.2980375434
O   6.2712160515 -1.7633151178  6.1640375434
C   10.5792160515 -3.0143151178  8.4410375434
O   4.5682160515 -2.9993151178  4.5970375434
C   9.1922160515 -3.1243151178  8.7080375434
O   6.4822160515 -5.2793151178  0.7770375434
C   8.7962160515 -3.7023151178  9.9270375434
C   8.0200160515 -2.7185151178  7.9143375434
C   8.3592160515 -2.6843151178  6.5570375434
C   7.1342160515 -2.4993151178  5.7790375434
C   6.9682160515 -3.2803151178  4.4700375434
C   8.0922160515 -3.8093151178  3.7780375434
C   5.6602160515 -3.4233151178  3.9000375434
C   7.9182160515 -4.5693151178  2.6090375434
C   5.4962160515 -4.1803151178  2.7070375434
C   6.6562160515 -4.6073151178  2.0210375434
C   4.1002160515 -4.5093151178  2.2900375434
C   3.7152160515 -5.9553151178  2.0010375434
C   3.8932160515 -7.0543151178  2.8060375434
C   3.4252160515 -8.4313151178  2.3550375434
C   4.5982160515 -6.9613151178  4.1770375434
H   9.3772160515 -4.4953151178  11.8250375434
H   12.6312160515 -3.3553151178  9.2030375434
H   10.8892160515 -2.5693151178  7.5000375434
H   11.6102160515 -5.0253151178  12.0590375434
H   7.4652160515 -4.3053151178  11.1390375434
H   7.1282160515 -2.6693151178  8.2950375434
H   8.6252160515 -3.7203151178  6.3810375434
H   9.0772160515 -3.7663151178  4.2320375434
H   8.7442160515 -4.8883151178  1.9800375434
H   4.9712160515 -2.5923151178  5.3840375434
H   5.5412160515 -5.4593151178  0.6100375434
H   3.2352160515 -4.1333151178  2.8500375434
H   3.9812160515 -4.0213151178  1.3150375434
H   3.0822160515 -6.1353151178  1.1350375434
H   2.9232160515 -8.9823151178  3.1600375434
H   4.3562160515 -8.9523151178  2.1010375434
H   2.6432160515 -8.3933151178  1.5860375434
H   5.5792160515 -7.4333151178  4.3120375434
H   3.9512160515 -7.4283151178  4.9300375434
H   4.5992160515 -5.9413151178  4.5810375434
84
Scanning combination 119/256: [2.4000, 1.7000]  Energy = -385.7668403383
O   11.1233000000 -4.8002000000  5.0341000000
O   11.3873000000 -0.2652000000  3.3291000000
O   18.1143000000 -4.2382000000 -2.5629000000
O   15.0523000000 -3.1142000000  0.9841000000
C   13.0053000000 -3.3232000000  2.3291000000
C   12.6993000000 -1.9792000000  2.4491000000
C   12.3973000000 -4.3072000000  3.1831000000
C   11.6323000000 -1.5992000000  3.2951000000
C   11.4783000000 -3.8632000000  4.1231000000
C   11.0613000000 -2.4802000000  4.2331000000
C   10.1223000000 -1.9712000000  5.2561000000
C   10.5373000000 -1.3232000000  6.3251000000
C   9.8643000000 -1.0622000000  7.5921000000
C   8.6825000000 -1.0450000000  7.8959000000
C   10.8123000000 -0.2992000000  8.5731000000
C   14.6833000000 -4.8512000000 -0.4449000000
C   15.5183000000 -3.8012000000 -0.0889000000
C   16.6953000000 -3.5982000000 -0.8399000000
C   16.9703000000 -4.4882000000 -1.8899000000
C   16.1523000000 -5.5962000000 -2.2009000000
C   14.9513000000 -5.7522000000 -1.5279000000
C   13.6583000000 -4.8752000000  0.4711000000
C   13.8893000000 -3.7772000000  1.2511000000
H   13.1623000000 -1.2452000000  1.7971000000
H   12.5583000000 -5.3772000000  3.0881000000
H   11.7383000000 -5.5442000000  4.9131000000
H   11.8513000000  0.1658000000  2.5901000000
H   9.4643000000 -1.3292000000  4.6731000000
H   11.4933000000 -0.8182000000  6.2071000000
H   7.9073000000 -0.9712000000  7.1161000000
H   8.2313000000 -0.9072000000  8.8131000000
H   11.1183000000  0.6778000000  8.1811000000
H   11.7213000000 -0.7962000000  8.9311000000
H   10.3263000000 -0.0742000000  9.5301000000
H   17.3553000000 -2.7642000000 -0.6209000000
H   16.3753000000 -6.3042000000 -2.9929000000
H   14.4873000000 -6.7332000000 -1.5779000000
H   12.8783000000 -5.6272000000  0.4831000000
H   18.2613000000 -4.9422000000 -3.2189000000
C   9.7310230128 -4.1211695110  10.8840124232
O   12.0620230128 -4.4731695110  11.3720124232
C   11.0890230128 -4.0511695110  10.5260124232
O   7.5080230128 -3.6051695110  10.4120124232
C   11.5470230128 -3.3791695110  9.3460124232
O   6.2600230128 -1.6491695110  6.2120124232
C   10.5680230128 -2.9001695110  8.4890124232
O   4.5570230128 -2.8851695110  4.6450124232
C   9.1810230128 -3.0101695110  8.7560124232
O   6.4710230128 -5.1651695110  0.8250124232
C   8.7850230128 -3.5881695110  9.9750124232
C   8.0088230128 -2.6043695110  7.9623124232
C   8.3480230128 -2.5701695110  6.6050124232
C   7.1230230128 -2.3851695110  5.8270124232
C   6.9570230128 -3.1661695110  4.5180124232
C   8.0810230128 -3.6951695110  3.8260124232
C   5.6490230128 -3.3091695110  3.9480124232
C   7.9070230128 -4.4551695110  2.6570124232
C   5.4850230128 -4.0661695110  2.7550124232
C   6.6450230128 -4.4931695110  2.0690124232
C   4.0890230128 -4.3951695110  2.3380124232
C   3.7040230128 -5.8411695110  2.0490124232
C   3.8820230128 -6.9401695110  2.8540124232
C   3.4140230128 -8.3171695110  2.4030124232
C   4.5870230128 -6.8471695110  4.2250124232
H   9.3660230128 -4.3811695110  11.8730124232
H   12.6200230128 -3.2411695110  9.2510124232
H   10.8780230128 -2.4551695110  7.5480124232
H   11.5990230128 -4.9111695110  12.1070124232
H   7.4540230128 -4.1911695110  11.1870124232
H   7.1170230128 -2.5551695110  8.3430124232
H   8.6140230128 -3.6061695110  6.4290124232
H   9.0660230128 -3.6521695110  4.2800124232
H   8.7330230128 -4.7741695110  2.0280124232
H   4.9600230128 -2.4781695110  5.4320124232
H   5.5300230128 -5.3451695110  0.6580124232
H   3.2240230128 -4.0191695110  2.8980124232
H   3.9700230128 -3.9071695110  1.3630124232
H   3.0710230128 -6.0211695110  1.1830124232
H   2.9120230128 -8.8681695110  3.2080124232
H   4.3450230128 -8.8381695110  2.1490124232
H   2.6320230128 -8.2791695110  1.6340124232
H   5.5680230128 -7.3191695110  4.3600124232
H   3.9400230128 -7.3141695110  4.9780124232
H   4.5880230128 -5.8271695110  4.6290124232
84
Scanning combination 120/256: [2.4000, 1.6000]  Energy = -385.7069164511
O   11.1233000000 -4.8002000000  5.0341000000
O   11.3873000000 -0.2652000000  3.3291000000
O   18.1143000000 -4.2382000000 -2.5629000000
O   15.0523000000 -3.1142000000  0.9841000000
C   13.0053000000 -3.3232000000  2.3291000000
C   12.6993000000 -1.9792000000  2.4491000000
C   12.3973000000 -4.3072000000  3.1831000000
C   11.6323000000 -1.5992000000  3.2951000000
C   11.4783000000 -3.8632000000  4.1231000000
C   11.0613000000 -2.4802000000  4.2331000000
C   10.1223000000 -1.9712000000  5.2561000000
C   10.5373000000 -1.3232000000  6.3251000000
C   9.8643000000 -1.0622000000  7.5921000000
C   8.6825000000 -1.0450000000  7.8959000000
C   10.8123000000 -0.2992000000  8.5731000000
C   14.6833000000 -4.8512000000 -0.4449000000
C   15.5183000000 -3.8012000000 -0.0889000000
C   16.6953000000 -3.5982000000 -0.8399000000
C   16.9703000000 -4.4882000000 -1.8899000000
C   16.1523000000 -5.5962000000 -2.2009000000
C   14.9513000000 -5.7522000000 -1.5279000000
C   13.6583000000 -4.8752000000  0.4711000000
C   13.8893000000 -3.7772000000  1.2511000000
H   13.1623000000 -1.2452000000  1.7971000000
H   12.5583000000 -5.3772000000  3.0881000000
H   11.7383000000 -5.5442000000  4.9131000000
H   11.8513000000  0.1658000000  2.5901000000
H   9.4643000000 -1.3292000000  4.6731000000
H   11.4933000000 -0.8182000000  6.2071000000
H   7.9073000000 -0.9712000000  7.1161000000
H   8.2313000000 -0.9072000000  8.8131000000
H   11.1183000000  0.6778000000  8.1811000000
H   11.7213000000 -0.7962000000  8.9311000000
H   10.3263000000 -0.0742000000  9.5301000000
H   17.3553000000 -2.7642000000 -0.6209000000
H   16.3753000000 -6.3042000000 -2.9929000000
H   14.4873000000 -6.7332000000 -1.5779000000
H   12.8783000000 -5.6272000000  0.4831000000
H   18.2613000000 -4.9422000000 -3.2189000000
C   9.7254598878 -4.0062669563  10.9273243696
O   12.0564598878 -4.3582669563  11.4153243696
C   11.0834598878 -3.9362669563  10.5693243696
O   7.5024598878 -3.4902669563  10.4553243696
C   11.5414598878 -3.2642669563  9.3893243696
O   6.2544598878 -1.5342669563  6.2553243696
C   10.5624598878 -2.7852669563  8.5323243696
O   4.5514598878 -2.7702669563  4.6883243696
C   9.1754598878 -2.8952669563  8.7993243696
O   6.4654598878 -5.0502669563  0.8683243696
C   8.7794598878 -3.4732669563  10.0183243696
C   8.0032598878 -2.4894669563  8.0056243696
C   8.3424598878 -2.4552669563  6.6483243696
C   7.1174598878 -2.2702669563  5.8703243696
C   6.9514598878 -3.0512669563  4.5613243696
C   8.0754598878 -3.5802669563  3.8693243696
C   5.6434598878 -3.1942669563  3.9913243696
C   7.9014598878 -4.3402669563  2.7003243696
C   5.4794598878 -3.9512669563  2.7983243696
C   6.6394598878 -4.3782669563  2.1123243696
C   4.0834598878 -4.2802669563  2.3813243696
C   3.6984598878 -5.7262669563  2.0923243696
C   3.8764598878 -6.8252669563  2.8973243696
C   3.4084598878 -8.2022669563  2.4463243696
C   4.5814598878 -6.7322669563  4.2683243696
H   9.3604598878 -4.2662669563  11.9163243696
H   12.6144598878 -3.1262669563  9.2943243696
H   10.8724598878 -2.3402669563  7.5913243696
H   11.5934598878 -4.7962669563  12.1503243696
H   7.4484598878 -4.0762669563  11.2303243696
H   7.1114598878 -2.4402669563  8.3863243696
H   8.6084598878 -3.4912669563  6.4723243696
H   9.0604598878 -3.5372669563  4.3233243696
H   8.7274598878 -4.6592669563  2.0713243696
H   4.9544598878 -2.3632669563  5.4753243696
H   5.5244598878 -5.2302669563  0.7013243696
H   3.2184598878 -3.9042669563  2.9413243696
H   3.9644598878 -3.7922669563  1.4063243696
H   3.0654598878 -5.9062669563  1.2263243696
H   2.9064598878 -8.7532669563  3.2513243696
H   4.3394598878 -8.7232669563  2.1923243696
H   2.6264598878 -8.1642669563  1.6773243696
H   5.5624598878 -7.2042669563  4.4033243696
H   3.9344598878 -7.1992669563  5.0213243696
H   4.5824598878 -5.7122669563  4.6723243696
84
Scanning combination 121/256: [2.4000, 1.5000]  Energy = -385.6275967356
O   11.1233000000 -4.8002000000  5.0341000000
O   11.3873000000 -0.2652000000  3.3291000000
O   18.1143000000 -4.2382000000 -2.5629000000
O   15.0523000000 -3.1142000000  0.9841000000
C   13.0053000000 -3.3232000000  2.3291000000
C   12.6993000000 -1.9792000000  2.4491000000
C   12.3973000000 -4.3072000000  3.1831000000
C   11.6323000000 -1.5992000000  3.2951000000
C   11.4783000000 -3.8632000000  4.1231000000
C   11.0613000000 -2.4802000000  4.2331000000
C   10.1223000000 -1.9712000000  5.2561000000
C   10.5373000000 -1.3232000000  6.3251000000
C   9.8643000000 -1.0622000000  7.5921000000
C   8.6825000000 -1.0450000000  7.8959000000
C   10.8123000000 -0.2992000000  8.5731000000
C   14.6833000000 -4.8512000000 -0.4449000000
C   15.5183000000 -3.8012000000 -0.0889000000
C   16.6953000000 -3.5982000000 -0.8399000000
C   16.9703000000 -4.4882000000 -1.8899000000
C   16.1523000000 -5.5962000000 -2.2009000000
C   14.9513000000 -5.7522000000 -1.5279000000
C   13.6583000000 -4.8752000000  0.4711000000
C   13.8893000000 -3.7772000000  1.2511000000
H   13.1623000000 -1.2452000000  1.7971000000
H   12.5583000000 -5.3772000000  3.0881000000
H   11.7383000000 -5.5442000000  4.9131000000
H   11.8513000000  0.1658000000  2.5901000000
H   9.4643000000 -1.3292000000  4.6731000000
H   11.4933000000 -0.8182000000  6.2071000000
H   7.9073000000 -0.9712000000  7.1161000000
H   8.2313000000 -0.9072000000  8.8131000000
H   11.1183000000  0.6778000000  8.1811000000
H   11.7213000000 -0.7962000000  8.9311000000
H   10.3263000000 -0.0742000000  9.5301000000
H   17.3553000000 -2.7642000000 -0.6209000000
H   16.3753000000 -6.3042000000 -2.9929000000
H   14.4873000000 -6.7332000000 -1.5779000000
H   12.8783000000 -5.6272000000  0.4831000000
H   18.2613000000 -4.9422000000 -3.2189000000
C   9.7253686031 -3.8908506090  10.9660300421
O   12.0563686031 -4.2428506090  11.4540300421
C   11.0833686031 -3.8208506090  10.6080300421
O   7.5023686031 -3.3748506090  10.4940300421
C   11.5413686031 -3.1488506090  9.4280300421
O   6.2543686031 -1.4188506090  6.2940300421
C   10.5623686031 -2.6698506090  8.5710300421
O   4.5513686031 -2.6548506090  4.7270300421
C   9.1753686031 -2.7798506090  8.8380300421
O   6.4653686031 -4.9348506090  0.9070300421
C   8.7793686031 -3.3578506090  10.0570300421
C   8.0031686031 -2.3740506090  8.0443300421
C   8.3423686031 -2.3398506090  6.6870300421
C   7.1173686031 -2.1548506090  5.9090300421
C   6.9513686031 -2.9358506090  4.6000300421
C   8.0753686031 -3.4648506090  3.9080300421
C   5.6433686031 -3.0788506090  4.0300300421
C   7.9013686031 -4.2248506090  2.7390300421
C   5.4793686031 -3.8358506090  2.8370300421
C   6.6393686031 -4.2628506090  2.1510300421
C   4.0833686031 -4.1648506090  2.4200300421
C   3.6983686031 -5.6108506090  2.1310300421
C   3.8763686031 -6.7098506090  2.9360300421
C   3.4083686031 -8.0868506090  2.4850300421
C   4.5813686031 -6.6168506090  4.3070300421
H   9.3603686031 -4.1508506090  11.9550300421
H   12.6143686031 -3.0108506090  9.3330300421
H   10.8723686031 -2.2248506090  7.6300300421
H   11.5933686031 -4.6808506090  12.1890300421
H   7.4483686031 -3.9608506090  11.2690300421
H   7.1113686031 -2.3248506090  8.4250300421
H   8.6083686031 -3.3758506090  6.5110300421
H   9.0603686031 -3.4218506090  4.3620300421
H   8.7273686031 -4.5438506090  2.1100300421
H   4.9543686031 -2.2478506090  5.5140300421
H   5.5243686031 -5.1148506090  0.7400300421
H   3.2183686031 -3.7888506090  2.9800300421
H   3.9643686031 -3.6768506090  1.4450300421
H   3.0653686031 -5.7908506090  1.2650300421
H   2.9063686031 -8.6378506090  3.2900300421
H   4.3393686031 -8.6078506090  2.2310300421
H   2.6263686031 -8.0488506090  1.7160300421
H   5.5623686031 -7.0888506090  4.4420300421
H   3.9343686031 -7.0838506090  5.0600300421
H   4.5823686031 -5.5968506090  4.7110300421
84
Scanning combination 122/256: [2.3000, 2.9000]  Energy = -385.9630907770
O   11.1233000000 -4.8002000000  5.0341000000
O   11.3873000000 -0.2652000000  3.3291000000
O   18.1143000000 -4.2382000000 -2.5629000000
O   15.0523000000 -3.1142000000  0.9841000000
C   13.0053000000 -3.3232000000  2.3291000000
C   12.6993000000 -1.9792000000  2.4491000000
C   12.3973000000 -4.3072000000  3.1831000000
C   11.6323000000 -1.5992000000  3.2951000000
C   11.4783000000 -3.8632000000  4.1231000000
C   11.0613000000 -2.4802000000  4.2331000000
C   10.1223000000 -1.9712000000  5.2561000000
C   10.5373000000 -1.3232000000  6.3251000000
C   9.8643000000 -1.0622000000  7.5921000000
C   8.6825000000 -1.0450000000  7.8959000000
C   10.8123000000 -0.2992000000  8.5731000000
C   14.6833000000 -4.8512000000 -0.4449000000
C   15.5183000000 -3.8012000000 -0.0889000000
C   16.6953000000 -3.5982000000 -0.8399000000
C   16.9703000000 -4.4882000000 -1.8899000000
C   16.1523000000 -5.5962000000 -2.2009000000
C   14.9513000000 -5.7522000000 -1.5279000000
C   13.6583000000 -4.8752000000  0.4711000000
C   13.8893000000 -3.7772000000  1.2511000000
H   13.1623000000 -1.2452000000  1.7971000000
H   12.5583000000 -5.3772000000  3.0881000000
H   11.7383000000 -5.5442000000  4.9131000000
H   11.8513000000  0.1658000000  2.5901000000
H   9.4643000000 -1.3292000000  4.6731000000
H   11.4933000000 -0.8182000000  6.2071000000
H   7.9073000000 -0.9712000000  7.1161000000
H   8.2313000000 -0.9072000000  8.8131000000
H   11.1183000000  0.6778000000  8.1811000000
H   11.7213000000 -0.7962000000  8.9311000000
H   10.3263000000 -0.0742000000  9.5301000000
H   17.3553000000 -2.7642000000 -0.6209000000
H   16.3753000000 -6.3042000000 -2.9929000000
H   14.4873000000 -6.7332000000 -1.5779000000
H   12.8783000000 -5.6272000000  0.4831000000
H   18.2613000000 -4.9422000000 -3.2189000000
C   10.2143820598 -5.3518633623  10.0500528702
O   12.5453820598 -5.7038633623  10.5380528702
C   11.5723820598 -5.2818633623  9.6920528702
O   7.9913820598 -4.8358633623  9.5780528702
C   12.0303820598 -4.6098633623  8.5120528702
O   6.7433820598 -2.8798633623  5.3780528702
C   11.0513820598 -4.1308633623  7.6550528702
O   5.0403820598 -4.1158633623  3.8110528702
C   9.6643820598 -4.2408633623  7.9220528702
O   6.9543820598 -6.3958633623 -0.0089471298
C   9.2683820598 -4.8188633623  9.1410528702
C   8.4921820598 -3.8350633623  7.1283528702
C   8.8313820598 -3.8008633623  5.7710528702
C   7.6063820598 -3.6158633623  4.9930528702
C   7.4403820598 -4.3968633623  3.6840528702
C   8.5643820598 -4.9258633623  2.9920528702
C   6.1323820598 -4.5398633623  3.1140528702
C   8.3903820598 -5.6858633623  1.8230528702
C   5.9683820598 -5.2968633623  1.9210528702
C   7.1283820598 -5.7238633623  1.2350528702
C   4.5723820598 -5.6258633623  1.5040528702
C   4.1873820598 -7.0718633623  1.2150528702
C   4.3653820598 -8.1708633623  2.0200528702
C   3.8973820598 -9.5478633623  1.5690528702
C   5.0703820598 -8.0778633623  3.3910528702
H   9.8493820598 -5.6118633623  11.0390528702
H   13.1033820598 -4.4718633623  8.4170528702
H   11.3613820598 -3.6858633623  6.7140528702
H   12.0823820598 -6.1418633623  11.2730528702
H   7.9373820598 -5.4218633623  10.3530528702
H   7.6003820598 -3.7858633623  7.5090528702
H   9.0973820598 -4.8368633623  5.5950528702
H   9.5493820598 -4.8828633623  3.4460528702
H   9.2163820598 -6.0048633623  1.1940528702
H   5.4433820598 -3.7088633623  4.5980528702
H   6.0133820598 -6.5758633623 -0.1759471298
H   3.7073820598 -5.2498633623  2.0640528702
H   4.4533820598 -5.1378633623  0.5290528702
H   3.5543820598 -7.2518633623  0.3490528702
H   3.3953820598 -10.0988633623  2.3740528702
H   4.8283820598 -10.0688633623  1.3150528702
H   3.1153820598 -9.5098633623  0.8000528702
H   6.0513820598 -8.5498633623  3.5260528702
H   4.4233820598 -8.5448633623  4.1440528702
H   5.0713820598 -7.0578633623  3.7950528702
84
Scanning combination 123/256: [2.3000, 2.8000]  Energy = -385.9639900919
O   11.1233000000 -4.8002000000  5.0341000000
O   11.3873000000 -0.2652000000  3.3291000000
O   18.1143000000 -4.2382000000 -2.5629000000
O   15.0523000000 -3.1142000000  0.9841000000
C   13.0053000000 -3.3232000000  2.3291000000
C   12.6993000000 -1.9792000000  2.4491000000
C   12.3973000000 -4.3072000000  3.1831000000
C   11.6323000000 -1.5992000000  3.2951000000
C   11.4783000000 -3.8632000000  4.1231000000
C   11.0613000000 -2.4802000000  4.2331000000
C   10.1223000000 -1.9712000000  5.2561000000
C   10.5373000000 -1.3232000000  6.3251000000
C   9.8643000000 -1.0622000000  7.5921000000
C   8.6825000000 -1.0450000000  7.8959000000
C   10.8123000000 -0.2992000000  8.5731000000
C   14.6833000000 -4.8512000000 -0.4449000000
C   15.5183000000 -3.8012000000 -0.0889000000
C   16.6953000000 -3.5982000000 -0.8399000000
C   16.9703000000 -4.4882000000 -1.8899000000
C   16.1523000000 -5.5962000000 -2.2009000000
C   14.9513000000 -5.7522000000 -1.5279000000
C   13.6583000000 -4.8752000000  0.4711000000
C   13.8893000000 -3.7772000000  1.2511000000
H   13.1623000000 -1.2452000000  1.7971000000
H   12.5583000000 -5.3772000000  3.0881000000
H   11.7383000000 -5.5442000000  4.9131000000
H   11.8513000000  0.1658000000  2.5901000000
H   9.4643000000 -1.3292000000  4.6731000000
H   11.4933000000 -0.8182000000  6.2071000000
H   7.9073000000 -0.9712000000  7.1161000000
H   8.2313000000 -0.9072000000  8.8131000000
H   11.1183000000  0.6778000000  8.1811000000
H   11.7213000000 -0.7962000000  8.9311000000
H   10.3263000000 -0.0742000000  9.5301000000
H   17.3553000000 -2.7642000000 -0.6209000000
H   16.3753000000 -6.3042000000 -2.9929000000
H   14.4873000000 -6.7332000000 -1.5779000000
H   12.8783000000 -5.6272000000  0.4831000000
H   18.2613000000 -4.9422000000 -3.2189000000
C   10.2197733952 -5.2558372744  10.0774816408
O   12.5507733952 -5.6078372744  10.5654816408
C   11.5777733952 -5.1858372744  9.7194816408
O   7.9967733952 -4.7398372744  9.6054816408
C   12.0357733952 -4.5138372744  8.5394816408
O   6.7487733952 -2.7838372744  5.4054816408
C   11.0567733952 -4.0348372744  7.6824816408
O   5.0457733952 -4.0198372744  3.8384816408
C   9.6697733952 -4.1448372744  7.9494816408
O   6.9597733952 -6.2998372744  0.0184816408
C   9.2737733952 -4.7228372744  9.1684816408
C   8.4975733952 -3.7390372744  7.1557816408
C   8.8367733952 -3.7048372744  5.7984816408
C   7.6117733952 -3.5198372744  5.0204816408
C   7.4457733952 -4.3008372744  3.7114816408
C   8.5697733952 -4.8298372744  3.0194816408
C   6.1377733952 -4.4438372744  3.1414816408
C   8.3957733952 -5.5898372744  1.8504816408
C   5.9737733952 -5.2008372744  1.9484816408
C   7.1337733952 -5.6278372744  1.2624816408
C   4.5777733952 -5.5298372744  1.5314816408
C   4.1927733952 -6.9758372744  1.2424816408
C   4.3707733952 -8.0748372744  2.0474816408
C   3.9027733952 -9.4518372744  1.5964816408
C   5.0757733952 -7.9818372744  3.4184816408
H   9.8547733952 -5.5158372744  11.0664816408
H   13.1087733952 -4.3758372744  8.4444816408
H   11.3667733952 -3.5898372744  6.7414816408
H   12.0877733952 -6.0458372744  11.3004816408
H   7.9427733952 -5.3258372744  10.3804816408
H   7.6057733952 -3.6898372744  7.5364816408
H   9.1027733952 -4.7408372744  5.6224816408
H   9.5547733952 -4.7868372744  3.4734816408
H   9.2217733952 -5.9088372744  1.2214816408
H   5.4487733952 -3.6128372744  4.6254816408
H   6.0187733952 -6.4798372744 -0.1485183592
H   3.7127733952 -5.1538372744  2.0914816408
H   4.4587733952 -5.0418372744  0.5564816408
H   3.5597733952 -7.1558372744  0.3764816408
H   3.4007733952 -10.0028372744  2.4014816408
H   4.8337733952 -9.9728372744  1.3424816408
H   3.1207733952 -9.4138372744  0.8274816408
H   6.0567733952 -8.4538372744  3.5534816408
H   4.4287733952 -8.4488372744  4.1714816408
H   5.0767733952 -6.9618372744  3.8224816408
84
Scanning combination 124/256: [2.3000, 2.7000]  Energy = -385.9642339941
O   11.1233000000 -4.8002000000  5.0341000000
O   11.3873000000 -0.2652000000  3.3291000000
O   18.1143000000 -4.2382000000 -2.5629000000
O   15.0523000000 -3.1142000000  0.9841000000
C   13.0053000000 -3.3232000000  2.3291000000
C   12.6993000000 -1.9792000000  2.4491000000
C   12.3973000000 -4.3072000000  3.1831000000
C   11.6323000000 -1.5992000000  3.2951000000
C   11.4783000000 -3.8632000000  4.1231000000
C   11.0613000000 -2.4802000000  4.2331000000
C   10.1223000000 -1.9712000000  5.2561000000
C   10.5373000000 -1.3232000000  6.3251000000
C   9.8643000000 -1.0622000000  7.5921000000
C   8.6825000000 -1.0450000000  7.8959000000
C   10.8123000000 -0.2992000000  8.5731000000
C   14.6833000000 -4.8512000000 -0.4449000000
C   15.5183000000 -3.8012000000 -0.0889000000
C   16.6953000000 -3.5982000000 -0.8399000000
C   16.9703000000 -4.4882000000 -1.8899000000
C   16.1523000000 -5.5962000000 -2.2009000000
C   14.9513000000 -5.7522000000 -1.5279000000
C   13.6583000000 -4.8752000000  0.4711000000
C   13.8893000000 -3.7772000000  1.2511000000
H   13.1623000000 -1.2452000000  1.7971000000
H   12.5583000000 -5.3772000000  3.0881000000
H   11.7383000000 -5.5442000000  4.9131000000
H   11.8513000000  0.1658000000  2.5901000000
H   9.4643000000 -1.3292000000  4.6731000000
H   11.4933000000 -0.8182000000  6.2071000000
H   7.9073000000 -0.9712000000  7.1161000000
H   8.2313000000 -0.9072000000  8.8131000000
H   11.1183000000  0.6778000000  8.1811000000
H   11.7213000000 -0.7962000000  8.9311000000
H   10.3263000000 -0.0742000000  9.5301000000
H   17.3553000000 -2.7642000000 -0.6209000000
H   16.3753000000 -6.3042000000 -2.9929000000
H   14.4873000000 -6.7332000000 -1.5779000000
H   12.8783000000 -5.6272000000  0.4831000000
H   18.2613000000 -4.9422000000 -3.2189000000
C   10.1889779024 -5.1650668393  10.1347512604
O   12.5199779024 -5.5170668393  10.6227512604
C   11.5469779024 -5.0950668393  9.7767512604
O   7.9659779024 -4.6490668393  9.6627512604
C   12.0049779024 -4.4230668393  8.5967512604
O   6.7179779024 -2.6930668393  5.4627512604
C   11.0259779024 -3.9440668393  7.7397512604
O   5.0149779024 -3.9290668393  3.8957512604
C   9.6389779024 -4.0540668393  8.0067512604
O   6.9289779024 -6.2090668393  0.0757512604
C   9.2429779024 -4.6320668393  9.2257512604
C   8.4667779024 -3.6482668393  7.2130512604
C   8.8059779024 -3.6140668393  5.8557512604
C   7.5809779024 -3.4290668393  5.0777512604
C   7.4149779024 -4.2100668393  3.7687512604
C   8.5389779024 -4.7390668393  3.0767512604
C   6.1069779024 -4.3530668393  3.1987512604
C   8.3649779024 -5.4990668393  1.9077512604
C   5.9429779024 -5.1100668393  2.0057512604
C   7.1029779024 -5.5370668393  1.3197512604
C   4.5469779024 -5.4390668393  1.5887512604
C   4.1619779024 -6.8850668393  1.2997512604
C   4.3399779024 -7.9840668393  2.1047512604
C   3.8719779024 -9.3610668393  1.6537512604
C   5.0449779024 -7.8910668393  3.4757512604
H   9.8239779024 -5.4250668393  11.1237512604
H   13.0779779024 -4.2850668393  8.5017512604
H   11.3359779024 -3.4990668393  6.7987512604
H   12.0569779024 -5.9550668393  11.3577512604
H   7.9119779024 -5.2350668393  10.4377512604
H   7.5749779024 -3.5990668393  7.5937512604
H   9.0719779024 -4.6500668393  5.6797512604
H   9.5239779024 -4.6960668393  3.5307512604
H   9.1909779024 -5.8180668393  1.2787512604
H   5.4179779024 -3.5220668393  4.6827512604
H   5.9879779024 -6.3890668393 -0.0912487396
H   3.6819779024 -5.0630668393  2.1487512604
H   4.4279779024 -4.9510668393  0.6137512604
H   3.5289779024 -7.0650668393  0.4337512604
H   3.3699779024 -9.9120668393  2.4587512604
H   4.8029779024 -9.8820668393  1.3997512604
H   3.0899779024 -9.3230668393  0.8847512604
H   6.0259779024 -8.3630668393  3.6107512604
H   4.3979779024 -8.3580668393  4.2287512604
H   5.0459779024 -6.8710668393  3.8797512604
84
Scanning combination 125/256: [2.3000, 2.6000]  Energy = -385.9618059393
O   11.1233000000 -4.8002000000  5.0341000000
O   11.3873000000 -0.2652000000  3.3291000000
O   18.1143000000 -4.2382000000 -2.5629000000
O   15.0523000000 -3.1142000000  0.9841000000
C   13.0053000000 -3.3232000000  2.3291000000
C   12.6993000000 -1.9792000000  2.4491000000
C   12.3973000000 -4.3072000000  3.1831000000
C   11.6323000000 -1.5992000000  3.2951000000
C   11.4783000000 -3.8632000000  4.1231000000
C   11.0613000000 -2.4802000000  4.2331000000
C   10.1223000000 -1.9712000000  5.2561000000
C   10.5373000000 -1.3232000000  6.3251000000
C   9.8643000000 -1.0622000000  7.5921000000
C   8.6825000000 -1.0450000000  7.8959000000
C   10.8123000000 -0.2992000000  8.5731000000
C   14.6833000000 -4.8512000000 -0.4449000000
C   15.5183000000 -3.8012000000 -0.0889000000
C   16.6953000000 -3.5982000000 -0.8399000000
C   16.9703000000 -4.4882000000 -1.8899000000
C   16.1523000000 -5.5962000000 -2.2009000000
C   14.9513000000 -5.7522000000 -1.5279000000
C   13.6583000000 -4.8752000000  0.4711000000
C   13.8893000000 -3.7772000000  1.2511000000
H   13.1623000000 -1.2452000000  1.7971000000
H   12.5583000000 -5.3772000000  3.0881000000
H   11.7383000000 -5.5442000000  4.9131000000
H   11.8513000000  0.1658000000  2.5901000000
H   9.4643000000 -1.3292000000  4.6731000000
H   11.4933000000 -0.8182000000  6.2071000000
H   7.9073000000 -0.9712000000  7.1161000000
H   8.2313000000 -0.9072000000  8.8131000000
H   11.1183000000  0.6778000000  8.1811000000
H   11.7213000000 -0.7962000000  8.9311000000
H   10.3263000000 -0.0742000000  9.5301000000
H   17.3553000000 -2.7642000000 -0.6209000000
H   16.3753000000 -6.3042000000 -2.9929000000
H   14.4873000000 -6.7332000000 -1.5779000000
H   12.8783000000 -5.6272000000  0.4831000000
H   18.2613000000 -4.9422000000 -3.2189000000
C   10.1403617315 -5.0752513106  10.2072630107
O   12.4713617315 -5.4272513106  10.6952630107
C   11.4983617315 -5.0052513106  9.8492630107
O   7.9173617315 -4.5592513106  9.7352630107
C   11.9563617315 -4.3332513106  8.6692630107
O   6.6693617315 -2.6032513106  5.5352630107
C   10.9773617315 -3.8542513106  7.8122630107
O   4.9663617315 -3.8392513106  3.9682630107
C   9.5903617315 -3.9642513106  8.0792630107
O   6.8803617315 -6.1192513106  0.1482630107
C   9.1943617315 -4.5422513106  9.2982630107
C   8.4181617315 -3.5584513106  7.2855630107
C   8.7573617315 -3.5242513106  5.9282630107
C   7.5323617315 -3.3392513106  5.1502630107
C   7.3663617315 -4.1202513106  3.8412630107
C   8.4903617315 -4.6492513106  3.1492630107
C   6.0583617315 -4.2632513106  3.2712630107
C   8.3163617315 -5.4092513106  1.9802630107
C   5.8943617315 -5.0202513106  2.0782630107
C   7.0543617315 -5.4472513106  1.3922630107
C   4.4983617315 -5.3492513106  1.6612630107
C   4.1133617315 -6.7952513106  1.3722630107
C   4.2913617315 -7.8942513106  2.1772630107
C   3.8233617315 -9.2712513106  1.7262630107
C   4.9963617315 -7.8012513106  3.5482630107
H   9.7753617315 -5.3352513106  11.1962630107
H   13.0293617315 -4.1952513106  8.5742630107
H   11.2873617315 -3.4092513106  6.8712630107
H   12.0083617315 -5.8652513106  11.4302630107
H   7.8633617315 -5.1452513106  10.5102630107
H   7.5263617315 -3.5092513106  7.6662630107
H   9.0233617315 -4.5602513106  5.7522630107
H   9.4753617315 -4.6062513106  3.6032630107
H   9.1423617315 -5.7282513106  1.3512630107
H   5.3693617315 -3.4322513106  4.7552630107
H   5.9393617315 -6.2992513106 -0.0187369893
H   3.6333617315 -4.9732513106  2.2212630107
H   4.3793617315 -4.8612513106  0.6862630107
H   3.4803617315 -6.9752513106  0.5062630107
H   3.3213617315 -9.8222513106  2.5312630107
H   4.7543617315 -9.7922513106  1.4722630107
H   3.0413617315 -9.2332513106  0.9572630107
H   5.9773617315 -8.2732513106  3.6832630107
H   4.3493617315 -8.2682513106  4.3012630107
H   4.9973617315 -6.7812513106  3.9522630107
84
Scanning combination 126/256: [2.3000, 2.5000]  Energy = -385.9564818140
O   11.1233000000 -4.8002000000  5.0341000000
O   11.3873000000 -0.2652000000  3.3291000000
O   18.1143000000 -4.2382000000 -2.5629000000
O   15.0523000000 -3.1142000000  0.9841000000
C   13.0053000000 -3.3232000000  2.3291000000
C   12.6993000000 -1.9792000000  2.4491000000
C   12.3973000000 -4.3072000000  3.1831000000
C   11.6323000000 -1.5992000000  3.2951000000
C   11.4783000000 -3.8632000000  4.1231000000
C   11.0613000000 -2.4802000000  4.2331000000
C   10.1223000000 -1.9712000000  5.2561000000
C   10.5373000000 -1.3232000000  6.3251000000
C   9.8643000000 -1.0622000000  7.5921000000
C   8.6825000000 -1.0450000000  7.8959000000
C   10.8123000000 -0.2992000000  8.5731000000
C   14.6833000000 -4.8512000000 -0.4449000000
C   15.5183000000 -3.8012000000 -0.0889000000
C   16.6953000000 -3.5982000000 -0.8399000000
C   16.9703000000 -4.4882000000 -1.8899000000
C   16.1523000000 -5.5962000000 -2.2009000000
C   14.9513000000 -5.7522000000 -1.5279000000
C   13.6583000000 -4.8752000000  0.4711000000
C   13.8893000000 -3.7772000000  1.2511000000
H   13.1623000000 -1.2452000000  1.7971000000
H   12.5583000000 -5.3772000000  3.0881000000
H   11.7383000000 -5.5442000000  4.9131000000
H   11.8513000000  0.1658000000  2.5901000000
H   9.4643000000 -1.3292000000  4.6731000000
H   11.4933000000 -0.8182000000  6.2071000000
H   7.9073000000 -0.9712000000  7.1161000000
H   8.2313000000 -0.9072000000  8.8131000000
H   11.1183000000  0.6778000000  8.1811000000
H   11.7213000000 -0.7962000000  8.9311000000
H   10.3263000000 -0.0742000000  9.5301000000
H   17.3553000000 -2.7642000000 -0.6209000000
H   16.3753000000 -6.3042000000 -2.9929000000
H   14.4873000000 -6.7332000000 -1.5779000000
H   12.8783000000 -5.6272000000  0.4831000000
H   18.2613000000 -4.9422000000 -3.2189000000
C   10.0852603328 -4.9836250663  10.2860438983
O   12.4162603328 -5.3356250663  10.7740438983
C   11.4432603328 -4.9136250663  9.9280438983
O   7.8622603328 -4.4676250663  9.8140438983
C   11.9012603328 -4.2416250663  8.7480438983
O   6.6142603328 -2.5116250663  5.6140438983
C   10.9222603328 -3.7626250663  7.8910438983
O   4.9112603328 -3.7476250663  4.0470438983
C   9.5352603328 -3.8726250663  8.1580438983
O   6.8252603328 -6.0276250663  0.2270438983
C   9.1392603328 -4.4506250663  9.3770438983
C   8.3630603328 -3.4668250663  7.3643438983
C   8.7022603328 -3.4326250663  6.0070438983
C   7.4772603328 -3.2476250663  5.2290438983
C   7.3112603328 -4.0286250663  3.9200438983
C   8.4352603328 -4.5576250663  3.2280438983
C   6.0032603328 -4.1716250663  3.3500438983
C   8.2612603328 -5.3176250663  2.0590438983
C   5.8392603328 -4.9286250663  2.1570438983
C   6.9992603328 -5.3556250663  1.4710438983
C   4.4432603328 -5.2576250663  1.7400438983
C   4.0582603328 -6.7036250663  1.4510438983
C   4.2362603328 -7.8026250663  2.2560438983
C   3.7682603328 -9.1796250663  1.8050438983
C   4.9412603328 -7.7096250663  3.6270438983
H   9.7202603328 -5.2436250663  11.2750438983
H   12.9742603328 -4.1036250663  8.6530438983
H   11.2322603328 -3.3176250663  6.9500438983
H   11.9532603328 -5.7736250663  11.5090438983
H   7.8082603328 -5.0536250663  10.5890438983
H   7.4712603328 -3.4176250663  7.7450438983
H   8.9682603328 -4.4686250663  5.8310438983
H   9.4202603328 -4.5146250663  3.6820438983
H   9.0872603328 -5.6366250663  1.4300438983
H   5.3142603328 -3.3406250663  4.8340438983
H   5.8842603328 -6.2076250663  0.0600438983
H   3.5782603328 -4.8816250663  2.3000438983
H   4.3242603328 -4.7696250663  0.7650438983
H   3.4252603328 -6.8836250663  0.5850438983
H   3.2662603328 -9.7306250663  2.6100438983
H   4.6992603328 -9.7006250663  1.5510438983
H   2.9862603328 -9.1416250663  1.0360438983
H   5.9222603328 -8.1816250663  3.7620438983
H   4.2942603328 -8.1766250663  4.3800438983
H   4.9422603328 -6.6896250663  4.0310438983
84
Scanning combination 127/256: [2.3000, 2.4000]  Energy = -385.9482394453
O   11.1233000000 -4.8002000000  5.0341000000
O   11.3873000000 -0.2652000000  3.3291000000
O   18.1143000000 -4.2382000000 -2.5629000000
O   15.0523000000 -3.1142000000  0.9841000000
C   13.0053000000 -3.3232000000  2.3291000000
C   12.6993000000 -1.9792000000  2.4491000000
C   12.3973000000 -4.3072000000  3.1831000000
C   11.6323000000 -1.5992000000  3.2951000000
C   11.4783000000 -3.8632000000  4.1231000000
C   11.0613000000 -2.4802000000  4.2331000000
C   10.1223000000 -1.9712000000  5.2561000000
C   10.5373000000 -1.3232000000  6.3251000000
C   9.8643000000 -1.0622000000  7.5921000000
C   8.6825000000 -1.0450000000  7.8959000000
C   10.8123000000 -0.2992000000  8.5731000000
C   14.6833000000 -4.8512000000 -0.4449000000
C   15.5183000000 -3.8012000000 -0.0889000000
C   16.6953000000 -3.5982000000 -0.8399000000
C   16.9703000000 -4.4882000000 -1.8899000000
C   16.1523000000 -5.5962000000 -2.2009000000
C   14.9513000000 -5.7522000000 -1.5279000000
C   13.6583000000 -4.8752000000  0.4711000000
C   13.8893000000 -3.7772000000  1.2511000000
H   13.1623000000 -1.2452000000  1.7971000000
H   12.5583000000 -5.3772000000  3.0881000000
H   11.7383000000 -5.5442000000  4.9131000000
H   11.8513000000  0.1658000000  2.5901000000
H   9.4643000000 -1.3292000000  4.6731000000
H   11.4933000000 -0.8182000000  6.2071000000
H   7.9073000000 -0.9712000000  7.1161000000
H   8.2313000000 -0.9072000000  8.8131000000
H   11.1183000000  0.6778000000  8.1811000000
H   11.7213000000 -0.7962000000  8.9311000000
H   10.3263000000 -0.0742000000  9.5301000000
H   17.3553000000 -2.7642000000 -0.6209000000
H   16.3753000000 -6.3042000000 -2.9929000000
H   14.4873000000 -6.7332000000 -1.5779000000
H   12.8783000000 -5.6272000000  0.4831000000
H   18.2613000000 -4.9422000000 -3.2189000000
C   10.0304485951 -4.8889166573  10.3656033392
O   12.3614485951 -5.2409166573  10.8536033392
C   11.3884485951 -4.8189166573  10.0076033392
O   7.8074485951 -4.3729166573  9.8936033392
C   11.8464485951 -4.1469166573  8.8276033392
O   6.5594485951 -2.4169166573  5.6936033392
C   10.8674485951 -3.6679166573  7.9706033392
O   4.8564485951 -3.6529166573  4.1266033392
C   9.4804485951 -3.7779166573  8.2376033392
O   6.7704485951 -5.9329166573  0.3066033392
C   9.0844485951 -4.3559166573  9.4566033392
C   8.3082485951 -3.3721166573  7.4439033392
C   8.6474485951 -3.3379166573  6.0866033392
C   7.4224485951 -3.1529166573  5.3086033392
C   7.2564485951 -3.9339166573  3.9996033392
C   8.3804485951 -4.4629166573  3.3076033392
C   5.9484485951 -4.0769166573  3.4296033392
C   8.2064485951 -5.2229166573  2.1386033392
C   5.7844485951 -4.8339166573  2.2366033392
C   6.9444485951 -5.2609166573  1.5506033392
C   4.3884485951 -5.1629166573  1.8196033392
C   4.0034485951 -6.6089166573  1.5306033392
C   4.1814485951 -7.7079166573  2.3356033392
C   3.7134485951 -9.0849166573  1.8846033392
C   4.8864485951 -7.6149166573  3.7066033392
H   9.6654485951 -5.1489166573  11.3546033392
H   12.9194485951 -4.0089166573  8.7326033392
H   11.1774485951 -3.2229166573  7.0296033392
H   11.8984485951 -5.6789166573  11.5886033392
H   7.7534485951 -4.9589166573  10.6686033392
H   7.4164485951 -3.3229166573  7.8246033392
H   8.9134485951 -4.3739166573  5.9106033392
H   9.3654485951 -4.4199166573  3.7616033392
H   9.0324485951 -5.5419166573  1.5096033392
H   5.2594485951 -3.2459166573  4.9136033392
H   5.8294485951 -6.1129166573  0.1396033392
H   3.5234485951 -4.7869166573  2.3796033392
H   4.2694485951 -4.6749166573  0.8446033392
H   3.3704485951 -6.7889166573  0.6646033392
H   3.2114485951 -9.6359166573  2.6896033392
H   4.6444485951 -9.6059166573  1.6306033392
H   2.9314485951 -9.0469166573  1.1156033392
H   5.8674485951 -8.0869166573  3.8416033392
H   4.2394485951 -8.0819166573  4.4596033392
H   4.8874485951 -6.5949166573  4.1106033392
84
Scanning combination 128/256: [2.3000, 2.3000]  Energy = -385.9375408884
O   11.1233000000 -4.8002000000  5.0341000000
O   11.3873000000 -0.2652000000  3.3291000000
O   18.1143000000 -4.2382000000 -2.5629000000
O   15.0523000000 -3.1142000000  0.9841000000
C   13.0053000000 -3.3232000000  2.3291000000
C   12.6993000000 -1.9792000000  2.4491000000
C   12.3973000000 -4.3072000000  3.1831000000
C   11.6323000000 -1.5992000000  3.2951000000
C   11.4783000000 -3.8632000000  4.1231000000
C   11.0613000000 -2.4802000000  4.2331000000
C   10.1223000000 -1.9712000000  5.2561000000
C   10.5373000000 -1.3232000000  6.3251000000
C   9.8643000000 -1.0622000000  7.5921000000
C   8.6825000000 -1.0450000000  7.8959000000
C   10.8123000000 -0.2992000000  8.5731000000
C   14.6833000000 -4.8512000000 -0.4449000000
C   15.5183000000 -3.8012000000 -0.0889000000
C   16.6953000000 -3.5982000000 -0.8399000000
C   16.9703000000 -4.4882000000 -1.8899000000
C   16.1523000000 -5.5962000000 -2.2009000000
C   14.9513000000 -5.7522000000 -1.5279000000
C   13.6583000000 -4.8752000000  0.4711000000
C   13.8893000000 -3.7772000000  1.2511000000
H   13.1623000000 -1.2452000000  1.7971000000
H   12.5583000000 -5.3772000000  3.0881000000
H   11.7383000000 -5.5442000000  4.9131000000
H   11.8513000000  0.1658000000  2.5901000000
H   9.4643000000 -1.3292000000  4.6731000000
H   11.4933000000 -0.8182000000  6.2071000000
H   7.9073000000 -0.9712000000  7.1161000000
H   8.2313000000 -0.9072000000  8.8131000000
H   11.1183000000  0.6778000000  8.1811000000
H   11.7213000000 -0.7962000000  8.9311000000
H   10.3263000000 -0.0742000000  9.5301000000
H   17.3553000000 -2.7642000000 -0.6209000000
H   16.3753000000 -6.3042000000 -2.9929000000
H   14.4873000000 -6.7332000000 -1.5779000000
H   12.8783000000 -5.6272000000  0.4831000000
H   18.2613000000 -4.9422000000 -3.2189000000
C   9.9796411756 -4.7908547441  10.4427883593
O   12.3106411756 -5.1428547441  10.9307883593
C   11.3376411756 -4.7208547441  10.0847883593
O   7.7566411756 -4.2748547441  9.9707883593
C   11.7956411756 -4.0488547441  8.9047883593
O   6.5086411756 -2.3188547441  5.7707883593
C   10.8166411756 -3.5698547441  8.0477883593
O   4.8056411756 -3.5548547441  4.2037883593
C   9.4296411756 -3.6798547441  8.3147883593
O   6.7196411756 -5.8348547441  0.3837883593
C   9.0336411756 -4.2578547441  9.5337883593
C   8.2574411756 -3.2740547441  7.5210883593
C   8.5966411756 -3.2398547441  6.1637883593
C   7.3716411756 -3.0548547441  5.3857883593
C   7.2056411756 -3.8358547441  4.0767883593
C   8.3296411756 -4.3648547441  3.3847883593
C   5.8976411756 -3.9788547441  3.5067883593
C   8.1556411756 -5.1248547441  2.2157883593
C   5.7336411756 -4.7358547441  2.3137883593
C   6.8936411756 -5.1628547441  1.6277883593
C   4.3376411756 -5.0648547441  1.8967883593
C   3.9526411756 -6.5108547441  1.6077883593
C   4.1306411756 -7.6098547441  2.4127883593
C   3.6626411756 -8.9868547441  1.9617883593
C   4.8356411756 -7.5168547441  3.7837883593
H   9.6146411756 -5.0508547441  11.4317883593
H   12.8686411756 -3.9108547441  8.8097883593
H   11.1266411756 -3.1248547441  7.1067883593
H   11.8476411756 -5.5808547441  11.6657883593
H   7.7026411756 -4.8608547441  10.7457883593
H   7.3656411756 -3.2248547441  7.9017883593
H   8.8626411756 -4.2758547441  5.9877883593
H   9.3146411756 -4.3218547441  3.8387883593
H   8.9816411756 -5.4438547441  1.5867883593
H   5.2086411756 -3.1478547441  4.9907883593
H   5.7786411756 -6.0148547441  0.2167883593
H   3.4726411756 -4.6888547441  2.4567883593
H   4.2186411756 -4.5768547441  0.9217883593
H   3.3196411756 -6.6908547441  0.7417883593
H   3.1606411756 -9.5378547441  2.7667883593
H   4.5936411756 -9.5078547441  1.7077883593
H   2.8806411756 -8.9488547441  1.1927883593
H   5.8166411756 -7.9888547441  3.9187883593
H   4.1886411756 -7.9838547441  4.5367883593
H   4.8366411756 -6.4968547441  4.1877883593
84
Scanning combination 129/256: [2.3000, 2.2000]  Energy = -385.9237672087
O   11.1233000000 -4.8002000000  5.0341000000
O   11.3873000000 -0.2652000000  3.3291000000
O   18.1143000000 -4.2382000000 -2.5629000000
O   15.0523000000 -3.1142000000  0.9841000000
C   13.0053000000 -3.3232000000  2.3291000000
C   12.6993000000 -1.9792000000  2.4491000000
C   12.3973000000 -4.3072000000  3.1831000000
C   11.6323000000 -1.5992000000  3.2951000000
C   11.4783000000 -3.8632000000  4.1231000000
C   11.0613000000 -2.4802000000  4.2331000000
C   10.1223000000 -1.9712000000  5.2561000000
C   10.5373000000 -1.3232000000  6.3251000000
C   9.8643000000 -1.0622000000  7.5921000000
C   8.6825000000 -1.0450000000  7.8959000000
C   10.8123000000 -0.2992000000  8.5731000000
C   14.6833000000 -4.8512000000 -0.4449000000
C   15.5183000000 -3.8012000000 -0.0889000000
C   16.6953000000 -3.5982000000 -0.8399000000
C   16.9703000000 -4.4882000000 -1.8899000000
C   16.1523000000 -5.5962000000 -2.2009000000
C   14.9513000000 -5.7522000000 -1.5279000000
C   13.6583000000 -4.8752000000  0.4711000000
C   13.8893000000 -3.7772000000  1.2511000000
H   13.1623000000 -1.2452000000  1.7971000000
H   12.5583000000 -5.3772000000  3.0881000000
H   11.7383000000 -5.5442000000  4.9131000000
H   11.8513000000  0.1658000000  2.5901000000
H   9.4643000000 -1.3292000000  4.6731000000
H   11.4933000000 -0.8182000000  6.2071000000
H   7.9073000000 -0.9712000000  7.1161000000
H   8.2313000000 -0.9072000000  8.8131000000
H   11.1183000000  0.6778000000  8.1811000000
H   11.7213000000 -0.7962000000  8.9311000000
H   10.3263000000 -0.0742000000  9.5301000000
H   17.3553000000 -2.7642000000 -0.6209000000
H   16.3753000000 -6.3042000000 -2.9929000000
H   14.4873000000 -6.7332000000 -1.5779000000
H   12.8783000000 -5.6272000000  0.4831000000
H   18.2613000000 -4.9422000000 -3.2189000000
C   9.9346047033 -4.6896823616  10.5159749342
O   12.2656047033 -5.0416823616  11.0039749342
C   11.2926047033 -4.6196823616  10.1579749342
O   7.7116047033 -4.1736823616  10.0439749342
C   11.7506047033 -3.9476823616  8.9779749342
O   6.4636047033 -2.2176823616  5.8439749342
C   10.7716047033 -3.4686823616  8.1209749342
O   4.7606047033 -3.4536823616  4.2769749342
C   9.3846047033 -3.5786823616  8.3879749342
O   6.6746047033 -5.7336823616  0.4569749342
C   8.9886047033 -4.1566823616  9.6069749342
C   8.2124047033 -3.1728823616  7.5942749342
C   8.5516047033 -3.1386823616  6.2369749342
C   7.3266047033 -2.9536823616  5.4589749342
C   7.1606047033 -3.7346823616  4.1499749342
C   8.2846047033 -4.2636823616  3.4579749342
C   5.8526047033 -3.8776823616  3.5799749342
C   8.1106047033 -5.0236823616  2.2889749342
C   5.6886047033 -4.6346823616  2.3869749342
C   6.8486047033 -5.0616823616  1.7009749342
C   4.2926047033 -4.9636823616  1.9699749342
C   3.9076047033 -6.4096823616  1.6809749342
C   4.0856047033 -7.5086823616  2.4859749342
C   3.6176047033 -8.8856823616  2.0349749342
C   4.7906047033 -7.4156823616  3.8569749342
H   9.5696047033 -4.9496823616  11.5049749342
H   12.8236047033 -3.8096823616  8.8829749342
H   11.0816047033 -3.0236823616  7.1799749342
H   11.8026047033 -5.4796823616  11.7389749342
H   7.6576047033 -4.7596823616  10.8189749342
H   7.3206047033 -3.1236823616  7.9749749342
H   8.8176047033 -4.1746823616  6.0609749342
H   9.2696047033 -4.2206823616  3.9119749342
H   8.9366047033 -5.3426823616  1.6599749342
H   5.1636047033 -3.0466823616  5.0639749342
H   5.7336047033 -5.9136823616  0.2899749342
H   3.4276047033 -4.5876823616  2.5299749342
H   4.1736047033 -4.4756823616  0.9949749342
H   3.2746047033 -6.5896823616  0.8149749342
H   3.1156047033 -9.4366823616  2.8399749342
H   4.5486047033 -9.4066823616  1.7809749342
H   2.8356047033 -8.8476823616  1.2659749342
H   5.7716047033 -7.8876823616  3.9919749342
H   4.1436047033 -7.8826823616  4.6099749342
H   4.7916047033 -6.3956823616  4.2609749342
84
Scanning combination 130/256: [2.3000, 2.1000]  Energy = -385.9050379988
O   11.1233000000 -4.8002000000  5.0341000000
O   11.3873000000 -0.2652000000  3.3291000000
O   18.1143000000 -4.2382000000 -2.5629000000
O   15.0523000000 -3.1142000000  0.9841000000
C   13.0053000000 -3.3232000000  2.3291000000
C   12.6993000000 -1.9792000000  2.4491000000
C   12.3973000000 -4.3072000000  3.1831000000
C   11.6323000000 -1.5992000000  3.2951000000
C   11.4783000000 -3.8632000000  4.1231000000
C   11.0613000000 -2.4802000000  4.2331000000
C   10.1223000000 -1.9712000000  5.2561000000
C   10.5373000000 -1.3232000000  6.3251000000
C   9.8643000000 -1.0622000000  7.5921000000
C   8.6825000000 -1.0450000000  7.8959000000
C   10.8123000000 -0.2992000000  8.5731000000
C   14.6833000000 -4.8512000000 -0.4449000000
C   15.5183000000 -3.8012000000 -0.0889000000
C   16.6953000000 -3.5982000000 -0.8399000000
C   16.9703000000 -4.4882000000 -1.8899000000
C   16.1523000000 -5.5962000000 -2.2009000000
C   14.9513000000 -5.7522000000 -1.5279000000
C   13.6583000000 -4.8752000000  0.4711000000
C   13.8893000000 -3.7772000000  1.2511000000
H   13.1623000000 -1.2452000000  1.7971000000
H   12.5583000000 -5.3772000000  3.0881000000
H   11.7383000000 -5.5442000000  4.9131000000
H   11.8513000000  0.1658000000  2.5901000000
H   9.4643000000 -1.3292000000  4.6731000000
H   11.4933000000 -0.8182000000  6.2071000000
H   7.9073000000 -0.9712000000  7.1161000000
H   8.2313000000 -0.9072000000  8.8131000000
H   11.1183000000  0.6778000000  8.1811000000
H   11.7213000000 -0.7962000000  8.9311000000
H   10.3263000000 -0.0742000000  9.5301000000
H   17.3553000000 -2.7642000000 -0.6209000000
H   16.3753000000 -6.3042000000 -2.9929000000
H   14.4873000000 -6.7332000000 -1.5779000000
H   12.8783000000 -5.6272000000  0.4831000000
H   18.2613000000 -4.9422000000 -3.2189000000
C   9.8959831097 -4.5858326840  10.5844557892
O   12.2269831097 -4.9378326840  11.0724557892
C   11.2539831097 -4.5158326840  10.2264557892
O   7.6729831097 -4.0698326840  10.1124557892
C   11.7119831097 -3.8438326840  9.0464557892
O   6.4249831097 -2.1138326840  5.9124557892
C   10.7329831097 -3.3648326840  8.1894557892
O   4.7219831097 -3.3498326840  4.3454557892
C   9.3459831097 -3.4748326840  8.4564557892
O   6.6359831097 -5.6298326840  0.5254557892
C   8.9499831097 -4.0528326840  9.6754557892
C   8.1737831097 -3.0690326840  7.6627557892
C   8.5129831097 -3.0348326840  6.3054557892
C   7.2879831097 -2.8498326840  5.5274557892
C   7.1219831097 -3.6308326840  4.2184557892
C   8.2459831097 -4.1598326840  3.5264557892
C   5.8139831097 -3.7738326840  3.6484557892
C   8.0719831097 -4.9198326840  2.3574557892
C   5.6499831097 -4.5308326840  2.4554557892
C   6.8099831097 -4.9578326840  1.7694557892
C   4.2539831097 -4.8598326840  2.0384557892
C   3.8689831097 -6.3058326840  1.7494557892
C   4.0469831097 -7.4048326840  2.5544557892
C   3.5789831097 -8.7818326840  2.1034557892
C   4.7519831097 -7.3118326840  3.9254557892
H   9.5309831097 -4.8458326840  11.5734557892
H   12.7849831097 -3.7058326840  8.9514557892
H   11.0429831097 -2.9198326840  7.2484557892
H   11.7639831097 -5.3758326840  11.8074557892
H   7.6189831097 -4.6558326840  10.8874557892
H   7.2819831097 -3.0198326840  8.0434557892
H   8.7789831097 -4.0708326840  6.1294557892
H   9.2309831097 -4.1168326840  3.9804557892
H   8.8979831097 -5.2388326840  1.7284557892
H   5.1249831097 -2.9428326840  5.1324557892
H   5.6949831097 -5.8098326840  0.3584557892
H   3.3889831097 -4.4838326840  2.5984557892
H   4.1349831097 -4.3718326840  1.0634557892
H   3.2359831097 -6.4858326840  0.8834557892
H   3.0769831097 -9.3328326840  2.9084557892
H   4.5099831097 -9.3028326840  1.8494557892
H   2.7969831097 -8.7438326840  1.3344557892
H   5.7329831097 -7.7838326840  4.0604557892
H   4.1049831097 -7.7788326840  4.6784557892
H   4.7529831097 -6.2918326840  4.3294557892
84
Scanning combination 131/256: [2.3000, 2.0000]  Energy = -385.8815556761
O   11.1233000000 -4.8002000000  5.0341000000
O   11.3873000000 -0.2652000000  3.3291000000
O   18.1143000000 -4.2382000000 -2.5629000000
O   15.0523000000 -3.1142000000  0.9841000000
C   13.0053000000 -3.3232000000  2.3291000000
C   12.6993000000 -1.9792000000  2.4491000000
C   12.3973000000 -4.3072000000  3.1831000000
C   11.6323000000 -1.5992000000  3.2951000000
C   11.4783000000 -3.8632000000  4.1231000000
C   11.0613000000 -2.4802000000  4.2331000000
C   10.1223000000 -1.9712000000  5.2561000000
C   10.5373000000 -1.3232000000  6.3251000000
C   9.8643000000 -1.0622000000  7.5921000000
C   8.6825000000 -1.0450000000  7.8959000000
C   10.8123000000 -0.2992000000  8.5731000000
C   14.6833000000 -4.8512000000 -0.4449000000
C   15.5183000000 -3.8012000000 -0.0889000000
C   16.6953000000 -3.5982000000 -0.8399000000
C   16.9703000000 -4.4882000000 -1.8899000000
C   16.1523000000 -5.5962000000 -2.2009000000
C   14.9513000000 -5.7522000000 -1.5279000000
C   13.6583000000 -4.8752000000  0.4711000000
C   13.8893000000 -3.7772000000  1.2511000000
H   13.1623000000 -1.2452000000  1.7971000000
H   12.5583000000 -5.3772000000  3.0881000000
H   11.7383000000 -5.5442000000  4.9131000000
H   11.8513000000  0.1658000000  2.5901000000
H   9.4643000000 -1.3292000000  4.6731000000
H   11.4933000000 -0.8182000000  6.2071000000
H   7.9073000000 -0.9712000000  7.1161000000
H   8.2313000000 -0.9072000000  8.8131000000
H   11.1183000000  0.6778000000  8.1811000000
H   11.7213000000 -0.7962000000  8.9311000000
H   10.3263000000 -0.0742000000  9.5301000000
H   17.3553000000 -2.7642000000 -0.6209000000
H   16.3753000000 -6.3042000000 -2.9929000000
H   14.4873000000 -6.7332000000 -1.5779000000
H   12.8783000000 -5.6272000000  0.4831000000
H   18.2613000000 -4.9422000000 -3.2189000000
C   9.8638501699 -4.4797640107  10.6480131237
O   12.1948501699 -4.8317640107  11.1360131237
C   11.2218501699 -4.4097640107  10.2900131237
O   7.6408501699 -3.9637640107  10.1760131237
C   11.6798501699 -3.7377640107  9.1100131237
O   6.3928501699 -2.0077640107  5.9760131237
C   10.7008501699 -3.2587640107  8.2530131237
O   4.6898501699 -3.2437640107  4.4090131237
C   9.3138501699 -3.3687640107  8.5200131237
O   6.6038501699 -5.5237640107  0.5890131237
C   8.9178501699 -3.9467640107  9.7390131237
C   8.1416501699 -2.9629640107  7.7263131237
C   8.4808501699 -2.9287640107  6.3690131237
C   7.2558501699 -2.7437640107  5.5910131237
C   7.0898501699 -3.5247640107  4.2820131237
C   8.2138501699 -4.0537640107  3.5900131237
C   5.7818501699 -3.6677640107  3.7120131237
C   8.0398501699 -4.8137640107  2.4210131237
C   5.6178501699 -4.4247640107  2.5190131237
C   6.7778501699 -4.8517640107  1.8330131237
C   4.2218501699 -4.7537640107  2.1020131237
C   3.8368501699 -6.1997640107  1.8130131237
C   4.0148501699 -7.2987640107  2.6180131237
C   3.5468501699 -8.6757640107  2.1670131237
C   4.7198501699 -7.2057640107  3.9890131237
H   9.4988501699 -4.7397640107  11.6370131237
H   12.7528501699 -3.5997640107  9.0150131237
H   11.0108501699 -2.8137640107  7.3120131237
H   11.7318501699 -5.2697640107  11.8710131237
H   7.5868501699 -4.5497640107  10.9510131237
H   7.2498501699 -2.9137640107  8.1070131237
H   8.7468501699 -3.9647640107  6.1930131237
H   9.1988501699 -4.0107640107  4.0440131237
H   8.8658501699 -5.1327640107  1.7920131237
H   5.0928501699 -2.8367640107  5.1960131237
H   5.6628501699 -5.7037640107  0.4220131237
H   3.3568501699 -4.3777640107  2.6620131237
H   4.1028501699 -4.2657640107  1.1270131237
H   3.2038501699 -6.3797640107  0.9470131237
H   3.0448501699 -9.2267640107  2.9720131237
H   4.4778501699 -9.1967640107  1.9130131237
H   2.7648501699 -8.6377640107  1.3980131237
H   5.7008501699 -7.6777640107  4.1240131237
H   4.0728501699 -7.6727640107  4.7420131237
H   4.7208501699 -6.1857640107  4.3930131237
84
Scanning combination 132/256: [2.3000, 1.9000]  Energy = -385.8536332842
O   11.1233000000 -4.8002000000  5.0341000000
O   11.3873000000 -0.2652000000  3.3291000000
O   18.1143000000 -4.2382000000 -2.5629000000
O   15.0523000000 -3.1142000000  0.9841000000
C   13.0053000000 -3.3232000000  2.3291000000
C   12.6993000000 -1.9792000000  2.4491000000
C   12.3973000000 -4.3072000000  3.1831000000
C   11.6323000000 -1.5992000000  3.2951000000
C   11.4783000000 -3.8632000000  4.1231000000
C   11.0613000000 -2.4802000000  4.2331000000
C   10.1223000000 -1.9712000000  5.2561000000
C   10.5373000000 -1.3232000000  6.3251000000
C   9.8643000000 -1.0622000000  7.5921000000
C   8.6825000000 -1.0450000000  7.8959000000
C   10.8123000000 -0.2992000000  8.5731000000
C   14.6833000000 -4.8512000000 -0.4449000000
C   15.5183000000 -3.8012000000 -0.0889000000
C   16.6953000000 -3.5982000000 -0.8399000000
C   16.9703000000 -4.4882000000 -1.8899000000
C   16.1523000000 -5.5962000000 -2.2009000000
C   14.9513000000 -5.7522000000 -1.5279000000
C   13.6583000000 -4.8752000000  0.4711000000
C   13.8893000000 -3.7772000000  1.2511000000
H   13.1623000000 -1.2452000000  1.7971000000
H   12.5583000000 -5.3772000000  3.0881000000
H   11.7383000000 -5.5442000000  4.9131000000
H   11.8513000000  0.1658000000  2.5901000000
H   9.4643000000 -1.3292000000  4.6731000000
H   11.4933000000 -0.8182000000  6.2071000000
H   7.9073000000 -0.9712000000  7.1161000000
H   8.2313000000 -0.9072000000  8.8131000000
H   11.1183000000  0.6778000000  8.1811000000
H   11.7213000000 -0.7962000000  8.9311000000
H   10.3263000000 -0.0742000000  9.5301000000
H   17.3553000000 -2.7642000000 -0.6209000000
H   16.3753000000 -6.3042000000 -2.9929000000
H   14.4873000000 -6.7332000000 -1.5779000000
H   12.8783000000 -5.6272000000  0.4831000000
H   18.2613000000 -4.9422000000 -3.2189000000
C   9.8380345739 -4.3718974069  10.7066556157
O   12.1690345739 -4.7238974069  11.1946556157
C   11.1960345739 -4.3018974069  10.3486556157
O   7.6150345739 -3.8558974069  10.2346556157
C   11.6540345739 -3.6298974069  9.1686556157
O   6.3670345739 -1.8998974069  6.0346556157
C   10.6750345739 -3.1508974069  8.3116556157
O   4.6640345739 -3.1358974069  4.4676556157
C   9.2880345739 -3.2608974069  8.5786556157
O   6.5780345739 -5.4158974069  0.6476556157
C   8.8920345739 -3.8388974069  9.7976556157
C   8.1158345739 -2.8550974069  7.7849556157
C   8.4550345739 -2.8208974069  6.4276556157
C   7.2300345739 -2.6358974069  5.6496556157
C   7.0640345739 -3.4168974069  4.3406556157
C   8.1880345739 -3.9458974069  3.6486556157
C   5.7560345739 -3.5598974069  3.7706556157
C   8.0140345739 -4.7058974069  2.4796556157
C   5.5920345739 -4.3168974069  2.5776556157
C   6.7520345739 -4.7438974069  1.8916556157
C   4.1960345739 -4.6458974069  2.1606556157
C   3.8110345739 -6.0918974069  1.8716556157
C   3.9890345739 -7.1908974069  2.6766556157
C   3.5210345739 -8.5678974069  2.2256556157
C   4.6940345739 -7.0978974069  4.0476556157
H   9.4730345739 -4.6318974069  11.6956556157
H   12.7270345739 -3.4918974069  9.0736556157
H   10.9850345739 -2.7058974069  7.3706556157
H   11.7060345739 -5.1618974069  11.9296556157
H   7.5610345739 -4.4418974069  11.0096556157
H   7.2240345739 -2.8058974069  8.1656556157
H   8.7210345739 -3.8568974069  6.2516556157
H   9.1730345739 -3.9028974069  4.1026556157
H   8.8400345739 -5.0248974069  1.8506556157
H   5.0670345739 -2.7288974069  5.2546556157
H   5.6370345739 -5.5958974069  0.4806556157
H   3.3310345739 -4.2698974069  2.7206556157
H   4.0770345739 -4.1578974069  1.1856556157
H   3.1780345739 -6.2718974069  1.0056556157
H   3.0190345739 -9.1188974069  3.0306556157
H   4.4520345739 -9.0888974069  1.9716556157
H   2.7390345739 -8.5298974069  1.4566556157
H   5.6750345739 -7.5698974069  4.1826556157
H   4.0470345739 -7.5648974069  4.8006556157
H   4.6950345739 -6.0778974069  4.4516556157
84
Scanning combination 133/256: [2.3000, 1.8000]  Energy = -385.8189963099
O   11.1233000000 -4.8002000000  5.0341000000
O   11.3873000000 -0.2652000000  3.3291000000
O   18.1143000000 -4.2382000000 -2.5629000000
O   15.0523000000 -3.1142000000  0.9841000000
C   13.0053000000 -3.3232000000  2.3291000000
C   12.6993000000 -1.9792000000  2.4491000000
C   12.3973000000 -4.3072000000  3.1831000000
C   11.6323000000 -1.5992000000  3.2951000000
C   11.4783000000 -3.8632000000  4.1231000000
C   11.0613000000 -2.4802000000  4.2331000000
C   10.1223000000 -1.9712000000  5.2561000000
C   10.5373000000 -1.3232000000  6.3251000000
C   9.8643000000 -1.0622000000  7.5921000000
C   8.6825000000 -1.0450000000  7.8959000000
C   10.8123000000 -0.2992000000  8.5731000000
C   14.6833000000 -4.8512000000 -0.4449000000
C   15.5183000000 -3.8012000000 -0.0889000000
C   16.6953000000 -3.5982000000 -0.8399000000
C   16.9703000000 -4.4882000000 -1.8899000000
C   16.1523000000 -5.5962000000 -2.2009000000
C   14.9513000000 -5.7522000000 -1.5279000000
C   13.6583000000 -4.8752000000  0.4711000000
C   13.8893000000 -3.7772000000  1.2511000000
H   13.1623000000 -1.2452000000  1.7971000000
H   12.5583000000 -5.3772000000  3.0881000000
H   11.7383000000 -5.5442000000  4.9131000000
H   11.8513000000  0.1658000000  2.5901000000
H   9.4643000000 -1.3292000000  4.6731000000
H   11.4933000000 -0.8182000000  6.2071000000
H   7.9073000000 -0.9712000000  7.1161000000
H   8.2313000000 -0.9072000000  8.8131000000
H   11.1183000000  0.6778000000  8.1811000000
H   11.7213000000 -0.7962000000  8.9311000000
H   10.3263000000 -0.0742000000  9.5301000000
H   17.3553000000 -2.7642000000 -0.6209000000
H   16.3753000000 -6.3042000000 -2.9929000000
H   14.4873000000 -6.7332000000 -1.5779000000
H   12.8783000000 -5.6272000000  0.4831000000
H   18.2613000000 -4.9422000000 -3.2189000000
C   9.8182872943 -4.2626041671  10.7604764662
O   12.1492872943 -4.6146041671  11.2484764662
C   11.1762872943 -4.1926041671  10.4024764662
O   7.5952872943 -3.7466041671  10.2884764662
C   11.6342872943 -3.5206041671  9.2224764662
O   6.3472872943 -1.7906041671  6.0884764662
C   10.6552872943 -3.0416041671  8.3654764662
O   4.6442872943 -3.0266041671  4.5214764662
C   9.2682872943 -3.1516041671  8.6324764662
O   6.5582872943 -5.3066041671  0.7014764662
C   8.8722872943 -3.7296041671  9.8514764662
C   8.0960872943 -2.7458041671  7.8387764662
C   8.4352872943 -2.7116041671  6.4814764662
C   7.2102872943 -2.5266041671  5.7034764662
C   7.0442872943 -3.3076041671  4.3944764662
C   8.1682872943 -3.8366041671  3.7024764662
C   5.7362872943 -3.4506041671  3.8244764662
C   7.9942872943 -4.5966041671  2.5334764662
C   5.5722872943 -4.2076041671  2.6314764662
C   6.7322872943 -4.6346041671  1.9454764662
C   4.1762872943 -4.5366041671  2.2144764662
C   3.7912872943 -5.9826041671  1.9254764662
C   3.9692872943 -7.0816041671  2.7304764662
C   3.5012872943 -8.4586041671  2.2794764662
C   4.6742872943 -6.9886041671  4.1014764662
H   9.4532872943 -4.5226041671  11.7494764662
H   12.7072872943 -3.3826041671  9.1274764662
H   10.9652872943 -2.5966041671  7.4244764662
H   11.6862872943 -5.0526041671  11.9834764662
H   7.5412872943 -4.3326041671  11.0634764662
H   7.2042872943 -2.6966041671  8.2194764662
H   8.7012872943 -3.7476041671  6.3054764662
H   9.1532872943 -3.7936041671  4.1564764662
H   8.8202872943 -4.9156041671  1.9044764662
H   5.0472872943 -2.6196041671  5.3084764662
H   5.6172872943 -5.4866041671  0.5344764662
H   3.3112872943 -4.1606041671  2.7744764662
H   4.0572872943 -4.0486041671  1.2394764662
H   3.1582872943 -6.1626041671  1.0594764662
H   2.9992872943 -9.0096041671  3.0844764662
H   4.4322872943 -8.9796041671  2.0254764662
H   2.7192872943 -8.4206041671  1.5104764662
H   5.6552872943 -7.4606041671  4.2364764662
H   4.0272872943 -7.4556041671  4.8544764662
H   4.6752872943 -5.9686041671  4.5054764662
84
Scanning combination 134/256: [2.3000, 1.7000]  Energy = -385.7754315134
O   11.1233000000 -4.8002000000  5.0341000000
O   11.3873000000 -0.2652000000  3.3291000000
O   18.1143000000 -4.2382000000 -2.5629000000
O   15.0523000000 -3.1142000000  0.9841000000
C   13.0053000000 -3.3232000000  2.3291000000
C   12.6993000000 -1.9792000000  2.4491000000
C   12.3973000000 -4.3072000000  3.1831000000
C   11.6323000000 -1.5992000000  3.2951000000
C   11.4783000000 -3.8632000000  4.1231000000
C   11.0613000000 -2.4802000000  4.2331000000
C   10.1223000000 -1.9712000000  5.2561000000
C   10.5373000000 -1.3232000000  6.3251000000
C   9.8643000000 -1.0622000000  7.5921000000
C   8.6825000000 -1.0450000000  7.8959000000
C   10.8123000000 -0.2992000000  8.5731000000
C   14.6833000000 -4.8512000000 -0.4449000000
C   15.5183000000 -3.8012000000 -0.0889000000
C   16.6953000000 -3.5982000000 -0.8399000000
C   16.9703000000 -4.4882000000 -1.8899000000
C   16.1523000000 -5.5962000000 -2.2009000000
C   14.9513000000 -5.7522000000 -1.5279000000
C   13.6583000000 -4.8752000000  0.4711000000
C   13.8893000000 -3.7772000000  1.2511000000
H   13.1623000000 -1.2452000000  1.7971000000
H   12.5583000000 -5.3772000000  3.0881000000
H   11.7383000000 -5.5442000000  4.9131000000
H   11.8513000000  0.1658000000  2.5901000000
H   9.4643000000 -1.3292000000  4.6731000000
H   11.4933000000 -0.8182000000  6.2071000000
H   7.9073000000 -0.9712000000  7.1161000000
H   8.2313000000 -0.9072000000  8.8131000000
H   11.1183000000  0.6778000000  8.1811000000
H   11.7213000000 -0.7962000000  8.9311000000
H   10.3263000000 -0.0742000000  9.5301000000
H   17.3553000000 -2.7642000000 -0.6209000000
H   16.3753000000 -6.3042000000 -2.9929000000
H   14.4873000000 -6.7332000000 -1.5779000000
H   12.8783000000 -5.6272000000  0.4831000000
H   18.2613000000 -4.9422000000 -3.2189000000
C   9.8043562933 -4.1522111985  10.8095863591
O   12.1353562933 -4.5042111985  11.2975863591
C   11.1623562933 -4.0822111985  10.4515863591
O   7.5813562933 -3.6362111985  10.3375863591
C   11.6203562933 -3.4102111985  9.2715863591
O   6.3333562933 -1.6802111985  6.1375863591
C   10.6413562933 -2.9312111985  8.4145863591
O   4.6303562933 -2.9162111985  4.5705863591
C   9.2543562933 -3.0412111985  8.6815863591
O   6.5443562933 -5.1962111985  0.7505863591
C   8.8583562933 -3.6192111985  9.9005863591
C   8.0821562933 -2.6354111985  7.8878863591
C   8.4213562933 -2.6012111985  6.5305863591
C   7.1963562933 -2.4162111985  5.7525863591
C   7.0303562933 -3.1972111985  4.4435863591
C   8.1543562933 -3.7262111985  3.7515863591
C   5.7223562933 -3.3402111985  3.8735863591
C   7.9803562933 -4.4862111985  2.5825863591
C   5.5583562933 -4.0972111985  2.6805863591
C   6.7183562933 -4.5242111985  1.9945863591
C   4.1623562933 -4.4262111985  2.2635863591
C   3.7773562933 -5.8722111985  1.9745863591
C   3.9553562933 -6.9712111985  2.7795863591
C   3.4873562933 -8.3482111985  2.3285863591
C   4.6603562933 -6.8782111985  4.1505863591
H   9.4393562933 -4.4122111985  11.7985863591
H   12.6933562933 -3.2722111985  9.1765863591
H   10.9513562933 -2.4862111985  7.4735863591
H   11.6723562933 -4.9422111985  12.0325863591
H   7.5273562933 -4.2222111985  11.1125863591
H   7.1903562933 -2.5862111985  8.2685863591
H   8.6873562933 -3.6372111985  6.3545863591
H   9.1393562933 -3.6832111985  4.2055863591
H   8.8063562933 -4.8052111985  1.9535863591
H   5.0333562933 -2.5092111985  5.3575863591
H   5.6033562933 -5.3762111985  0.5835863591
H   3.2973562933 -4.0502111985  2.8235863591
H   4.0433562933 -3.9382111985  1.2885863591
H   3.1443562933 -6.0522111985  1.1085863591
H   2.9853562933 -8.8992111985  3.1335863591
H   4.4183562933 -8.8692111985  2.0745863591
H   2.7053562933 -8.3102111985  1.5595863591
H   5.6413562933 -7.3502111985  4.2855863591
H   4.0133562933 -7.3452111985  4.9035863591
H   4.6613562933 -5.8582111985  4.5545863591
84
Scanning combination 135/256: [2.3000, 1.6000]  Energy = -385.7179216143
O   11.1233000000 -4.8002000000  5.0341000000
O   11.3873000000 -0.2652000000  3.3291000000
O   18.1143000000 -4.2382000000 -2.5629000000
O   15.0523000000 -3.1142000000  0.9841000000
C   13.0053000000 -3.3232000000  2.3291000000
C   12.6993000000 -1.9792000000  2.4491000000
C   12.3973000000 -4.3072000000  3.1831000000
C   11.6323000000 -1.5992000000  3.2951000000
C   11.4783000000 -3.8632000000  4.1231000000
C   11.0613000000 -2.4802000000  4.2331000000
C   10.1223000000 -1.9712000000  5.2561000000
C   10.5373000000 -1.3232000000  6.3251000000
C   9.8643000000 -1.0622000000  7.5921000000
C   8.6825000000 -1.0450000000  7.8959000000
C   10.8123000000 -0.2992000000  8.5731000000
C   14.6833000000 -4.8512000000 -0.4449000000
C   15.5183000000 -3.8012000000 -0.0889000000
C   16.6953000000 -3.5982000000 -0.8399000000
C   16.9703000000 -4.4882000000 -1.8899000000
C   16.1523000000 -5.5962000000 -2.2009000000
C   14.9513000000 -5.7522000000 -1.5279000000
C   13.6583000000 -4.8752000000  0.4711000000
C   13.8893000000 -3.7772000000  1.2511000000
H   13.1623000000 -1.2452000000  1.7971000000
H   12.5583000000 -5.3772000000  3.0881000000
H   11.7383000000 -5.5442000000  4.9131000000
H   11.8513000000  0.1658000000  2.5901000000
H   9.4643000000 -1.3292000000  4.6731000000
H   11.4933000000 -0.8182000000  6.2071000000
H   7.9073000000 -0.9712000000  7.1161000000
H   8.2313000000 -0.9072000000  8.8131000000
H   11.1183000000  0.6778000000  8.1811000000
H   11.7213000000 -0.7962000000  8.9311000000
H   10.3263000000 -0.0742000000  9.5301000000
H   17.3553000000 -2.7642000000 -0.6209000000
H   16.3753000000 -6.3042000000 -2.9929000000
H   14.4873000000 -6.7332000000 -1.5779000000
H   12.8783000000 -5.6272000000  0.4831000000
H   18.2613000000 -4.9422000000 -3.2189000000
C   9.7960143974 -4.0410099085  10.8540861471
O   12.1270143974 -4.3930099085  11.3420861471
C   11.1540143974 -3.9710099085  10.4960861471
O   7.5730143974 -3.5250099085  10.3820861471
C   11.6120143974 -3.2990099085  9.3160861471
O   6.3250143974 -1.5690099085  6.1820861471
C   10.6330143974 -2.8200099085  8.4590861471
O   4.6220143974 -2.8050099085  4.6150861471
C   9.2460143974 -2.9300099085  8.7260861471
O   6.5360143974 -5.0850099085  0.7950861471
C   8.8500143974 -3.5080099085  9.9450861471
C   8.0738143974 -2.5242099085  7.9323861471
C   8.4130143974 -2.4900099085  6.5750861471
C   7.1880143974 -2.3050099085  5.7970861471
C   7.0220143974 -3.0860099085  4.4880861471
C   8.1460143974 -3.6150099085  3.7960861471
C   5.7140143974 -3.2290099085  3.9180861471
C   7.9720143974 -4.3750099085  2.6270861471
C   5.5500143974 -3.9860099085  2.7250861471
C   6.7100143974 -4.4130099085  2.0390861471
C   4.1540143974 -4.3150099085  2.3080861471
C   3.7690143974 -5.7610099085  2.0190861471
C   3.9470143974 -6.8600099085  2.8240861471
C   3.4790143974 -8.2370099085  2.3730861471
C   4.6520143974 -6.7670099085  4.1950861471
H   9.4310143974 -4.3010099085  11.8430861471
H   12.6850143974 -3.1610099085  9.2210861471
H   10.9430143974 -2.3750099085  7.5180861471
H   11.6640143974 -4.8310099085  12.0770861471
H   7.5190143974 -4.1110099085  11.1570861471
H   7.1820143974 -2.4750099085  8.3130861471
H   8.6790143974 -3.5260099085  6.3990861471
H   9.1310143974 -3.5720099085  4.2500861471
H   8.7980143974 -4.6940099085  1.9980861471
H   5.0250143974 -2.3980099085  5.4020861471
H   5.5950143974 -5.2650099085  0.6280861471
H   3.2890143974 -3.9390099085  2.8680861471
H   4.0350143974 -3.8270099085  1.3330861471
H   3.1360143974 -5.9410099085  1.1530861471
H   2.9770143974 -8.7880099085  3.1780861471
H   4.4100143974 -8.7580099085  2.1190861471
H   2.6970143974 -8.1990099085  1.6040861471
H   5.6330143974 -7.2390099085  4.3300861471
H   4.0050143974 -7.2340099085  4.9480861471
H   4.6530143974 -5.7470099085  4.5990861471
84
Scanning combination 136/256: [2.3000, 1.5000]  Energy = -385.6420372721
O   11.1233000000 -4.8002000000  5.0341000000
O   11.3873000000 -0.2652000000  3.3291000000
O   18.1143000000 -4.2382000000 -2.5629000000
O   15.0523000000 -3.1142000000  0.9841000000
C   13.0053000000 -3.3232000000  2.3291000000
C   12.6993000000 -1.9792000000  2.4491000000
C   12.3973000000 -4.3072000000  3.1831000000
C   11.6323000000 -1.5992000000  3.2951000000
C   11.4783000000 -3.8632000000  4.1231000000
C   11.0613000000 -2.4802000000  4.2331000000
C   10.1223000000 -1.9712000000  5.2561000000
C   10.5373000000 -1.3232000000  6.3251000000
C   9.8643000000 -1.0622000000  7.5921000000
C   8.6825000000 -1.0450000000  7.8959000000
C   10.8123000000 -0.2992000000  8.5731000000
C   14.6833000000 -4.8512000000 -0.4449000000
C   15.5183000000 -3.8012000000 -0.0889000000
C   16.6953000000 -3.5982000000 -0.8399000000
C   16.9703000000 -4.4882000000 -1.8899000000
C   16.1523000000 -5.5962000000 -2.2009000000
C   14.9513000000 -5.7522000000 -1.5279000000
C   13.6583000000 -4.8752000000  0.4711000000
C   13.8893000000 -3.7772000000  1.2511000000
H   13.1623000000 -1.2452000000  1.7971000000
H   12.5583000000 -5.3772000000  3.0881000000
H   11.7383000000 -5.5442000000  4.9131000000
H   11.8513000000  0.1658000000  2.5901000000
H   9.4643000000 -1.3292000000  4.6731000000
H   11.4933000000 -0.8182000000  6.2071000000
H   7.9073000000 -0.9712000000  7.1161000000
H   8.2313000000 -0.9072000000  8.8131000000
H   11.1183000000  0.6778000000  8.1811000000
H   11.7213000000 -0.7962000000  8.9311000000
H   10.3263000000 -0.0742000000  9.5301000000
H   17.3553000000 -2.7642000000 -0.6209000000
H   16.3753000000 -6.3042000000 -2.9929000000
H   14.4873000000 -6.7332000000 -1.5779000000
H   12.8783000000 -5.6272000000  0.4831000000
H   18.2613000000 -4.9422000000 -3.2189000000
C   9.7930669878 -3.9292638731  10.8940575690
O   12.1240669878 -4.2812638731  11.3820575690
C   11.1510669878 -3.8592638731  10.5360575690
O   7.5700669878 -3.4132638731  10.4220575690
C   11.6090669878 -3.1872638731  9.3560575690
O   6.3220669878 -1.4572638731  6.2220575690
C   10.6300669878 -2.7082638731  8.4990575690
O   4.6190669878 -2.6932638731  4.6550575690
C   9.2430669878 -2.8182638731  8.7660575690
O   6.5330669878 -4.9732638731  0.8350575690
C   8.8470669878 -3.3962638731  9.9850575690
C   8.0708669878 -2.4124638731  7.9723575690
C   8.4100669878 -2.3782638731  6.6150575690
C   7.1850669878 -2.1932638731  5.8370575690
C   7.0190669878 -2.9742638731  4.5280575690
C   8.1430669878 -3.5032638731  3.8360575690
C   5.7110669878 -3.1172638731  3.9580575690
C   7.9690669878 -4.2632638731  2.6670575690
C   5.5470669878 -3.8742638731  2.7650575690
C   6.7070669878 -4.3012638731  2.0790575690
C   4.1510669878 -4.2032638731  2.3480575690
C   3.7660669878 -5.6492638731  2.0590575690
C   3.9440669878 -6.7482638731  2.8640575690
C   3.4760669878 -8.1252638731  2.4130575690
C   4.6490669878 -6.6552638731  4.2350575690
H   9.4280669878 -4.1892638731  11.8830575690
H   12.6820669878 -3.0492638731  9.2610575690
H   10.9400669878 -2.2632638731  7.5580575690
H   11.6610669878 -4.7192638731  12.1170575690
H   7.5160669878 -3.9992638731  11.1970575690
H   7.1790669878 -2.3632638731  8.3530575690
H   8.6760669878 -3.4142638731  6.4390575690
H   9.1280669878 -3.4602638731  4.2900575690
H   8.7950669878 -4.5822638731  2.0380575690
H   5.0220669878 -2.2862638731  5.4420575690
H   5.5920669878 -5.1532638731  0.6680575690
H   3.2860669878 -3.8272638731  2.9080575690
H   4.0320669878 -3.7152638731  1.3730575690
H   3.1330669878 -5.8292638731  1.1930575690
H   2.9740669878 -8.6762638731  3.2180575690
H   4.4070669878 -8.6462638731  2.1590575690
H   2.6940669878 -8.0872638731  1.6440575690
H   5.6300669878 -7.1272638731  4.3700575690
H   4.0020669878 -7.1222638731  4.9880575690
H   4.6500669878 -5.6352638731  4.6390575690
84
Scanning combination 137/256: [2.2000, 2.9000]  Energy = -385.9563189741
O   11.1233000000 -4.8002000000  5.0341000000
O   11.3873000000 -0.2652000000  3.3291000000
O   18.1143000000 -4.2382000000 -2.5629000000
O   15.0523000000 -3.1142000000  0.9841000000
C   13.0053000000 -3.3232000000  2.3291000000
C   12.6993000000 -1.9792000000  2.4491000000
C   12.3973000000 -4.3072000000  3.1831000000
C   11.6323000000 -1.5992000000  3.2951000000
C   11.4783000000 -3.8632000000  4.1231000000
C   11.0613000000 -2.4802000000  4.2331000000
C   10.1223000000 -1.9712000000  5.2561000000
C   10.5373000000 -1.3232000000  6.3251000000
C   9.8643000000 -1.0622000000  7.5921000000
C   8.6825000000 -1.0450000000  7.8959000000
C   10.8123000000 -0.2992000000  8.5731000000
C   14.6833000000 -4.8512000000 -0.4449000000
C   15.5183000000 -3.8012000000 -0.0889000000
C   16.6953000000 -3.5982000000 -0.8399000000
C   16.9703000000 -4.4882000000 -1.8899000000
C   16.1523000000 -5.5962000000 -2.2009000000
C   14.9513000000 -5.7522000000 -1.5279000000
C   13.6583000000 -4.8752000000  0.4711000000
C   13.8893000000 -3.7772000000  1.2511000000
H   13.1623000000 -1.2452000000  1.7971000000
H   12.5583000000 -5.3772000000  3.0881000000
H   11.7383000000 -5.5442000000  4.9131000000
H   11.8513000000  0.1658000000  2.5901000000
H   9.4643000000 -1.3292000000  4.6731000000
H   11.4933000000 -0.8182000000  6.2071000000
H   7.9073000000 -0.9712000000  7.1161000000
H   8.2313000000 -0.9072000000  8.8131000000
H   11.1183000000  0.6778000000  8.1811000000
H   11.7213000000 -0.7962000000  8.9311000000
H   10.3263000000 -0.0742000000  9.5301000000
H   17.3553000000 -2.7642000000 -0.6209000000
H   16.3753000000 -6.3042000000 -2.9929000000
H   14.4873000000 -6.7332000000 -1.5779000000
H   12.8783000000 -5.6272000000  0.4831000000
H   18.2613000000 -4.9422000000 -3.2189000000
C   10.3302094697 -5.3298946163  9.9562600924
O   12.6612094697 -5.6818946163  10.4442600924
C   11.6882094697 -5.2598946163  9.5982600924
O   8.1072094697 -4.8138946163  9.4842600924
C   12.1462094697 -4.5878946163  8.4182600924
O   6.8592094697 -2.8578946163  5.2842600924
C   11.1672094697 -4.1088946163  7.5612600924
O   5.1562094697 -4.0938946163  3.7172600924
C   9.7802094697 -4.2188946163  7.8282600924
O   7.0702094697 -6.3738946163 -0.1027399076
C   9.3842094697 -4.7968946163  9.0472600924
C   8.6080094697 -3.8130946163  7.0345600924
C   8.9472094697 -3.7788946163  5.6772600924
C   7.7222094697 -3.5938946163  4.8992600924
C   7.5562094697 -4.3748946163  3.5902600924
C   8.6802094697 -4.9038946163  2.8982600924
C   6.2482094697 -4.5178946163  3.0202600924
C   8.5062094697 -5.6638946163  1.7292600924
C   6.0842094697 -5.2748946163  1.8272600924
C   7.2442094697 -5.7018946163  1.1412600924
C   4.6882094697 -5.6038946163  1.4102600924
C   4.3032094697 -7.0498946163  1.1212600924
C   4.4812094697 -8.1488946163  1.9262600924
C   4.0132094697 -9.5258946163  1.4752600924
C   5.1862094697 -8.0558946163  3.2972600924
H   9.9652094697 -5.5898946163  10.9452600924
H   13.2192094697 -4.4498946163  8.3232600924
H   11.4772094697 -3.6638946163  6.6202600924
H   12.1982094697 -6.1198946163  11.1792600924
H   8.0532094697 -5.3998946163  10.2592600924
H   7.7162094697 -3.7638946163  7.4152600924
H   9.2132094697 -4.8148946163  5.5012600924
H   9.6652094697 -4.8608946163  3.3522600924
H   9.3322094697 -5.9828946163  1.1002600924
H   5.5592094697 -3.6868946163  4.5042600924
H   6.1292094697 -6.5538946163 -0.2697399076
H   3.8232094697 -5.2278946163  1.9702600924
H   4.5692094697 -5.1158946163  0.4352600924
H   3.6702094697 -7.2298946163  0.2552600924
H   3.5112094697 -10.0768946163  2.2802600924
H   4.9442094697 -10.0468946163  1.2212600924
H   3.2312094697 -9.4878946163  0.7062600924
H   6.1672094697 -8.5278946163  3.4322600924
H   4.5392094697 -8.5228946163  4.0502600924
H   5.1872094697 -7.0358946163  3.7012600924
84
Scanning combination 138/256: [2.2000, 2.8000]  Energy = -385.9592770334
O   11.1233000000 -4.8002000000  5.0341000000
O   11.3873000000 -0.2652000000  3.3291000000
O   18.1143000000 -4.2382000000 -2.5629000000
O   15.0523000000 -3.1142000000  0.9841000000
C   13.0053000000 -3.3232000000  2.3291000000
C   12.6993000000 -1.9792000000  2.4491000000
C   12.3973000000 -4.3072000000  3.1831000000
C   11.6323000000 -1.5992000000  3.2951000000
C   11.4783000000 -3.8632000000  4.1231000000
C   11.0613000000 -2.4802000000  4.2331000000
C   10.1223000000 -1.9712000000  5.2561000000
C   10.5373000000 -1.3232000000  6.3251000000
C   9.8643000000 -1.0622000000  7.5921000000
C   8.6825000000 -1.0450000000  7.8959000000
C   10.8123000000 -0.2992000000  8.5731000000
C   14.6833000000 -4.8512000000 -0.4449000000
C   15.5183000000 -3.8012000000 -0.0889000000
C   16.6953000000 -3.5982000000 -0.8399000000
C   16.9703000000 -4.4882000000 -1.8899000000
C   16.1523000000 -5.5962000000 -2.2009000000
C   14.9513000000 -5.7522000000 -1.5279000000
C   13.6583000000 -4.8752000000  0.4711000000
C   13.8893000000 -3.7772000000  1.2511000000
H   13.1623000000 -1.2452000000  1.7971000000
H   12.5583000000 -5.3772000000  3.0881000000
H   11.7383000000 -5.5442000000  4.9131000000
H   11.8513000000  0.1658000000  2.5901000000
H   9.4643000000 -1.3292000000  4.6731000000
H   11.4933000000 -0.8182000000  6.2071000000
H   7.9073000000 -0.9712000000  7.1161000000
H   8.2313000000 -0.9072000000  8.8131000000
H   11.1183000000  0.6778000000  8.1811000000
H   11.7213000000 -0.7962000000  8.9311000000
H   10.3263000000 -0.0742000000  9.5301000000
H   17.3553000000 -2.7642000000 -0.6209000000
H   16.3753000000 -6.3042000000 -2.9929000000
H   14.4873000000 -6.7332000000 -1.5779000000
H   12.8783000000 -5.6272000000  0.4831000000
H   18.2613000000 -4.9422000000 -3.2189000000
C   10.3311696476 -5.2347978602  9.9872473053
O   12.6621696476 -5.5867978602  10.4752473053
C   11.6891696476 -5.1647978602  9.6292473053
O   8.1081696476 -4.7187978602  9.5152473053
C   12.1471696476 -4.4927978602  8.4492473053
O   6.8601696476 -2.7627978602  5.3152473053
C   11.1681696476 -4.0137978602  7.5922473053
O   5.1571696476 -3.9987978602  3.7482473053
C   9.7811696476 -4.1237978602  7.8592473053
O   7.0711696476 -6.2787978602 -0.0717526947
C   9.3851696476 -4.7017978602  9.0782473053
C   8.6089696476 -3.7179978602  7.0655473053
C   8.9481696476 -3.6837978602  5.7082473053
C   7.7231696476 -3.4987978602  4.9302473053
C   7.5571696476 -4.2797978602  3.6212473053
C   8.6811696476 -4.8087978602  2.9292473053
C   6.2491696476 -4.4227978602  3.0512473053
C   8.5071696476 -5.5687978602  1.7602473053
C   6.0851696476 -5.1797978602  1.8582473053
C   7.2451696476 -5.6067978602  1.1722473053
C   4.6891696476 -5.5087978602  1.4412473053
C   4.3041696476 -6.9547978602  1.1522473053
C   4.4821696476 -8.0537978602  1.9572473053
C   4.0141696476 -9.4307978602  1.5062473053
C   5.1871696476 -7.9607978602  3.3282473053
H   9.9661696476 -5.4947978602  10.9762473053
H   13.2201696476 -4.3547978602  8.3542473053
H   11.4781696476 -3.5687978602  6.6512473053
H   12.1991696476 -6.0247978602  11.2102473053
H   8.0541696476 -5.3047978602  10.2902473053
H   7.7171696476 -3.6687978602  7.4462473053
H   9.2141696476 -4.7197978602  5.5322473053
H   9.6661696476 -4.7657978602  3.3832473053
H   9.3331696476 -5.8877978602  1.1312473053
H   5.5601696476 -3.5917978602  4.5352473053
H   6.1301696476 -6.4587978602 -0.2387526947
H   3.8241696476 -5.1327978602  2.0012473053
H   4.5701696476 -5.0207978602  0.4662473053
H   3.6711696476 -7.1347978602  0.2862473053
H   3.5121696476 -9.9817978602  2.3112473053
H   4.9451696476 -9.9517978602  1.2522473053
H   3.2321696476 -9.3927978602  0.7372473053
H   6.1681696476 -8.4327978602  3.4632473053
H   4.5401696476 -8.4277978602  4.0812473053
H   5.1881696476 -6.9407978602  3.7322473053
84
Scanning combination 139/256: [2.2000, 2.7000]  Energy = -385.9620517488
O   11.1233000000 -4.8002000000  5.0341000000
O   11.3873000000 -0.2652000000  3.3291000000
O   18.1143000000 -4.2382000000 -2.5629000000
O   15.0523000000 -3.1142000000  0.9841000000
C   13.0053000000 -3.3232000000  2.3291000000
C   12.6993000000 -1.9792000000  2.4491000000
C   12.3973000000 -4.3072000000  3.1831000000
C   11.6323000000 -1.5992000000  3.2951000000
C   11.4783000000 -3.8632000000  4.1231000000
C   11.0613000000 -2.4802000000  4.2331000000
C   10.1223000000 -1.9712000000  5.2561000000
C   10.5373000000 -1.3232000000  6.3251000000
C   9.8643000000 -1.0622000000  7.5921000000
C   8.6825000000 -1.0450000000  7.8959000000
C   10.8123000000 -0.2992000000  8.5731000000
C   14.6833000000 -4.8512000000 -0.4449000000
C   15.5183000000 -3.8012000000 -0.0889000000
C   16.6953000000 -3.5982000000 -0.8399000000
C   16.9703000000 -4.4882000000 -1.8899000000
C   16.1523000000 -5.5962000000 -2.2009000000
C   14.9513000000 -5.7522000000 -1.5279000000
C   13.6583000000 -4.8752000000  0.4711000000
C   13.8893000000 -3.7772000000  1.2511000000
H   13.1623000000 -1.2452000000  1.7971000000
H   12.5583000000 -5.3772000000  3.0881000000
H   11.7383000000 -5.5442000000  4.9131000000
H   11.8513000000  0.1658000000  2.5901000000
H   9.4643000000 -1.3292000000  4.6731000000
H   11.4933000000 -0.8182000000  6.2071000000
H   7.9073000000 -0.9712000000  7.1161000000
H   8.2313000000 -0.9072000000  8.8131000000
H   11.1183000000  0.6778000000  8.1811000000
H   11.7213000000 -0.7962000000  8.9311000000
H   10.3263000000 -0.0742000000  9.5301000000
H   17.3553000000 -2.7642000000 -0.6209000000
H   16.3753000000 -6.3042000000 -2.9929000000
H   14.4873000000 -6.7332000000 -1.5779000000
H   12.8783000000 -5.6272000000  0.4831000000
H   18.2613000000 -4.9422000000 -3.2189000000
C   10.2959795098 -5.1472580483  10.0472733182
O   12.6269795098 -5.4992580483  10.5352733182
C   11.6539795098 -5.0772580483  9.6892733182
O   8.0729795098 -4.6312580483  9.5752733182
C   12.1119795098 -4.4052580483  8.5092733182
O   6.8249795098 -2.6752580483  5.3752733182
C   11.1329795098 -3.9262580483  7.6522733182
O   5.1219795098 -3.9112580483  3.8082733182
C   9.7459795098 -4.0362580483  7.9192733182
O   7.0359795098 -6.1912580483 -0.0117266818
C   9.3499795098 -4.6142580483  9.1382733182
C   8.5737795098 -3.6304580483  7.1255733182
C   8.9129795098 -3.5962580483  5.7682733182
C   7.6879795098 -3.4112580483  4.9902733182
C   7.5219795098 -4.1922580483  3.6812733182
C   8.6459795098 -4.7212580483  2.9892733182
C   6.2139795098 -4.3352580483  3.1112733182
C   8.4719795098 -5.4812580483  1.8202733182
C   6.0499795098 -5.0922580483  1.9182733182
C   7.2099795098 -5.5192580483  1.2322733182
C   4.6539795098 -5.4212580483  1.5012733182
C   4.2689795098 -6.8672580483  1.2122733182
C   4.4469795098 -7.9662580483  2.0172733182
C   3.9789795098 -9.3432580483  1.5662733182
C   5.1519795098 -7.8732580483  3.3882733182
H   9.9309795098 -5.4072580483  11.0362733182
H   13.1849795098 -4.2672580483  8.4142733182
H   11.4429795098 -3.4812580483  6.7112733182
H   12.1639795098 -5.9372580483  11.2702733182
H   8.0189795098 -5.2172580483  10.3502733182
H   7.6819795098 -3.5812580483  7.5062733182
H   9.1789795098 -4.6322580483  5.5922733182
H   9.6309795098 -4.6782580483  3.4432733182
H   9.2979795098 -5.8002580483  1.1912733182
H   5.5249795098 -3.5042580483  4.5952733182
H   6.0949795098 -6.3712580483 -0.1787266818
H   3.7889795098 -5.0452580483  2.0612733182
H   4.5349795098 -4.9332580483  0.5262733182
H   3.6359795098 -7.0472580483  0.3462733182
H   3.4769795098 -9.8942580483  2.3712733182
H   4.9099795098 -9.8642580483  1.3122733182
H   3.1969795098 -9.3052580483  0.7972733182
H   6.1329795098 -8.3452580483  3.5232733182
H   4.5049795098 -8.3402580483  4.1412733182
H   5.1529795098 -6.8532580483  3.7922733182
84
Scanning combination 140/256: [2.2000, 2.6000]  Energy = -385.9615761038
O   11.1233000000 -4.8002000000  5.0341000000
O   11.3873000000 -0.2652000000  3.3291000000
O   18.1143000000 -4.2382000000 -2.5629000000
O   15.0523000000 -3.1142000000  0.9841000000
C   13.0053000000 -3.3232000000  2.3291000000
C   12.6993000000 -1.9792000000  2.4491000000
C   12.3973000000 -4.3072000000  3.1831000000
C   11.6323000000 -1.5992000000  3.2951000000
C   11.4783000000 -3.8632000000  4.1231000000
C   11.0613000000 -2.4802000000  4.2331000000
C   10.1223000000 -1.9712000000  5.2561000000
C   10.5373000000 -1.3232000000  6.3251000000
C   9.8643000000 -1.0622000000  7.5921000000
C   8.6825000000 -1.0450000000  7.8959000000
C   10.8123000000 -0.2992000000  8.5731000000
C   14.6833000000 -4.8512000000 -0.4449000000
C   15.5183000000 -3.8012000000 -0.0889000000
C   16.6953000000 -3.5982000000 -0.8399000000
C   16.9703000000 -4.4882000000 -1.8899000000
C   16.1523000000 -5.5962000000 -2.2009000000
C   14.9513000000 -5.7522000000 -1.5279000000
C   13.6583000000 -4.8752000000  0.4711000000
C   13.8893000000 -3.7772000000  1.2511000000
H   13.1623000000 -1.2452000000  1.7971000000
H   12.5583000000 -5.3772000000  3.0881000000
H   11.7383000000 -5.5442000000  4.9131000000
H   11.8513000000  0.1658000000  2.5901000000
H   9.4643000000 -1.3292000000  4.6731000000
H   11.4933000000 -0.8182000000  6.2071000000
H   7.9073000000 -0.9712000000  7.1161000000
H   8.2313000000 -0.9072000000  8.8131000000
H   11.1183000000  0.6778000000  8.1811000000
H   11.7213000000 -0.7962000000  8.9311000000
H   10.3263000000 -0.0742000000  9.5301000000
H   17.3553000000 -2.7642000000 -0.6209000000
H   16.3753000000 -6.3042000000 -2.9929000000
H   14.4873000000 -6.7332000000 -1.5779000000
H   12.8783000000 -5.6272000000  0.4831000000
H   18.2613000000 -4.9422000000 -3.2189000000
C   10.2430323987 -5.0617961404  10.1221100030
O   12.5740323987 -5.4137961404  10.6101100030
C   11.6010323987 -4.9917961404  9.7641100030
O   8.0200323987 -4.5457961404  9.6501100030
C   12.0590323987 -4.3197961404  8.5841100030
O   6.7720323987 -2.5897961404  5.4501100030
C   11.0800323987 -3.8407961404  7.7271100030
O   5.0690323987 -3.8257961404  3.8831100030
C   9.6930323987 -3.9507961404  7.9941100030
O   6.9830323987 -6.1057961404  0.0631100030
C   9.2970323987 -4.5287961404  9.2131100030
C   8.5208323987 -3.5449961404  7.2004100030
C   8.8600323987 -3.5107961404  5.8431100030
C   7.6350323987 -3.3257961404  5.0651100030
C   7.4690323987 -4.1067961404  3.7561100030
C   8.5930323987 -4.6357961404  3.0641100030
C   6.1610323987 -4.2497961404  3.1861100030
C   8.4190323987 -5.3957961404  1.8951100030
C   5.9970323987 -5.0067961404  1.9931100030
C   7.1570323987 -5.4337961404  1.3071100030
C   4.6010323987 -5.3357961404  1.5761100030
C   4.2160323987 -6.7817961404  1.2871100030
C   4.3940323987 -7.8807961404  2.0921100030
C   3.9260323987 -9.2577961404  1.6411100030
C   5.0990323987 -7.7877961404  3.4631100030
H   9.8780323987 -5.3217961404  11.1111100030
H   13.1320323987 -4.1817961404  8.4891100030
H   11.3900323987 -3.3957961404  6.7861100030
H   12.1110323987 -5.8517961404  11.3451100030
H   7.9660323987 -5.1317961404  10.4251100030
H   7.6290323987 -3.4957961404  7.5811100030
H   9.1260323987 -4.5467961404  5.6671100030
H   9.5780323987 -4.5927961404  3.5181100030
H   9.2450323987 -5.7147961404  1.2661100030
H   5.4720323987 -3.4187961404  4.6701100030
H   6.0420323987 -6.2857961404 -0.1038899970
H   3.7360323987 -4.9597961404  2.1361100030
H   4.4820323987 -4.8477961404  0.6011100030
H   3.5830323987 -6.9617961404  0.4211100030
H   3.4240323987 -9.8087961404  2.4461100030
H   4.8570323987 -9.7787961404  1.3871100030
H   3.1440323987 -9.2197961404  0.8721100030
H   6.0800323987 -8.2597961404  3.5981100030
H   4.4520323987 -8.2547961404  4.2161100030
H   5.1000323987 -6.7677961404  3.8671100030
84
Scanning combination 141/256: [2.2000, 2.5000]  Energy = -385.9570380445
O   11.1233000000 -4.8002000000  5.0341000000
O   11.3873000000 -0.2652000000  3.3291000000
O   18.1143000000 -4.2382000000 -2.5629000000
O   15.0523000000 -3.1142000000  0.9841000000
C   13.0053000000 -3.3232000000  2.3291000000
C   12.6993000000 -1.9792000000  2.4491000000
C   12.3973000000 -4.3072000000  3.1831000000
C   11.6323000000 -1.5992000000  3.2951000000
C   11.4783000000 -3.8632000000  4.1231000000
C   11.0613000000 -2.4802000000  4.2331000000
C   10.1223000000 -1.9712000000  5.2561000000
C   10.5373000000 -1.3232000000  6.3251000000
C   9.8643000000 -1.0622000000  7.5921000000
C   8.6825000000 -1.0450000000  7.8959000000
C   10.8123000000 -0.2992000000  8.5731000000
C   14.6833000000 -4.8512000000 -0.4449000000
C   15.5183000000 -3.8012000000 -0.0889000000
C   16.6953000000 -3.5982000000 -0.8399000000
C   16.9703000000 -4.4882000000 -1.8899000000
C   16.1523000000 -5.5962000000 -2.2009000000
C   14.9513000000 -5.7522000000 -1.5279000000
C   13.6583000000 -4.8752000000  0.4711000000
C   13.8893000000 -3.7772000000  1.2511000000
H   13.1623000000 -1.2452000000  1.7971000000
H   12.5583000000 -5.3772000000  3.0881000000
H   11.7383000000 -5.5442000000  4.9131000000
H   11.8513000000  0.1658000000  2.5901000000
H   9.4643000000 -1.3292000000  4.6731000000
H   11.4933000000 -0.8182000000  6.2071000000
H   7.9073000000 -0.9712000000  7.1161000000
H   8.2313000000 -0.9072000000  8.8131000000
H   11.1183000000  0.6778000000  8.1811000000
H   11.7213000000 -0.7962000000  8.9311000000
H   10.3263000000 -0.0742000000  9.5301000000
H   17.3553000000 -2.7642000000 -0.6209000000
H   16.3753000000 -6.3042000000 -2.9929000000
H   14.4873000000 -6.7332000000 -1.5779000000
H   12.8783000000 -5.6272000000  0.4831000000
H   18.2613000000 -4.9422000000 -3.2189000000
C   10.1837762280 -4.9749304480  10.2029258021
O   12.5147762280 -5.3269304480  10.6909258021
C   11.5417762280 -4.9049304480  9.8449258021
O   7.9607762280 -4.4589304480  9.7309258021
C   11.9997762280 -4.2329304480  8.6649258021
O   6.7127762280 -2.5029304480  5.5309258021
C   11.0207762280 -3.7539304480  7.8079258021
O   5.0097762280 -3.7389304480  3.9639258021
C   9.6337762280 -3.8639304480  8.0749258021
O   6.9237762280 -6.0189304480  0.1439258021
C   9.2377762280 -4.4419304480  9.2939258021
C   8.4615762280 -3.4581304480  7.2812258021
C   8.8007762280 -3.4239304480  5.9239258021
C   7.5757762280 -3.2389304480  5.1459258021
C   7.4097762280 -4.0199304480  3.8369258021
C   8.5337762280 -4.5489304480  3.1449258021
C   6.1017762280 -4.1629304480  3.2669258021
C   8.3597762280 -5.3089304480  1.9759258021
C   5.9377762280 -4.9199304480  2.0739258021
C   7.0977762280 -5.3469304480  1.3879258021
C   4.5417762280 -5.2489304480  1.6569258021
C   4.1567762280 -6.6949304480  1.3679258021
C   4.3347762280 -7.7939304480  2.1729258021
C   3.8667762280 -9.1709304480  1.7219258021
C   5.0397762280 -7.7009304480  3.5439258021
H   9.8187762280 -5.2349304480  11.1919258021
H   13.0727762280 -4.0949304480  8.5699258021
H   11.3307762280 -3.3089304480  6.8669258021
H   12.0517762280 -5.7649304480  11.4259258021
H   7.9067762280 -5.0449304480  10.5059258021
H   7.5697762280 -3.4089304480  7.6619258021
H   9.0667762280 -4.4599304480  5.7479258021
H   9.5187762280 -4.5059304480  3.5989258021
H   9.1857762280 -5.6279304480  1.3469258021
H   5.4127762280 -3.3319304480  4.7509258021
H   5.9827762280 -6.1989304480 -0.0230741979
H   3.6767762280 -4.8729304480  2.2169258021
H   4.4227762280 -4.7609304480  0.6819258021
H   3.5237762280 -6.8749304480  0.5019258021
H   3.3647762280 -9.7219304480  2.5269258021
H   4.7977762280 -9.6919304480  1.4679258021
H   3.0847762280 -9.1329304480  0.9529258021
H   6.0207762280 -8.1729304480  3.6789258021
H   4.3927762280 -8.1679304480  4.2969258021
H   5.0407762280 -6.6809304480  3.9479258021
84
Scanning combination 142/256: [2.2000, 2.4000]  Energy = -385.9493414160
O   11.1233000000 -4.8002000000  5.0341000000
O   11.3873000000 -0.2652000000  3.3291000000
O   18.1143000000 -4.2382000000 -2.5629000000
O   15.0523000000 -3.1142000000  0.9841000000
C   13.0053000000 -3.3232000000  2.3291000000
C   12.6993000000 -1.9792000000  2.4491000000
C   12.3973000000 -4.3072000000  3.1831000000
C   11.6323000000 -1.5992000000  3.2951000000
C   11.4783000000 -3.8632000000  4.1231000000
C   11.0613000000 -2.4802000000  4.2331000000
C   10.1223000000 -1.9712000000  5.2561000000
C   10.5373000000 -1.3232000000  6.3251000000
C   9.8643000000 -1.0622000000  7.5921000000
C   8.6825000000 -1.0450000000  7.8959000000
C   10.8123000000 -0.2992000000  8.5731000000
C   14.6833000000 -4.8512000000 -0.4449000000
C   15.5183000000 -3.8012000000 -0.0889000000
C   16.6953000000 -3.5982000000 -0.8399000000
C   16.9703000000 -4.4882000000 -1.8899000000
C   16.1523000000 -5.5962000000 -2.2009000000
C   14.9513000000 -5.7522000000 -1.5279000000
C   13.6583000000 -4.8752000000  0.4711000000
C   13.8893000000 -3.7772000000  1.2511000000
H   13.1623000000 -1.2452000000  1.7971000000
H   12.5583000000 -5.3772000000  3.0881000000
H   11.7383000000 -5.5442000000  4.9131000000
H   11.8513000000  0.1658000000  2.5901000000
H   9.4643000000 -1.3292000000  4.6731000000
H   11.4933000000 -0.8182000000  6.2071000000
H   7.9073000000 -0.9712000000  7.1161000000
H   8.2313000000 -0.9072000000  8.8131000000
H   11.1183000000  0.6778000000  8.1811000000
H   11.7213000000 -0.7962000000  8.9311000000
H   10.3263000000 -0.0742000000  9.5301000000
H   17.3553000000 -2.7642000000 -0.6209000000
H   16.3753000000 -6.3042000000 -2.9929000000
H   14.4873000000 -6.7332000000 -1.5779000000
H   12.8783000000 -5.6272000000  0.4831000000
H   18.2613000000 -4.9422000000 -3.2189000000
C   10.1251064668 -4.8849899205  10.2842585692
O   12.4561064668 -5.2369899205  10.7722585692
C   11.4831064668 -4.8149899205  9.9262585692
O   7.9021064668 -4.3689899205  9.8122585692
C   11.9411064668 -4.1429899205  8.7462585692
O   6.6541064668 -2.4129899205  5.6122585692
C   10.9621064668 -3.6639899205  7.8892585692
O   4.9511064668 -3.6489899205  4.0452585692
C   9.5751064668 -3.7739899205  8.1562585692
O   6.8651064668 -5.9289899205  0.2252585692
C   9.1791064668 -4.3519899205  9.3752585692
C   8.4029064668 -3.3681899205  7.3625585692
C   8.7421064668 -3.3339899205  6.0052585692
C   7.5171064668 -3.1489899205  5.2272585692
C   7.3511064668 -3.9299899205  3.9182585692
C   8.4751064668 -4.4589899205  3.2262585692
C   6.0431064668 -4.0729899205  3.3482585692
C   8.3011064668 -5.2189899205  2.0572585692
C   5.8791064668 -4.8299899205  2.1552585692
C   7.0391064668 -5.2569899205  1.4692585692
C   4.4831064668 -5.1589899205  1.7382585692
C   4.0981064668 -6.6049899205  1.4492585692
C   4.2761064668 -7.7039899205  2.2542585692
C   3.8081064668 -9.0809899205  1.8032585692
C   4.9811064668 -7.6109899205  3.6252585692
H   9.7601064668 -5.1449899205  11.2732585692
H   13.0141064668 -4.0049899205  8.6512585692
H   11.2721064668 -3.2189899205  6.9482585692
H   11.9931064668 -5.6749899205  11.5072585692
H   7.8481064668 -4.9549899205  10.5872585692
H   7.5111064668 -3.3189899205  7.7432585692
H   9.0081064668 -4.3699899205  5.8292585692
H   9.4601064668 -4.4159899205  3.6802585692
H   9.1271064668 -5.5379899205  1.4282585692
H   5.3541064668 -3.2419899205  4.8322585692
H   5.9241064668 -6.1089899205  0.0582585692
H   3.6181064668 -4.7829899205  2.2982585692
H   4.3641064668 -4.6709899205  0.7632585692
H   3.4651064668 -6.7849899205  0.5832585692
H   3.3061064668 -9.6319899205  2.6082585692
H   4.7391064668 -9.6019899205  1.5492585692
H   3.0261064668 -9.0429899205  1.0342585692
H   5.9621064668 -8.0829899205  3.7602585692
H   4.3341064668 -8.0779899205  4.3782585692
H   4.9821064668 -6.5909899205  4.0292585692
84
Scanning combination 143/256: [2.2000, 2.3000]  Energy = -385.9383770224
O   11.1233000000 -4.8002000000  5.0341000000
O   11.3873000000 -0.2652000000  3.3291000000
O   18.1143000000 -4.2382000000 -2.5629000000
O   15.0523000000 -3.1142000000  0.9841000000
C   13.0053000000 -3.3232000000  2.3291000000
C   12.6993000000 -1.9792000000  2.4491000000
C   12.3973000000 -4.3072000000  3.1831000000
C   11.6323000000 -1.5992000000  3.2951000000
C   11.4783000000 -3.8632000000  4.1231000000
C   11.0613000000 -2.4802000000  4.2331000000
C   10.1223000000 -1.9712000000  5.2561000000
C   10.5373000000 -1.3232000000  6.3251000000
C   9.8643000000 -1.0622000000  7.5921000000
C   8.6825000000 -1.0450000000  7.8959000000
C   10.8123000000 -0.2992000000  8.5731000000
C   14.6833000000 -4.8512000000 -0.4449000000
C   15.5183000000 -3.8012000000 -0.0889000000
C   16.6953000000 -3.5982000000 -0.8399000000
C   16.9703000000 -4.4882000000 -1.8899000000
C   16.1523000000 -5.5962000000 -2.2009000000
C   14.9513000000 -5.7522000000 -1.5279000000
C   13.6583000000 -4.8752000000  0.4711000000
C   13.8893000000 -3.7772000000  1.2511000000
H   13.1623000000 -1.2452000000  1.7971000000
H   12.5583000000 -5.3772000000  3.0881000000
H   11.7383000000 -5.5442000000  4.9131000000
H   11.8513000000  0.1658000000  2.5901000000
H   9.4643000000 -1.3292000000  4.6731000000
H   11.4933000000 -0.8182000000  6.2071000000
H   7.9073000000 -0.9712000000  7.1161000000
H   8.2313000000 -0.9072000000  8.8131000000
H   11.1183000000  0.6778000000  8.1811000000
H   11.7213000000 -0.7962000000  8.9311000000
H   10.3263000000 -0.0742000000  9.5301000000
H   17.3553000000 -2.7642000000 -0.6209000000
H   16.3753000000 -6.3042000000 -2.9929000000
H   14.4873000000 -6.7332000000 -1.5779000000
H   12.8783000000 -5.6272000000  0.4831000000
H   18.2613000000 -4.9422000000 -3.2189000000
C   10.0707913091 -4.7915218892  10.3629692647
O   12.4017913091 -5.1435218892  10.8509692647
C   11.4287913091 -4.7215218892  10.0049692647
O   7.8477913091 -4.2755218892  9.8909692647
C   11.8867913091 -4.0495218892  8.8249692647
O   6.5997913091 -2.3195218892  5.6909692647
C   10.9077913091 -3.5705218892  7.9679692647
O   4.8967913091 -3.5555218892  4.1239692647
C   9.5207913091 -3.6805218892  8.2349692647
O   6.8107913091 -5.8355218892  0.3039692647
C   9.1247913091 -4.2585218892  9.4539692647
C   8.3485913091 -3.2747218892  7.4412692647
C   8.6877913091 -3.2405218892  6.0839692647
C   7.4627913091 -3.0555218892  5.3059692647
C   7.2967913091 -3.8365218892  3.9969692647
C   8.4207913091 -4.3655218892  3.3049692647
C   5.9887913091 -3.9795218892  3.4269692647
C   8.2467913091 -5.1255218892  2.1359692647
C   5.8247913091 -4.7365218892  2.2339692647
C   6.9847913091 -5.1635218892  1.5479692647
C   4.4287913091 -5.0655218892  1.8169692647
C   4.0437913091 -6.5115218892  1.5279692647
C   4.2217913091 -7.6105218892  2.3329692647
C   3.7537913091 -8.9875218892  1.8819692647
C   4.9267913091 -7.5175218892  3.7039692647
H   9.7057913091 -5.0515218892  11.3519692647
H   12.9597913091 -3.9115218892  8.7299692647
H   11.2177913091 -3.1255218892  7.0269692647
H   11.9387913091 -5.5815218892  11.5859692647
H   7.7937913091 -4.8615218892  10.6659692647
H   7.4567913091 -3.2255218892  7.8219692647
H   8.9537913091 -4.2765218892  5.9079692647
H   9.4057913091 -4.3225218892  3.7589692647
H   9.0727913091 -5.4445218892  1.5069692647
H   5.2997913091 -3.1485218892  4.9109692647
H   5.8697913091 -6.0155218892  0.1369692647
H   3.5637913091 -4.6895218892  2.3769692647
H   4.3097913091 -4.5775218892  0.8419692647
H   3.4107913091 -6.6915218892  0.6619692647
H   3.2517913091 -9.5385218892  2.6869692647
H   4.6847913091 -9.5085218892  1.6279692647
H   2.9717913091 -8.9495218892  1.1129692647
H   5.9077913091 -7.9895218892  3.8389692647
H   4.2797913091 -7.9845218892  4.4569692647
H   4.9277913091 -6.4975218892  4.1079692647
84
Scanning combination 144/256: [2.2000, 2.2000]  Energy = -385.9245680567
O   11.1233000000 -4.8002000000  5.0341000000
O   11.3873000000 -0.2652000000  3.3291000000
O   18.1143000000 -4.2382000000 -2.5629000000
O   15.0523000000 -3.1142000000  0.9841000000
C   13.0053000000 -3.3232000000  2.3291000000
C   12.6993000000 -1.9792000000  2.4491000000
C   12.3973000000 -4.3072000000  3.1831000000
C   11.6323000000 -1.5992000000  3.2951000000
C   11.4783000000 -3.8632000000  4.1231000000
C   11.0613000000 -2.4802000000  4.2331000000
C   10.1223000000 -1.9712000000  5.2561000000
C   10.5373000000 -1.3232000000  6.3251000000
C   9.8643000000 -1.0622000000  7.5921000000
C   8.6825000000 -1.0450000000  7.8959000000
C   10.8123000000 -0.2992000000  8.5731000000
C   14.6833000000 -4.8512000000 -0.4449000000
C   15.5183000000 -3.8012000000 -0.0889000000
C   16.6953000000 -3.5982000000 -0.8399000000
C   16.9703000000 -4.4882000000 -1.8899000000
C   16.1523000000 -5.5962000000 -2.2009000000
C   14.9513000000 -5.7522000000 -1.5279000000
C   13.6583000000 -4.8752000000  0.4711000000
C   13.8893000000 -3.7772000000  1.2511000000
H   13.1623000000 -1.2452000000  1.7971000000
H   12.5583000000 -5.3772000000  3.0881000000
H   11.7383000000 -5.5442000000  4.9131000000
H   11.8513000000  0.1658000000  2.5901000000
H   9.4643000000 -1.3292000000  4.6731000000
H   11.4933000000 -0.8182000000  6.2071000000
H   7.9073000000 -0.9712000000  7.1161000000
H   8.2313000000 -0.9072000000  8.8131000000
H   11.1183000000  0.6778000000  8.1811000000
H   11.7213000000 -0.7962000000  8.9311000000
H   10.3263000000 -0.0742000000  9.5301000000
H   17.3553000000 -2.7642000000 -0.6209000000
H   16.3753000000 -6.3042000000 -2.9929000000
H   14.4873000000 -6.7332000000 -1.5779000000
H   12.8783000000 -5.6272000000  0.4831000000
H   18.2613000000 -4.9422000000 -3.2189000000
C   10.0225754783 -4.6947165834  10.4374706653
O   12.3535754783 -5.0467165834  10.9254706653
C   11.3805754783 -4.6247165834  10.0794706653
O   7.7995754783 -4.1787165834  9.9654706653
C   11.8385754783 -3.9527165834  8.8994706653
O   6.5515754783 -2.2227165834  5.7654706653
C   10.8595754783 -3.4737165834  8.0424706653
O   4.8485754783 -3.4587165834  4.1984706653
C   9.4725754783 -3.5837165834  8.3094706653
O   6.7625754783 -5.7387165834  0.3784706653
C   9.0765754783 -4.1617165834  9.5284706653
C   8.3003754783 -3.1779165834  7.5157706653
C   8.6395754783 -3.1437165834  6.1584706653
C   7.4145754783 -2.9587165834  5.3804706653
C   7.2485754783 -3.7397165834  4.0714706653
C   8.3725754783 -4.2687165834  3.3794706653
C   5.9405754783 -3.8827165834  3.5014706653
C   8.1985754783 -5.0287165834  2.2104706653
C   5.7765754783 -4.6397165834  2.3084706653
C   6.9365754783 -5.0667165834  1.6224706653
C   4.3805754783 -4.9687165834  1.8914706653
C   3.9955754783 -6.4147165834  1.6024706653
C   4.1735754783 -7.5137165834  2.4074706653
C   3.7055754783 -8.8907165834  1.9564706653
C   4.8785754783 -7.4207165834  3.7784706653
H   9.6575754783 -4.9547165834  11.4264706653
H   12.9115754783 -3.8147165834  8.8044706653
H   11.1695754783 -3.0287165834  7.1014706653
H   11.8905754783 -5.4847165834  11.6604706653
H   7.7455754783 -4.7647165834  10.7404706653
H   7.4085754783 -3.1287165834  7.8964706653
H   8.9055754783 -4.1797165834  5.9824706653
H   9.3575754783 -4.2257165834  3.8334706653
H   9.0245754783 -5.3477165834  1.5814706653
H   5.2515754783 -3.0517165834  4.9854706653
H   5.8215754783 -5.9187165834  0.2114706653
H   3.5155754783 -4.5927165834  2.4514706653
H   4.2615754783 -4.4807165834  0.9164706653
H   3.3625754783 -6.5947165834  0.7364706653
H   3.2035754783 -9.4417165834  2.7614706653
H   4.6365754783 -9.4117165834  1.7024706653
H   2.9235754783 -8.8527165834  1.1874706653
H   5.8595754783 -7.8927165834  3.9134706653
H   4.2315754783 -7.8877165834  4.5314706653
H   4.8795754783 -6.4007165834  4.1824706653
84
Scanning combination 145/256: [2.2000, 2.1000]  Energy = -385.9067054983
O   11.1233000000 -4.8002000000  5.0341000000
O   11.3873000000 -0.2652000000  3.3291000000
O   18.1143000000 -4.2382000000 -2.5629000000
O   15.0523000000 -3.1142000000  0.9841000000
C   13.0053000000 -3.3232000000  2.3291000000
C   12.6993000000 -1.9792000000  2.4491000000
C   12.3973000000 -4.3072000000  3.1831000000
C   11.6323000000 -1.5992000000  3.2951000000
C   11.4783000000 -3.8632000000  4.1231000000
C   11.0613000000 -2.4802000000  4.2331000000
C   10.1223000000 -1.9712000000  5.2561000000
C   10.5373000000 -1.3232000000  6.3251000000
C   9.8643000000 -1.0622000000  7.5921000000
C   8.6825000000 -1.0450000000  7.8959000000
C   10.8123000000 -0.2992000000  8.5731000000
C   14.6833000000 -4.8512000000 -0.4449000000
C   15.5183000000 -3.8012000000 -0.0889000000
C   16.6953000000 -3.5982000000 -0.8399000000
C   16.9703000000 -4.4882000000 -1.8899000000
C   16.1523000000 -5.5962000000 -2.2009000000
C   14.9513000000 -5.7522000000 -1.5279000000
C   13.6583000000 -4.8752000000  0.4711000000
C   13.8893000000 -3.7772000000  1.2511000000
H   13.1623000000 -1.2452000000  1.7971000000
H   12.5583000000 -5.3772000000  3.0881000000
H   11.7383000000 -5.5442000000  4.9131000000
H   11.8513000000  0.1658000000  2.5901000000
H   9.4643000000 -1.3292000000  4.6731000000
H   11.4933000000 -0.8182000000  6.2071000000
H   7.9073000000 -0.9712000000  7.1161000000
H   8.2313000000 -0.9072000000  8.8131000000
H   11.1183000000  0.6778000000  8.1811000000
H   11.7213000000 -0.7962000000  8.9311000000
H   10.3263000000 -0.0742000000  9.5301000000
H   17.3553000000 -2.7642000000 -0.6209000000
H   16.3753000000 -6.3042000000 -2.9929000000
H   14.4873000000 -6.7332000000 -1.5779000000
H   12.8783000000 -5.6272000000  0.4831000000
H   18.2613000000 -4.9422000000 -3.2189000000
C   9.9810373258 -4.5950150364  10.5071101329
O   12.3120373258 -4.9470150364  10.9951101329
C   11.3390373258 -4.5250150364  10.1491101329
O   7.7580373258 -4.0790150364  10.0351101329
C   11.7970373258 -3.8530150364  8.9691101329
O   6.5100373258 -2.1230150364  5.8351101329
C   10.8180373258 -3.3740150364  8.1121101329
O   4.8070373258 -3.3590150364  4.2681101329
C   9.4310373258 -3.4840150364  8.3791101329
O   6.7210373258 -5.6390150364  0.4481101329
C   9.0350373258 -4.0620150364  9.5981101329
C   8.2588373258 -3.0782150364  7.5854101329
C   8.5980373258 -3.0440150364  6.2281101329
C   7.3730373258 -2.8590150364  5.4501101329
C   7.2070373258 -3.6400150364  4.1411101329
C   8.3310373258 -4.1690150364  3.4491101329
C   5.8990373258 -3.7830150364  3.5711101329
C   8.1570373258 -4.9290150364  2.2801101329
C   5.7350373258 -4.5400150364  2.3781101329
C   6.8950373258 -4.9670150364  1.6921101329
C   4.3390373258 -4.8690150364  1.9611101329
C   3.9540373258 -6.3150150364  1.6721101329
C   4.1320373258 -7.4140150364  2.4771101329
C   3.6640373258 -8.7910150364  2.0261101329
C   4.8370373258 -7.3210150364  3.8481101329
H   9.6160373258 -4.8550150364  11.4961101329
H   12.8700373258 -3.7150150364  8.8741101329
H   11.1280373258 -2.9290150364  7.1711101329
H   11.8490373258 -5.3850150364  11.7301101329
H   7.7040373258 -4.6650150364  10.8101101329
H   7.3670373258 -3.0290150364  7.9661101329
H   8.8640373258 -4.0800150364  6.0521101329
H   9.3160373258 -4.1260150364  3.9031101329
H   8.9830373258 -5.2480150364  1.6511101329
H   5.2100373258 -2.9520150364  5.0551101329
H   5.7800373258 -5.8190150364  0.2811101329
H   3.4740373258 -4.4930150364  2.5211101329
H   4.2200373258 -4.3810150364  0.9861101329
H   3.3210373258 -6.4950150364  0.8061101329
H   3.1620373258 -9.3420150364  2.8311101329
H   4.5950373258 -9.3120150364  1.7721101329
H   2.8820373258 -8.7530150364  1.2571101329
H   5.8180373258 -7.7930150364  3.9831101329
H   4.1900373258 -7.7880150364  4.6011101329
H   4.8380373258 -6.3010150364  4.2521101329
84
Scanning combination 146/256: [2.2000, 2.0000]  Energy = -385.8838907476
O   11.1233000000 -4.8002000000  5.0341000000
O   11.3873000000 -0.2652000000  3.3291000000
O   18.1143000000 -4.2382000000 -2.5629000000
O   15.0523000000 -3.1142000000  0.9841000000
C   13.0053000000 -3.3232000000  2.3291000000
C   12.6993000000 -1.9792000000  2.4491000000
C   12.3973000000 -4.3072000000  3.1831000000
C   11.6323000000 -1.5992000000  3.2951000000
C   11.4783000000 -3.8632000000  4.1231000000
C   11.0613000000 -2.4802000000  4.2331000000
C   10.1223000000 -1.9712000000  5.2561000000
C   10.5373000000 -1.3232000000  6.3251000000
C   9.8643000000 -1.0622000000  7.5921000000
C   8.6825000000 -1.0450000000  7.8959000000
C   10.8123000000 -0.2992000000  8.5731000000
C   14.6833000000 -4.8512000000 -0.4449000000
C   15.5183000000 -3.8012000000 -0.0889000000
C   16.6953000000 -3.5982000000 -0.8399000000
C   16.9703000000 -4.4882000000 -1.8899000000
C   16.1523000000 -5.5962000000 -2.2009000000
C   14.9513000000 -5.7522000000 -1.5279000000
C   13.6583000000 -4.8752000000  0.4711000000
C   13.8893000000 -3.7772000000  1.2511000000
H   13.1623000000 -1.2452000000  1.7971000000
H   12.5583000000 -5.3772000000  3.0881000000
H   11.7383000000 -5.5442000000  4.9131000000
H   11.8513000000  0.1658000000  2.5901000000
H   9.4643000000 -1.3292000000  4.6731000000
H   11.4933000000 -0.8182000000  6.2071000000
H   7.9073000000 -0.9712000000  7.1161000000
H   8.2313000000 -0.9072000000  8.8131000000
H   11.1183000000  0.6778000000  8.1811000000
H   11.7213000000 -0.7962000000  8.9311000000
H   10.3263000000 -0.0742000000  9.5301000000
H   17.3553000000 -2.7642000000 -0.6209000000
H   16.3753000000 -6.3042000000 -2.9929000000
H   14.4873000000 -6.7332000000 -1.5779000000
H   12.8783000000 -5.6272000000  0.4831000000
H   18.2613000000 -4.9422000000 -3.2189000000
C   9.9461752463 -4.4929046568  10.5717259503
O   12.2771752463 -4.8449046568  11.0597259503
C   11.3041752463 -4.4229046568  10.2137259503
O   7.7231752463 -3.9769046568  10.0997259503
C   11.7621752463 -3.7509046568  9.0337259503
O   6.4751752463 -2.0209046568  5.8997259503
C   10.7831752463 -3.2719046568  8.1767259503
O   4.7721752463 -3.2569046568  4.3327259503
C   9.3961752463 -3.3819046568  8.4437259503
O   6.6861752463 -5.5369046568  0.5127259503
C   9.0001752463 -3.9599046568  9.6627259503
C   8.2239752463 -2.9761046568  7.6500259503
C   8.5631752463 -2.9419046568  6.2927259503
C   7.3381752463 -2.7569046568  5.5147259503
C   7.1721752463 -3.5379046568  4.2057259503
C   8.2961752463 -4.0669046568  3.5137259503
C   5.8641752463 -3.6809046568  3.6357259503
C   8.1221752463 -4.8269046568  2.3447259503
C   5.7001752463 -4.4379046568  2.4427259503
C   6.8601752463 -4.8649046568  1.7567259503
C   4.3041752463 -4.7669046568  2.0257259503
C   3.9191752463 -6.2129046568  1.7367259503
C   4.0971752463 -7.3119046568  2.5417259503
C   3.6291752463 -8.6889046568  2.0907259503
C   4.8021752463 -7.2189046568  3.9127259503
H   9.5811752463 -4.7529046568  11.5607259503
H   12.8351752463 -3.6129046568  8.9387259503
H   11.0931752463 -2.8269046568  7.2357259503
H   11.8141752463 -5.2829046568  11.7947259503
H   7.6691752463 -4.5629046568  10.8747259503
H   7.3321752463 -2.9269046568  8.0307259503
H   8.8291752463 -3.9779046568  6.1167259503
H   9.2811752463 -4.0239046568  3.9677259503
H   8.9481752463 -5.1459046568  1.7157259503
H   5.1751752463 -2.8499046568  5.1197259503
H   5.7451752463 -5.7169046568  0.3457259503
H   3.4391752463 -4.3909046568  2.5857259503
H   4.1851752463 -4.2789046568  1.0507259503
H   3.2861752463 -6.3929046568  0.8707259503
H   3.1271752463 -9.2399046568  2.8957259503
H   4.5601752463 -9.2099046568  1.8367259503
H   2.8471752463 -8.6509046568  1.3217259503
H   5.7831752463 -7.6909046568  4.0477259503
H   4.1551752463 -7.6859046568  4.6657259503
H   4.8031752463 -6.1989046568  4.3167259503
84
Scanning combination 147/256: [2.2000, 1.9000]  Energy = -385.8560608622
O   11.1233000000 -4.8002000000  5.0341000000
O   11.3873000000 -0.2652000000  3.3291000000
O   18.1143000000 -4.2382000000 -2.5629000000
O   15.0523000000 -3.1142000000  0.9841000000
C   13.0053000000 -3.3232000000  2.3291000000
C   12.6993000000 -1.9792000000  2.4491000000
C   12.3973000000 -4.3072000000  3.1831000000
C   11.6323000000 -1.5992000000  3.2951000000
C   11.4783000000 -3.8632000000  4.1231000000
C   11.0613000000 -2.4802000000  4.2331000000
C   10.1223000000 -1.9712000000  5.2561000000
C   10.5373000000 -1.3232000000  6.3251000000
C   9.8643000000 -1.0622000000  7.5921000000
C   8.6825000000 -1.0450000000  7.8959000000
C   10.8123000000 -0.2992000000  8.5731000000
C   14.6833000000 -4.8512000000 -0.4449000000
C   15.5183000000 -3.8012000000 -0.0889000000
C   16.6953000000 -3.5982000000 -0.8399000000
C   16.9703000000 -4.4882000000 -1.8899000000
C   16.1523000000 -5.5962000000 -2.2009000000
C   14.9513000000 -5.7522000000 -1.5279000000
C   13.6583000000 -4.8752000000  0.4711000000
C   13.8893000000 -3.7772000000  1.2511000000
H   13.1623000000 -1.2452000000  1.7971000000
H   12.5583000000 -5.3772000000  3.0881000000
H   11.7383000000 -5.5442000000  4.9131000000
H   11.8513000000  0.1658000000  2.5901000000
H   9.4643000000 -1.3292000000  4.6731000000
H   11.4933000000 -0.8182000000  6.2071000000
H   7.9073000000 -0.9712000000  7.1161000000
H   8.2313000000 -0.9072000000  8.8131000000
H   11.1183000000  0.6778000000  8.1811000000
H   11.7213000000 -0.7962000000  8.9311000000
H   10.3263000000 -0.0742000000  9.5301000000
H   17.3553000000 -2.7642000000 -0.6209000000
H   16.3753000000 -6.3042000000 -2.9929000000
H   14.4873000000 -6.7332000000 -1.5779000000
H   12.8783000000 -5.6272000000  0.4831000000
H   18.2613000000 -4.9422000000 -3.2189000000
C   9.9177516707 -4.3888391580  10.6313737294
O   12.2487516707 -4.7408391580  11.1193737294
C   11.2757516707 -4.3188391580  10.2733737294
O   7.6947516707 -3.8728391580  10.1593737294
C   11.7337516707 -3.6468391580  9.0933737294
O   6.4467516707 -1.9168391580  5.9593737294
C   10.7547516707 -3.1678391580  8.2363737294
O   4.7437516707 -3.1528391580  4.3923737294
C   9.3677516707 -3.2778391580  8.5033737294
O   6.6577516707 -5.4328391580  0.5723737294
C   8.9717516707 -3.8558391580  9.7223737294
C   8.1955516707 -2.8720391580  7.7096737294
C   8.5347516707 -2.8378391580  6.3523737294
C   7.3097516707 -2.6528391580  5.5743737294
C   7.1437516707 -3.4338391580  4.2653737294
C   8.2677516707 -3.9628391580  3.5733737294
C   5.8357516707 -3.5768391580  3.6953737294
C   8.0937516707 -4.7228391580  2.4043737294
C   5.6717516707 -4.3338391580  2.5023737294
C   6.8317516707 -4.7608391580  1.8163737294
C   4.2757516707 -4.6628391580  2.0853737294
C   3.8907516707 -6.1088391580  1.7963737294
C   4.0687516707 -7.2078391580  2.6013737294
C   3.6007516707 -8.5848391580  2.1503737294
C   4.7737516707 -7.1148391580  3.9723737294
H   9.5527516707 -4.6488391580  11.6203737294
H   12.8067516707 -3.5088391580  8.9983737294
H   11.0647516707 -2.7228391580  7.2953737294
H   11.7857516707 -5.1788391580  11.8543737294
H   7.6407516707 -4.4588391580  10.9343737294
H   7.3037516707 -2.8228391580  8.0903737294
H   8.8007516707 -3.8738391580  6.1763737294
H   9.2527516707 -3.9198391580  4.0273737294
H   8.9197516707 -5.0418391580  1.7753737294
H   5.1467516707 -2.7458391580  5.1793737294
H   5.7167516707 -5.6128391580  0.4053737294
H   3.4107516707 -4.2868391580  2.6453737294
H   4.1567516707 -4.1748391580  1.1103737294
H   3.2577516707 -6.2888391580  0.9303737294
H   3.0987516707 -9.1358391580  2.9553737294
H   4.5317516707 -9.1058391580  1.8963737294
H   2.8187516707 -8.5468391580  1.3813737294
H   5.7547516707 -7.5868391580  4.1073737294
H   4.1267516707 -7.5818391580  4.7253737294
H   4.7747516707 -6.0948391580  4.3763737294
84
Scanning combination 148/256: [2.2000, 1.8000]  Energy = -385.8220533129
O   11.1233000000 -4.8002000000  5.0341000000
O   11.3873000000 -0.2652000000  3.3291000000
O   18.1143000000 -4.2382000000 -2.5629000000
O   15.0523000000 -3.1142000000  0.9841000000
C   13.0053000000 -3.3232000000  2.3291000000
C   12.6993000000 -1.9792000000  2.4491000000
C   12.3973000000 -4.3072000000  3.1831000000
C   11.6323000000 -1.5992000000  3.2951000000
C   11.4783000000 -3.8632000000  4.1231000000
C   11.0613000000 -2.4802000000  4.2331000000
C   10.1223000000 -1.9712000000  5.2561000000
C   10.5373000000 -1.3232000000  6.3251000000
C   9.8643000000 -1.0622000000  7.5921000000
C   8.6825000000 -1.0450000000  7.8959000000
C   10.8123000000 -0.2992000000  8.5731000000
C   14.6833000000 -4.8512000000 -0.4449000000
C   15.5183000000 -3.8012000000 -0.0889000000
C   16.6953000000 -3.5982000000 -0.8399000000
C   16.9703000000 -4.4882000000 -1.8899000000
C   16.1523000000 -5.5962000000 -2.2009000000
C   14.9513000000 -5.7522000000 -1.5279000000
C   13.6583000000 -4.8752000000  0.4711000000
C   13.8893000000 -3.7772000000  1.2511000000
H   13.1623000000 -1.2452000000  1.7971000000
H   12.5583000000 -5.3772000000  3.0881000000
H   11.7383000000 -5.5442000000  4.9131000000
H   11.8513000000  0.1658000000  2.5901000000
H   9.4643000000 -1.3292000000  4.6731000000
H   11.4933000000 -0.8182000000  6.2071000000
H   7.9073000000 -0.9712000000  7.1161000000
H   8.2313000000 -0.9072000000  8.8131000000
H   11.1183000000  0.6778000000  8.1811000000
H   11.7213000000 -0.7962000000  8.9311000000
H   10.3263000000 -0.0742000000  9.5301000000
H   17.3553000000 -2.7642000000 -0.6209000000
H   16.3753000000 -6.3042000000 -2.9929000000
H   14.4873000000 -6.7332000000 -1.5779000000
H   12.8783000000 -5.6272000000  0.4831000000
H   18.2613000000 -4.9422000000 -3.2189000000
C   9.8954652912 -4.2832200960  10.6861821967
O   12.2264652912 -4.6352200960  11.1741821967
C   11.2534652912 -4.2132200960  10.3281821967
O   7.6724652912 -3.7672200960  10.2141821967
C   11.7114652912 -3.5412200960  9.1481821967
O   6.4244652912 -1.8112200960  6.0141821967
C   10.7324652912 -3.0622200960  8.2911821967
O   4.7214652912 -3.0472200960  4.4471821967
C   9.3454652912 -3.1722200960  8.5581821967
O   6.6354652912 -5.3272200960  0.6271821967
C   8.9494652912 -3.7502200960  9.7771821967
C   8.1732652912 -2.7664200960  7.7644821967
C   8.5124652912 -2.7322200960  6.4071821967
C   7.2874652912 -2.5472200960  5.6291821967
C   7.1214652912 -3.3282200960  4.3201821967
C   8.2454652912 -3.8572200960  3.6281821967
C   5.8134652912 -3.4712200960  3.7501821967
C   8.0714652912 -4.6172200960  2.4591821967
C   5.6494652912 -4.2282200960  2.5571821967
C   6.8094652912 -4.6552200960  1.8711821967
C   4.2534652912 -4.5572200960  2.1401821967
C   3.8684652912 -6.0032200960  1.8511821967
C   4.0464652912 -7.1022200960  2.6561821967
C   3.5784652912 -8.4792200960  2.2051821967
C   4.7514652912 -7.0092200960  4.0271821967
H   9.5304652912 -4.5432200960  11.6751821967
H   12.7844652912 -3.4032200960  9.0531821967
H   11.0424652912 -2.6172200960  7.3501821967
H   11.7634652912 -5.0732200960  11.9091821967
H   7.6184652912 -4.3532200960  10.9891821967
H   7.2814652912 -2.7172200960  8.1451821967
H   8.7784652912 -3.7682200960  6.2311821967
H   9.2304652912 -3.8142200960  4.0821821967
H   8.8974652912 -4.9362200960  1.8301821967
H   5.1244652912 -2.6402200960  5.2341821967
H   5.6944652912 -5.5072200960  0.4601821967
H   3.3884652912 -4.1812200960  2.7001821967
H   4.1344652912 -4.0692200960  1.1651821967
H   3.2354652912 -6.1832200960  0.9851821967
H   3.0764652912 -9.0302200960  3.0101821967
H   4.5094652912 -9.0002200960  1.9511821967
H   2.7964652912 -8.4412200960  1.4361821967
H   5.7324652912 -7.4812200960  4.1621821967
H   4.1044652912 -7.4762200960  4.7801821967
H   4.7524652912 -5.9892200960  4.4311821967
84
Scanning combination 149/256: [2.2000, 1.7000]  Energy = -385.7802120443
O   11.1233000000 -4.8002000000  5.0341000000
O   11.3873000000 -0.2652000000  3.3291000000
O   18.1143000000 -4.2382000000 -2.5629000000
O   15.0523000000 -3.1142000000  0.9841000000
C   13.0053000000 -3.3232000000  2.3291000000
C   12.6993000000 -1.9792000000  2.4491000000
C   12.3973000000 -4.3072000000  3.1831000000
C   11.6323000000 -1.5992000000  3.2951000000
C   11.4783000000 -3.8632000000  4.1231000000
C   11.0613000000 -2.4802000000  4.2331000000
C   10.1223000000 -1.9712000000  5.2561000000
C   10.5373000000 -1.3232000000  6.3251000000
C   9.8643000000 -1.0622000000  7.5921000000
C   8.6825000000 -1.0450000000  7.8959000000
C   10.8123000000 -0.2992000000  8.5731000000
C   14.6833000000 -4.8512000000 -0.4449000000
C   15.5183000000 -3.8012000000 -0.0889000000
C   16.6953000000 -3.5982000000 -0.8399000000
C   16.9703000000 -4.4882000000 -1.8899000000
C   16.1523000000 -5.5962000000 -2.2009000000
C   14.9513000000 -5.7522000000 -1.5279000000
C   13.6583000000 -4.8752000000  0.4711000000
C   13.8893000000 -3.7772000000  1.2511000000
H   13.1623000000 -1.2452000000  1.7971000000
H   12.5583000000 -5.3772000000  3.0881000000
H   11.7383000000 -5.5442000000  4.9131000000
H   11.8513000000  0.1658000000  2.5901000000
H   9.4643000000 -1.3292000000  4.6731000000
H   11.4933000000 -0.8182000000  6.2071000000
H   7.9073000000 -0.9712000000  7.1161000000
H   8.2313000000 -0.9072000000  8.8131000000
H   11.1183000000  0.6778000000  8.1811000000
H   11.7213000000 -0.7962000000  8.9311000000
H   10.3263000000 -0.0742000000  9.5301000000
H   17.3553000000 -2.7642000000 -0.6209000000
H   16.3753000000 -6.3042000000 -2.9929000000
H   14.4873000000 -6.7332000000 -1.5779000000
H   12.8783000000 -5.6272000000  0.4831000000
H   18.2613000000 -4.9422000000 -3.2189000000
C   9.8790232524 -4.1764011878  10.7362887076
O   12.2100232524 -4.5284011878  11.2242887076
C   11.2370232524 -4.1064011878  10.3782887076
O   7.6560232524 -3.6604011878  10.2642887076
C   11.6950232524 -3.4344011878  9.1982887076
O   6.4080232524 -1.7044011878  6.0642887076
C   10.7160232524 -2.9554011878  8.3412887076
O   4.7050232524 -2.9404011878  4.4972887076
C   9.3290232524 -3.0654011878  8.6082887076
O   6.6190232524 -5.2204011878  0.6772887076
C   8.9330232524 -3.6434011878  9.8272887076
C   8.1568232524 -2.6596011878  7.8145887076
C   8.4960232524 -2.6254011878  6.4572887076
C   7.2710232524 -2.4404011878  5.6792887076
C   7.1050232524 -3.2214011878  4.3702887076
C   8.2290232524 -3.7504011878  3.6782887076
C   5.7970232524 -3.3644011878  3.8002887076
C   8.0550232524 -4.5104011878  2.5092887076
C   5.6330232524 -4.1214011878  2.6072887076
C   6.7930232524 -4.5484011878  1.9212887076
C   4.2370232524 -4.4504011878  2.1902887076
C   3.8520232524 -5.8964011878  1.9012887076
C   4.0300232524 -6.9954011878  2.7062887076
C   3.5620232524 -8.3724011878  2.2552887076
C   4.7350232524 -6.9024011878  4.0772887076
H   9.5140232524 -4.4364011878  11.7252887076
H   12.7680232524 -3.2964011878  9.1032887076
H   11.0260232524 -2.5104011878  7.4002887076
H   11.7470232524 -4.9664011878  11.9592887076
H   7.6020232524 -4.2464011878  11.0392887076
H   7.2650232524 -2.6104011878  8.1952887076
H   8.7620232524 -3.6614011878  6.2812887076
H   9.2140232524 -3.7074011878  4.1322887076
H   8.8810232524 -4.8294011878  1.8802887076
H   5.1080232524 -2.5334011878  5.2842887076
H   5.6780232524 -5.4004011878  0.5102887076
H   3.3720232524 -4.0744011878  2.7502887076
H   4.1180232524 -3.9624011878  1.2152887076
H   3.2190232524 -6.0764011878  1.0352887076
H   3.0600232524 -8.9234011878  3.0602887076
H   4.4930232524 -8.8934011878  2.0012887076
H   2.7800232524 -8.3344011878  1.4862887076
H   5.7160232524 -7.3744011878  4.2122887076
H   4.0880232524 -7.3694011878  4.8302887076
H   4.7360232524 -5.8824011878  4.4812887076
84
Scanning combination 150/256: [2.2000, 1.6000]  Energy = -385.7254403826
O   11.1233000000 -4.8002000000  5.0341000000
O   11.3873000000 -0.2652000000  3.3291000000
O   18.1143000000 -4.2382000000 -2.5629000000
O   15.0523000000 -3.1142000000  0.9841000000
C   13.0053000000 -3.3232000000  2.3291000000
C   12.6993000000 -1.9792000000  2.4491000000
C   12.3973000000 -4.3072000000  3.1831000000
C   11.6323000000 -1.5992000000  3.2951000000
C   11.4783000000 -3.8632000000  4.1231000000
C   11.0613000000 -2.4802000000  4.2331000000
C   10.1223000000 -1.9712000000  5.2561000000
C   10.5373000000 -1.3232000000  6.3251000000
C   9.8643000000 -1.0622000000  7.5921000000
C   8.6825000000 -1.0450000000  7.8959000000
C   10.8123000000 -0.2992000000  8.5731000000
C   14.6833000000 -4.8512000000 -0.4449000000
C   15.5183000000 -3.8012000000 -0.0889000000
C   16.6953000000 -3.5982000000 -0.8399000000
C   16.9703000000 -4.4882000000 -1.8899000000
C   16.1523000000 -5.5962000000 -2.2009000000
C   14.9513000000 -5.7522000000 -1.5279000000
C   13.6583000000 -4.8752000000  0.4711000000
C   13.8893000000 -3.7772000000  1.2511000000
H   13.1623000000 -1.2452000000  1.7971000000
H   12.5583000000 -5.3772000000  3.0881000000
H   11.7383000000 -5.5442000000  4.9131000000
H   11.8513000000  0.1658000000  2.5901000000
H   9.4643000000 -1.3292000000  4.6731000000
H   11.4933000000 -0.8182000000  6.2071000000
H   7.9073000000 -0.9712000000  7.1161000000
H   8.2313000000 -0.9072000000  8.8131000000
H   11.1183000000  0.6778000000  8.1811000000
H   11.7213000000 -0.7962000000  8.9311000000
H   10.3263000000 -0.0742000000  9.5301000000
H   17.3553000000 -2.7642000000 -0.6209000000
H   16.3753000000 -6.3042000000 -2.9929000000
H   14.4873000000 -6.7332000000 -1.5779000000
H   12.8783000000 -5.6272000000  0.4831000000
H   18.2613000000 -4.9422000000 -3.2189000000
C   9.8681644450 -4.0686976222  10.7818157898
O   12.1991644450 -4.4206976222  11.2698157898
C   11.2261644450 -3.9986976222  10.4238157898
O   7.6451644450 -3.5526976222  10.3098157898
C   11.6841644450 -3.3266976222  9.2438157898
O   6.3971644450 -1.5966976222  6.1098157898
C   10.7051644450 -2.8476976222  8.3868157898
O   4.6941644450 -2.8326976222  4.5428157898
C   9.3181644450 -2.9576976222  8.6538157898
O   6.6081644450 -5.1126976222  0.7228157898
C   8.9221644450 -3.5356976222  9.8728157898
C   8.1459644450 -2.5518976222  7.8601157898
C   8.4851644450 -2.5176976222  6.5028157898
C   7.2601644450 -2.3326976222  5.7248157898
C   7.0941644450 -3.1136976222  4.4158157898
C   8.2181644450 -3.6426976222  3.7238157898
C   5.7861644450 -3.2566976222  3.8458157898
C   8.0441644450 -4.4026976222  2.5548157898
C   5.6221644450 -4.0136976222  2.6528157898
C   6.7821644450 -4.4406976222  1.9668157898
C   4.2261644450 -4.3426976222  2.2358157898
C   3.8411644450 -5.7886976222  1.9468157898
C   4.0191644450 -6.8876976222  2.7518157898
C   3.5511644450 -8.2646976222  2.3008157898
C   4.7241644450 -6.7946976222  4.1228157898
H   9.5031644450 -4.3286976222  11.7708157898
H   12.7571644450 -3.1886976222  9.1488157898
H   11.0151644450 -2.4026976222  7.4458157898
H   11.7361644450 -4.8586976222  12.0048157898
H   7.5911644450 -4.1386976222  11.0848157898
H   7.2541644450 -2.5026976222  8.2408157898
H   8.7511644450 -3.5536976222  6.3268157898
H   9.2031644450 -3.5996976222  4.1778157898
H   8.8701644450 -4.7216976222  1.9258157898
H   5.0971644450 -2.4256976222  5.3298157898
H   5.6671644450 -5.2926976222  0.5558157898
H   3.3611644450 -3.9666976222  2.7958157898
H   4.1071644450 -3.8546976222  1.2608157898
H   3.2081644450 -5.9686976222  1.0808157898
H   3.0491644450 -8.8156976222  3.1058157898
H   4.4821644450 -8.7856976222  2.0468157898
H   2.7691644450 -8.2266976222  1.5318157898
H   5.7051644450 -7.2666976222  4.2578157898
H   4.0771644450 -7.2616976222  4.8758157898
H   4.7251644450 -5.7746976222  4.5268157898
84
Scanning combination 151/256: [2.2000, 1.5000]  Energy = -385.6518272158
O   11.1233000000 -4.8002000000  5.0341000000
O   11.3873000000 -0.2652000000  3.3291000000
O   18.1143000000 -4.2382000000 -2.5629000000
O   15.0523000000 -3.1142000000  0.9841000000
C   13.0053000000 -3.3232000000  2.3291000000
C   12.6993000000 -1.9792000000  2.4491000000
C   12.3973000000 -4.3072000000  3.1831000000
C   11.6323000000 -1.5992000000  3.2951000000
C   11.4783000000 -3.8632000000  4.1231000000
C   11.0613000000 -2.4802000000  4.2331000000
C   10.1223000000 -1.9712000000  5.2561000000
C   10.5373000000 -1.3232000000  6.3251000000
C   9.8643000000 -1.0622000000  7.5921000000
C   8.6825000000 -1.0450000000  7.8959000000
C   10.8123000000 -0.2992000000  8.5731000000
C   14.6833000000 -4.8512000000 -0.4449000000
C   15.5183000000 -3.8012000000 -0.0889000000
C   16.6953000000 -3.5982000000 -0.8399000000
C   16.9703000000 -4.4882000000 -1.8899000000
C   16.1523000000 -5.5962000000 -2.2009000000
C   14.9513000000 -5.7522000000 -1.5279000000
C   13.6583000000 -4.8752000000  0.4711000000
C   13.8893000000 -3.7772000000  1.2511000000
H   13.1623000000 -1.2452000000  1.7971000000
H   12.5583000000 -5.3772000000  3.0881000000
H   11.7383000000 -5.5442000000  4.9131000000
H   11.8513000000  0.1658000000  2.5901000000
H   9.4643000000 -1.3292000000  4.6731000000
H   11.4933000000 -0.8182000000  6.2071000000
H   7.9073000000 -0.9712000000  7.1161000000
H   8.2313000000 -0.9072000000  8.8131000000
H   11.1183000000  0.6778000000  8.1811000000
H   11.7213000000 -0.7962000000  8.9311000000
H   10.3263000000 -0.0742000000  9.5301000000
H   17.3553000000 -2.7642000000 -0.6209000000
H   16.3753000000 -6.3042000000 -2.9929000000
H   14.4873000000 -6.7332000000 -1.5779000000
H   12.8783000000 -5.6272000000  0.4831000000
H   18.2613000000 -4.9422000000 -3.2189000000
C   9.8626629714 -3.9603943949  10.8228653273
O   12.1936629714 -4.3123943949  11.3108653273
C   11.2206629714 -3.8903943949  10.4648653273
O   7.6396629714 -3.4443943949  10.3508653273
C   11.6786629714 -3.2183943949  9.2848653273
O   6.3916629714 -1.4883943949  6.1508653273
C   10.6996629714 -2.7393943949  8.4278653273
O   4.6886629714 -2.7243943949  4.5838653273
C   9.3126629714 -2.8493943949  8.6948653273
O   6.6026629714 -5.0043943949  0.7638653273
C   8.9166629714 -3.4273943949  9.9138653273
C   8.1404629714 -2.4435943949  7.9011653273
C   8.4796629714 -2.4093943949  6.5438653273
C   7.2546629714 -2.2243943949  5.7658653273
C   7.0886629714 -3.0053943949  4.4568653273
C   8.2126629714 -3.5343943949  3.7648653273
C   5.7806629714 -3.1483943949  3.8868653273
C   8.0386629714 -4.2943943949  2.5958653273
C   5.6166629714 -3.9053943949  2.6938653273
C   6.7766629714 -4.3323943949  2.0078653273
C   4.2206629714 -4.2343943949  2.2768653273
C   3.8356629714 -5.6803943949  1.9878653273
C   4.0136629714 -6.7793943949  2.7928653273
C   3.5456629714 -8.1563943949  2.3418653273
C   4.7186629714 -6.6863943949  4.1638653273
H   9.4976629714 -4.2203943949  11.8118653273
H   12.7516629714 -3.0803943949  9.1898653273
H   11.0096629714 -2.2943943949  7.4868653273
H   11.7306629714 -4.7503943949  12.0458653273
H   7.5856629714 -4.0303943949  11.1258653273
H   7.2486629714 -2.3943943949  8.2818653273
H   8.7456629714 -3.4453943949  6.3678653273
H   9.1976629714 -3.4913943949  4.2188653273
H   8.8646629714 -4.6133943949  1.9668653273
H   5.0916629714 -2.3173943949  5.3708653273
H   5.6616629714 -5.1843943949  0.5968653273
H   3.3556629714 -3.8583943949  2.8368653273
H   4.1016629714 -3.7463943949  1.3018653273
H   3.2026629714 -5.8603943949  1.1218653273
H   3.0436629714 -8.7073943949  3.1468653273
H   4.4766629714 -8.6773943949  2.0878653273
H   2.7636629714 -8.1183943949  1.5728653273
H   5.6996629714 -7.1583943949  4.2988653273
H   4.0716629714 -7.1533943949  4.9168653273
H   4.7196629714 -5.6663943949  4.5678653273
84
Scanning combination 152/256: [2.1000, 2.9000]  Energy = -385.9465950724
O   11.1233000000 -4.8002000000  5.0341000000
O   11.3873000000 -0.2652000000  3.3291000000
O   18.1143000000 -4.2382000000 -2.5629000000
O   15.0523000000 -3.1142000000  0.9841000000
C   13.0053000000 -3.3232000000  2.3291000000
C   12.6993000000 -1.9792000000  2.4491000000
C   12.3973000000 -4.3072000000  3.1831000000
C   11.6323000000 -1.5992000000  3.2951000000
C   11.4783000000 -3.8632000000  4.1231000000
C   11.0613000000 -2.4802000000  4.2331000000
C   10.1223000000 -1.9712000000  5.2561000000
C   10.5373000000 -1.3232000000  6.3251000000
C   9.8643000000 -1.0622000000  7.5921000000
C   8.6825000000 -1.0450000000  7.8959000000
C   10.8123000000 -0.2992000000  8.5731000000
C   14.6833000000 -4.8512000000 -0.4449000000
C   15.5183000000 -3.8012000000 -0.0889000000
C   16.6953000000 -3.5982000000 -0.8399000000
C   16.9703000000 -4.4882000000 -1.8899000000
C   16.1523000000 -5.5962000000 -2.2009000000
C   14.9513000000 -5.7522000000 -1.5279000000
C   13.6583000000 -4.8752000000  0.4711000000
C   13.8893000000 -3.7772000000  1.2511000000
H   13.1623000000 -1.2452000000  1.7971000000
H   12.5583000000 -5.3772000000  3.0881000000
H   11.7383000000 -5.5442000000  4.9131000000
H   11.8513000000  0.1658000000  2.5901000000
H   9.4643000000 -1.3292000000  4.6731000000
H   11.4933000000 -0.8182000000  6.2071000000
H   7.9073000000 -0.9712000000  7.1161000000
H   8.2313000000 -0.9072000000  8.8131000000
H   11.1183000000  0.6778000000  8.1811000000
H   11.7213000000 -0.7962000000  8.9311000000
H   10.3263000000 -0.0742000000  9.5301000000
H   17.3553000000 -2.7642000000 -0.6209000000
H   16.3753000000 -6.3042000000 -2.9929000000
H   14.4873000000 -6.7332000000 -1.5779000000
H   12.8783000000 -5.6272000000  0.4831000000
H   18.2613000000 -4.9422000000 -3.2189000000
C   10.4457624185 -5.3005913494  9.8651616015
O   12.7767624185 -5.6525913494  10.3531616015
C   11.8037624185 -5.2305913494  9.5071616015
O   8.2227624185 -4.7845913494  9.3931616015
C   12.2617624185 -4.5585913494  8.3271616015
O   6.9747624185 -2.8285913494  5.1931616015
C   11.2827624185 -4.0795913494  7.4701616015
O   5.2717624185 -4.0645913494  3.6261616015
C   9.8957624185 -4.1895913494  7.7371616015
O   7.1857624185 -6.3445913494 -0.1938383985
C   9.4997624185 -4.7675913494  8.9561616015
C   8.7235624185 -3.7837913494  6.9434616015
C   9.0627624185 -3.7495913494  5.5861616015
C   7.8377624185 -3.5645913494  4.8081616015
C   7.6717624185 -4.3455913494  3.4991616015
C   8.7957624185 -4.8745913494  2.8071616015
C   6.3637624185 -4.4885913494  2.9291616015
C   8.6217624185 -5.6345913494  1.6381616015
C   6.1997624185 -5.2455913494  1.7361616015
C   7.3597624185 -5.6725913494  1.0501616015
C   4.8037624185 -5.5745913494  1.3191616015
C   4.4187624185 -7.0205913494  1.0301616015
C   4.5967624185 -8.1195913494  1.8351616015
C   4.1287624185 -9.4965913494  1.3841616015
C   5.3017624185 -8.0265913494  3.2061616015
H   10.0807624185 -5.5605913494  10.8541616015
H   13.3347624185 -4.4205913494  8.2321616015
H   11.5927624185 -3.6345913494  6.5291616015
H   12.3137624185 -6.0905913494  11.0881616015
H   8.1687624185 -5.3705913494  10.1681616015
H   7.8317624185 -3.7345913494  7.3241616015
H   9.3287624185 -4.7855913494  5.4101616015
H   9.7807624185 -4.8315913494  3.2611616015
H   9.4477624185 -5.9535913494  1.0091616015
H   5.6747624185 -3.6575913494  4.4131616015
H   6.2447624185 -6.5245913494 -0.3608383985
H   3.9387624185 -5.1985913494  1.8791616015
H   4.6847624185 -5.0865913494  0.3441616015
H   3.7857624185 -7.2005913494  0.1641616015
H   3.6267624185 -10.0475913494  2.1891616015
H   5.0597624185 -10.0175913494  1.1301616015
H   3.3467624185 -9.4585913494  0.6151616015
H   6.2827624185 -8.4985913494  3.3411616015
H   4.6547624185 -8.4935913494  3.9591616015
H   5.3027624185 -7.0065913494  3.6101616015
84
Scanning combination 153/256: [2.1000, 2.8000]  Energy = -385.9514757391
O   11.1233000000 -4.8002000000  5.0341000000
O   11.3873000000 -0.2652000000  3.3291000000
O   18.1143000000 -4.2382000000 -2.5629000000
O   15.0523000000 -3.1142000000  0.9841000000
C   13.0053000000 -3.3232000000  2.3291000000
C   12.6993000000 -1.9792000000  2.4491000000
C   12.3973000000 -4.3072000000  3.1831000000
C   11.6323000000 -1.5992000000  3.2951000000
C   11.4783000000 -3.8632000000  4.1231000000
C   11.0613000000 -2.4802000000  4.2331000000
C   10.1223000000 -1.9712000000  5.2561000000
C   10.5373000000 -1.3232000000  6.3251000000
C   9.8643000000 -1.0622000000  7.5921000000
C   8.6825000000 -1.0450000000  7.8959000000
C   10.8123000000 -0.2992000000  8.5731000000
C   14.6833000000 -4.8512000000 -0.4449000000
C   15.5183000000 -3.8012000000 -0.0889000000
C   16.6953000000 -3.5982000000 -0.8399000000
C   16.9703000000 -4.4882000000 -1.8899000000
C   16.1523000000 -5.5962000000 -2.2009000000
C   14.9513000000 -5.7522000000 -1.5279000000
C   13.6583000000 -4.8752000000  0.4711000000
C   13.8893000000 -3.7772000000  1.2511000000
H   13.1623000000 -1.2452000000  1.7971000000
H   12.5583000000 -5.3772000000  3.0881000000
H   11.7383000000 -5.5442000000  4.9131000000
H   11.8513000000  0.1658000000  2.5901000000
H   9.4643000000 -1.3292000000  4.6731000000
H   11.4933000000 -0.8182000000  6.2071000000
H   7.9073000000 -0.9712000000  7.1161000000
H   8.2313000000 -0.9072000000  8.8131000000
H   11.1183000000  0.6778000000  8.1811000000
H   11.7213000000 -0.7962000000  8.9311000000
H   10.3263000000 -0.0742000000  9.5301000000
H   17.3553000000 -2.7642000000 -0.6209000000
H   16.3753000000 -6.3042000000 -2.9929000000
H   14.4873000000 -6.7332000000 -1.5779000000
H   12.8783000000 -5.6272000000  0.4831000000
H   18.2613000000 -4.9422000000 -3.2189000000
C   10.4424558981 -5.2066877978  9.8994753352
O   12.7734558981 -5.5586877978  10.3874753352
C   11.8004558981 -5.1366877978  9.5414753352
O   8.2194558981 -4.6906877978  9.4274753352
C   12.2584558981 -4.4646877978  8.3614753352
O   6.9714558981 -2.7346877978  5.2274753352
C   11.2794558981 -3.9856877978  7.5044753352
O   5.2684558981 -3.9706877978  3.6604753352
C   9.8924558981 -4.0956877978  7.7714753352
O   7.1824558981 -6.2506877978 -0.1595246648
C   9.4964558981 -4.6736877978  8.9904753352
C   8.7202558981 -3.6898877978  6.9777753352
C   9.0594558981 -3.6556877978  5.6204753352
C   7.8344558981 -3.4706877978  4.8424753352
C   7.6684558981 -4.2516877978  3.5334753352
C   8.7924558981 -4.7806877978  2.8414753352
C   6.3604558981 -4.3946877978  2.9634753352
C   8.6184558981 -5.5406877978  1.6724753352
C   6.1964558981 -5.1516877978  1.7704753352
C   7.3564558981 -5.5786877978  1.0844753352
C   4.8004558981 -5.4806877978  1.3534753352
C   4.4154558981 -6.9266877978  1.0644753352
C   4.5934558981 -8.0256877978  1.8694753352
C   4.1254558981 -9.4026877978  1.4184753352
C   5.2984558981 -7.9326877978  3.2404753352
H   10.0774558981 -5.4666877978  10.8884753352
H   13.3314558981 -4.3266877978  8.2664753352
H   11.5894558981 -3.5406877978  6.5634753352
H   12.3104558981 -5.9966877978  11.1224753352
H   8.1654558981 -5.2766877978  10.2024753352
H   7.8284558981 -3.6406877978  7.3584753352
H   9.3254558981 -4.6916877978  5.4444753352
H   9.7774558981 -4.7376877978  3.2954753352
H   9.4444558981 -5.8596877978  1.0434753352
H   5.6714558981 -3.5636877978  4.4474753352
H   6.2414558981 -6.4306877978 -0.3265246648
H   3.9354558981 -5.1046877978  1.9134753352
H   4.6814558981 -4.9926877978  0.3784753352
H   3.7824558981 -7.1066877978  0.1984753352
H   3.6234558981 -9.9536877978  2.2234753352
H   5.0564558981 -9.9236877978  1.1644753352
H   3.3434558981 -9.3646877978  0.6494753352
H   6.2794558981 -8.4046877978  3.3754753352
H   4.6514558981 -8.3996877978  3.9934753352
H   5.2994558981 -6.9126877978  3.6444753352
84
Scanning combination 154/256: [2.1000, 2.7000]  Energy = -385.9566200968
O   11.1233000000 -4.8002000000  5.0341000000
O   11.3873000000 -0.2652000000  3.3291000000
O   18.1143000000 -4.2382000000 -2.5629000000
O   15.0523000000 -3.1142000000  0.9841000000
C   13.0053000000 -3.3232000000  2.3291000000
C   12.6993000000 -1.9792000000  2.4491000000
C   12.3973000000 -4.3072000000  3.1831000000
C   11.6323000000 -1.5992000000  3.2951000000
C   11.4783000000 -3.8632000000  4.1231000000
C   11.0613000000 -2.4802000000  4.2331000000
C   10.1223000000 -1.9712000000  5.2561000000
C   10.5373000000 -1.3232000000  6.3251000000
C   9.8643000000 -1.0622000000  7.5921000000
C   8.6825000000 -1.0450000000  7.8959000000
C   10.8123000000 -0.2992000000  8.5731000000
C   14.6833000000 -4.8512000000 -0.4449000000
C   15.5183000000 -3.8012000000 -0.0889000000
C   16.6953000000 -3.5982000000 -0.8399000000
C   16.9703000000 -4.4882000000 -1.8899000000
C   16.1523000000 -5.5962000000 -2.2009000000
C   14.9513000000 -5.7522000000 -1.5279000000
C   13.6583000000 -4.8752000000  0.4711000000
C   13.8893000000 -3.7772000000  1.2511000000
H   13.1623000000 -1.2452000000  1.7971000000
H   12.5583000000 -5.3772000000  3.0881000000
H   11.7383000000 -5.5442000000  4.9131000000
H   11.8513000000  0.1658000000  2.5901000000
H   9.4643000000 -1.3292000000  4.6731000000
H   11.4933000000 -0.8182000000  6.2071000000
H   7.9073000000 -0.9712000000  7.1161000000
H   8.2313000000 -0.9072000000  8.8131000000
H   11.1183000000  0.6778000000  8.1811000000
H   11.7213000000 -0.7962000000  8.9311000000
H   10.3263000000 -0.0742000000  9.5301000000
H   17.3553000000 -2.7642000000 -0.6209000000
H   16.3753000000 -6.3042000000 -2.9929000000
H   14.4873000000 -6.7332000000 -1.5779000000
H   12.8783000000 -5.6272000000  0.4831000000
H   18.2613000000 -4.9422000000 -3.2189000000
C   10.4030661456 -5.1226155983  9.9620081212
O   12.7340661456 -5.4746155983  10.4500081212
C   11.7610661456 -5.0526155983  9.6040081212
O   8.1800661456 -4.6066155983  9.4900081212
C   12.2190661456 -4.3806155983  8.4240081212
O   6.9320661456 -2.6506155983  5.2900081212
C   11.2400661456 -3.9016155983  7.5670081212
O   5.2290661456 -3.8866155983  3.7230081212
C   9.8530661456 -4.0116155983  7.8340081212
O   7.1430661456 -6.1666155983 -0.0969918788
C   9.4570661456 -4.5896155983  9.0530081212
C   8.6808661456 -3.6058155983  7.0403081212
C   9.0200661456 -3.5716155983  5.6830081212
C   7.7950661456 -3.3866155983  4.9050081212
C   7.6290661456 -4.1676155983  3.5960081212
C   8.7530661456 -4.6966155983  2.9040081212
C   6.3210661456 -4.3106155983  3.0260081212
C   8.5790661456 -5.4566155983  1.7350081212
C   6.1570661456 -5.0676155983  1.8330081212
C   7.3170661456 -5.4946155983  1.1470081212
C   4.7610661456 -5.3966155983  1.4160081212
C   4.3760661456 -6.8426155983  1.1270081212
C   4.5540661456 -7.9416155983  1.9320081212
C   4.0860661456 -9.3186155983  1.4810081212
C   5.2590661456 -7.8486155983  3.3030081212
H   10.0380661456 -5.3826155983  10.9510081212
H   13.2920661456 -4.2426155983  8.3290081212
H   11.5500661456 -3.4566155983  6.6260081212
H   12.2710661456 -5.9126155983  11.1850081212
H   8.1260661456 -5.1926155983  10.2650081212
H   7.7890661456 -3.5566155983  7.4210081212
H   9.2860661456 -4.6076155983  5.5070081212
H   9.7380661456 -4.6536155983  3.3580081212
H   9.4050661456 -5.7756155983  1.1060081212
H   5.6320661456 -3.4796155983  4.5100081212
H   6.2020661456 -6.3466155983 -0.2639918788
H   3.8960661456 -5.0206155983  1.9760081212
H   4.6420661456 -4.9086155983  0.4410081212
H   3.7430661456 -7.0226155983  0.2610081212
H   3.5840661456 -9.8696155983  2.2860081212
H   5.0170661456 -9.8396155983  1.2270081212
H   3.3040661456 -9.2806155983  0.7120081212
H   6.2400661456 -8.3206155983  3.4380081212
H   4.6120661456 -8.3156155983  4.0560081212
H   5.2600661456 -6.8286155983  3.7070081212
84
Scanning combination 155/256: [2.1000, 2.6000]  Energy = -385.9586244818
O   11.1233000000 -4.8002000000  5.0341000000
O   11.3873000000 -0.2652000000  3.3291000000
O   18.1143000000 -4.2382000000 -2.5629000000
O   15.0523000000 -3.1142000000  0.9841000000
C   13.0053000000 -3.3232000000  2.3291000000
C   12.6993000000 -1.9792000000  2.4491000000
C   12.3973000000 -4.3072000000  3.1831000000
C   11.6323000000 -1.5992000000  3.2951000000
C   11.4783000000 -3.8632000000  4.1231000000
C   11.0613000000 -2.4802000000  4.2331000000
C   10.1223000000 -1.9712000000  5.2561000000
C   10.5373000000 -1.3232000000  6.3251000000
C   9.8643000000 -1.0622000000  7.5921000000
C   8.6825000000 -1.0450000000  7.8959000000
C   10.8123000000 -0.2992000000  8.5731000000
C   14.6833000000 -4.8512000000 -0.4449000000
C   15.5183000000 -3.8012000000 -0.0889000000
C   16.6953000000 -3.5982000000 -0.8399000000
C   16.9703000000 -4.4882000000 -1.8899000000
C   16.1523000000 -5.5962000000 -2.2009000000
C   14.9513000000 -5.7522000000 -1.5279000000
C   13.6583000000 -4.8752000000  0.4711000000
C   13.8893000000 -3.7772000000  1.2511000000
H   13.1623000000 -1.2452000000  1.7971000000
H   12.5583000000 -5.3772000000  3.0881000000
H   11.7383000000 -5.5442000000  4.9131000000
H   11.8513000000  0.1658000000  2.5901000000
H   9.4643000000 -1.3292000000  4.6731000000
H   11.4933000000 -0.8182000000  6.2071000000
H   7.9073000000 -0.9712000000  7.1161000000
H   8.2313000000 -0.9072000000  8.8131000000
H   11.1183000000  0.6778000000  8.1811000000
H   11.7213000000 -0.7962000000  8.9311000000
H   10.3263000000 -0.0742000000  9.5301000000
H   17.3553000000 -2.7642000000 -0.6209000000
H   16.3753000000 -6.3042000000 -2.9929000000
H   14.4873000000 -6.7332000000 -1.5779000000
H   12.8783000000 -5.6272000000  0.4831000000
H   18.2613000000 -4.9422000000 -3.2189000000
C   10.3459038898 -5.0417457839  10.0389888146
O   12.6769038898 -5.3937457839  10.5269888146
C   11.7039038898 -4.9717457839  9.6809888146
O   8.1229038898 -4.5257457839  9.5669888146
C   12.1619038898 -4.2997457839  8.5009888146
O   6.8749038898 -2.5697457839  5.3669888146
C   11.1829038898 -3.8207457839  7.6439888146
O   5.1719038898 -3.8057457839  3.7999888146
C   9.7959038898 -3.9307457839  7.9109888146
O   7.0859038898 -6.0857457839 -0.0200111854
C   9.3999038898 -4.5087457839  9.1299888146
C   8.6237038898 -3.5249457839  7.1172888146
C   8.9629038898 -3.4907457839  5.7599888146
C   7.7379038898 -3.3057457839  4.9819888146
C   7.5719038898 -4.0867457839  3.6729888146
C   8.6959038898 -4.6157457839  2.9809888146
C   6.2639038898 -4.2297457839  3.1029888146
C   8.5219038898 -5.3757457839  1.8119888146
C   6.0999038898 -4.9867457839  1.9099888146
C   7.2599038898 -5.4137457839  1.2239888146
C   4.7039038898 -5.3157457839  1.4929888146
C   4.3189038898 -6.7617457839  1.2039888146
C   4.4969038898 -7.8607457839  2.0089888146
C   4.0289038898 -9.2377457839  1.5579888146
C   5.2019038898 -7.7677457839  3.3799888146
H   9.9809038898 -5.3017457839  11.0279888146
H   13.2349038898 -4.1617457839  8.4059888146
H   11.4929038898 -3.3757457839  6.7029888146
H   12.2139038898 -5.8317457839  11.2619888146
H   8.0689038898 -5.1117457839  10.3419888146
H   7.7319038898 -3.4757457839  7.4979888146
H   9.2289038898 -4.5267457839  5.5839888146
H   9.6809038898 -4.5727457839  3.4349888146
H   9.3479038898 -5.6947457839  1.1829888146
H   5.5749038898 -3.3987457839  4.5869888146
H   6.1449038898 -6.2657457839 -0.1870111854
H   3.8389038898 -4.9397457839  2.0529888146
H   4.5849038898 -4.8277457839  0.5179888146
H   3.6859038898 -6.9417457839  0.3379888146
H   3.5269038898 -9.7887457839  2.3629888146
H   4.9599038898 -9.7587457839  1.3039888146
H   3.2469038898 -9.1997457839  0.7889888146
H   6.1829038898 -8.2397457839  3.5149888146
H   4.5549038898 -8.2347457839  4.1329888146
H   5.2029038898 -6.7477457839  3.7839888146
84
Scanning combination 156/256: [2.1000, 2.5000]  Energy = -385.9561876055
O   11.1233000000 -4.8002000000  5.0341000000
O   11.3873000000 -0.2652000000  3.3291000000
O   18.1143000000 -4.2382000000 -2.5629000000
O   15.0523000000 -3.1142000000  0.9841000000
C   13.0053000000 -3.3232000000  2.3291000000
C   12.6993000000 -1.9792000000  2.4491000000
C   12.3973000000 -4.3072000000  3.1831000000
C   11.6323000000 -1.5992000000  3.2951000000
C   11.4783000000 -3.8632000000  4.1231000000
C   11.0613000000 -2.4802000000  4.2331000000
C   10.1223000000 -1.9712000000  5.2561000000
C   10.5373000000 -1.3232000000  6.3251000000
C   9.8643000000 -1.0622000000  7.5921000000
C   8.6825000000 -1.0450000000  7.8959000000
C   10.8123000000 -0.2992000000  8.5731000000
C   14.6833000000 -4.8512000000 -0.4449000000
C   15.5183000000 -3.8012000000 -0.0889000000
C   16.6953000000 -3.5982000000 -0.8399000000
C   16.9703000000 -4.4882000000 -1.8899000000
C   16.1523000000 -5.5962000000 -2.2009000000
C   14.9513000000 -5.7522000000 -1.5279000000
C   13.6583000000 -4.8752000000  0.4711000000
C   13.8893000000 -3.7772000000  1.2511000000
H   13.1623000000 -1.2452000000  1.7971000000
H   12.5583000000 -5.3772000000  3.0881000000
H   11.7383000000 -5.5442000000  4.9131000000
H   11.8513000000  0.1658000000  2.5901000000
H   9.4643000000 -1.3292000000  4.6731000000
H   11.4933000000 -0.8182000000  6.2071000000
H   7.9073000000 -0.9712000000  7.1161000000
H   8.2313000000 -0.9072000000  8.8131000000
H   11.1183000000  0.6778000000  8.1811000000
H   11.7213000000 -0.7962000000  8.9311000000
H   10.3263000000 -0.0742000000  9.5301000000
H   17.3553000000 -2.7642000000 -0.6209000000
H   16.3753000000 -6.3042000000 -2.9929000000
H   14.4873000000 -6.7332000000 -1.5779000000
H   12.8783000000 -5.6272000000  0.4831000000
H   18.2613000000 -4.9422000000 -3.2189000000
C   10.2825298657 -4.9598568211  10.1217349391
O   12.6135298657 -5.3118568211  10.6097349391
C   11.6405298657 -4.8898568211  9.7637349391
O   8.0595298657 -4.4438568211  9.6497349391
C   12.0985298657 -4.2178568211  8.5837349391
O   6.8115298657 -2.4878568211  5.4497349391
C   11.1195298657 -3.7388568211  7.7267349391
O   5.1085298657 -3.7238568211  3.8827349391
C   9.7325298657 -3.8488568211  7.9937349391
O   7.0225298657 -6.0038568211  0.0627349391
C   9.3365298657 -4.4268568211  9.2127349391
C   8.5603298657 -3.4430568211  7.2000349391
C   8.8995298657 -3.4088568211  5.8427349391
C   7.6745298657 -3.2238568211  5.0647349391
C   7.5085298657 -4.0048568211  3.7557349391
C   8.6325298657 -4.5338568211  3.0637349391
C   6.2005298657 -4.1478568211  3.1857349391
C   8.4585298657 -5.2938568211  1.8947349391
C   6.0365298657 -4.9048568211  1.9927349391
C   7.1965298657 -5.3318568211  1.3067349391
C   4.6405298657 -5.2338568211  1.5757349391
C   4.2555298657 -6.6798568211  1.2867349391
C   4.4335298657 -7.7788568211  2.0917349391
C   3.9655298657 -9.1558568211  1.6407349391
C   5.1385298657 -7.6858568211  3.4627349391
H   9.9175298657 -5.2198568211  11.1107349391
H   13.1715298657 -4.0798568211  8.4887349391
H   11.4295298657 -3.2938568211  6.7857349391
H   12.1505298657 -5.7498568211  11.3447349391
H   8.0055298657 -5.0298568211  10.4247349391
H   7.6685298657 -3.3938568211  7.5807349391
H   9.1655298657 -4.4448568211  5.6667349391
H   9.6175298657 -4.4908568211  3.5177349391
H   9.2845298657 -5.6128568211  1.2657349391
H   5.5115298657 -3.3168568211  4.6697349391
H   6.0815298657 -6.1838568211 -0.1042650609
H   3.7755298657 -4.8578568211  2.1357349391
H   4.5215298657 -4.7458568211  0.6007349391
H   3.6225298657 -6.8598568211  0.4207349391
H   3.4635298657 -9.7068568211  2.4457349391
H   4.8965298657 -9.6768568211  1.3867349391
H   3.1835298657 -9.1178568211  0.8717349391
H   6.1195298657 -8.1578568211  3.5977349391
H   4.4915298657 -8.1528568211  4.2157349391
H   5.1395298657 -6.6658568211  3.8667349391
84
Scanning combination 157/256: [2.1000, 2.4000]  Energy = -385.9492582079
O   11.1233000000 -4.8002000000  5.0341000000
O   11.3873000000 -0.2652000000  3.3291000000
O   18.1143000000 -4.2382000000 -2.5629000000
O   15.0523000000 -3.1142000000  0.9841000000
C   13.0053000000 -3.3232000000  2.3291000000
C   12.6993000000 -1.9792000000  2.4491000000
C   12.3973000000 -4.3072000000  3.1831000000
C   11.6323000000 -1.5992000000  3.2951000000
C   11.4783000000 -3.8632000000  4.1231000000
C   11.0613000000 -2.4802000000  4.2331000000
C   10.1223000000 -1.9712000000  5.2561000000
C   10.5373000000 -1.3232000000  6.3251000000
C   9.8643000000 -1.0622000000  7.5921000000
C   8.6825000000 -1.0450000000  7.8959000000
C   10.8123000000 -0.2992000000  8.5731000000
C   14.6833000000 -4.8512000000 -0.4449000000
C   15.5183000000 -3.8012000000 -0.0889000000
C   16.6953000000 -3.5982000000 -0.8399000000
C   16.9703000000 -4.4882000000 -1.8899000000
C   16.1523000000 -5.5962000000 -2.2009000000
C   14.9513000000 -5.7522000000 -1.5279000000
C   13.6583000000 -4.8752000000  0.4711000000
C   13.8893000000 -3.7772000000  1.2511000000
H   13.1623000000 -1.2452000000  1.7971000000
H   12.5583000000 -5.3772000000  3.0881000000
H   11.7383000000 -5.5442000000  4.9131000000
H   11.8513000000  0.1658000000  2.5901000000
H   9.4643000000 -1.3292000000  4.6731000000
H   11.4933000000 -0.8182000000  6.2071000000
H   7.9073000000 -0.9712000000  7.1161000000
H   8.2313000000 -0.9072000000  8.8131000000
H   11.1183000000  0.6778000000  8.1811000000
H   11.7213000000 -0.7962000000  8.9311000000
H   10.3263000000 -0.0742000000  9.5301000000
H   17.3553000000 -2.7642000000 -0.6209000000
H   16.3753000000 -6.3042000000 -2.9929000000
H   14.4873000000 -6.7332000000 -1.5779000000
H   12.8783000000 -5.6272000000  0.4831000000
H   18.2613000000 -4.9422000000 -3.2189000000
C   10.2200050159 -4.8748459861  10.2047843170
O   12.5510050159 -5.2268459861  10.6927843170
C   11.5780050159 -4.8048459861  9.8467843170
O   7.9970050159 -4.3588459861  9.7327843170
C   12.0360050159 -4.1328459861  8.6667843170
O   6.7490050159 -2.4028459861  5.5327843170
C   11.0570050159 -3.6538459861  7.8097843170
O   5.0460050159 -3.6388459861  3.9657843170
C   9.6700050159 -3.7638459861  8.0767843170
O   6.9600050159 -5.9188459861  0.1457843170
C   9.2740050159 -4.3418459861  9.2957843170
C   8.4978050159 -3.3580459861  7.2830843170
C   8.8370050159 -3.3238459861  5.9257843170
C   7.6120050159 -3.1388459861  5.1477843170
C   7.4460050159 -3.9198459861  3.8387843170
C   8.5700050159 -4.4488459861  3.1467843170
C   6.1380050159 -4.0628459861  3.2687843170
C   8.3960050159 -5.2088459861  1.9777843170
C   5.9740050159 -4.8198459861  2.0757843170
C   7.1340050159 -5.2468459861  1.3897843170
C   4.5780050159 -5.1488459861  1.6587843170
C   4.1930050159 -6.5948459861  1.3697843170
C   4.3710050159 -7.6938459861  2.1747843170
C   3.9030050159 -9.0708459861  1.7237843170
C   5.0760050159 -7.6008459861  3.5457843170
H   9.8550050159 -5.1348459861  11.1937843170
H   13.1090050159 -3.9948459861  8.5717843170
H   11.3670050159 -3.2088459861  6.8687843170
H   12.0880050159 -5.6648459861  11.4277843170
H   7.9430050159 -4.9448459861  10.5077843170
H   7.6060050159 -3.3088459861  7.6637843170
H   9.1030050159 -4.3598459861  5.7497843170
H   9.5550050159 -4.4058459861  3.6007843170
H   9.2220050159 -5.5278459861  1.3487843170
H   5.4490050159 -3.2318459861  4.7527843170
H   6.0190050159 -6.0988459861 -0.0212156830
H   3.7130050159 -4.7728459861  2.2187843170
H   4.4590050159 -4.6608459861  0.6837843170
H   3.5600050159 -6.7748459861  0.5037843170
H   3.4010050159 -9.6218459861  2.5287843170
H   4.8340050159 -9.5918459861  1.4697843170
H   3.1210050159 -9.0328459861  0.9547843170
H   6.0570050159 -8.0728459861  3.6807843170
H   4.4290050159 -8.0678459861  4.2987843170
H   5.0770050159 -6.5808459861  3.9497843170
84
Scanning combination 158/256: [2.1000, 2.3000]  Energy = -385.9384683367
O   11.1233000000 -4.8002000000  5.0341000000
O   11.3873000000 -0.2652000000  3.3291000000
O   18.1143000000 -4.2382000000 -2.5629000000
O   15.0523000000 -3.1142000000  0.9841000000
C   13.0053000000 -3.3232000000  2.3291000000
C   12.6993000000 -1.9792000000  2.4491000000
C   12.3973000000 -4.3072000000  3.1831000000
C   11.6323000000 -1.5992000000  3.2951000000
C   11.4783000000 -3.8632000000  4.1231000000
C   11.0613000000 -2.4802000000  4.2331000000
C   10.1223000000 -1.9712000000  5.2561000000
C   10.5373000000 -1.3232000000  6.3251000000
C   9.8643000000 -1.0622000000  7.5921000000
C   8.6825000000 -1.0450000000  7.8959000000
C   10.8123000000 -0.2992000000  8.5731000000
C   14.6833000000 -4.8512000000 -0.4449000000
C   15.5183000000 -3.8012000000 -0.0889000000
C   16.6953000000 -3.5982000000 -0.8399000000
C   16.9703000000 -4.4882000000 -1.8899000000
C   16.1523000000 -5.5962000000 -2.2009000000
C   14.9513000000 -5.7522000000 -1.5279000000
C   13.6583000000 -4.8752000000  0.4711000000
C   13.8893000000 -3.7772000000  1.2511000000
H   13.1623000000 -1.2452000000  1.7971000000
H   12.5583000000 -5.3772000000  3.0881000000
H   11.7383000000 -5.5442000000  4.9131000000
H   11.8513000000  0.1658000000  2.5901000000
H   9.4643000000 -1.3292000000  4.6731000000
H   11.4933000000 -0.8182000000  6.2071000000
H   7.9073000000 -0.9712000000  7.1161000000
H   8.2313000000 -0.9072000000  8.8131000000
H   11.1183000000  0.6778000000  8.1811000000
H   11.7213000000 -0.7962000000  8.9311000000
H   10.3263000000 -0.0742000000  9.5301000000
H   17.3553000000 -2.7642000000 -0.6209000000
H   16.3753000000 -6.3042000000 -2.9929000000
H   14.4873000000 -6.7332000000 -1.5779000000
H   12.8783000000 -5.6272000000  0.4831000000
H   18.2613000000 -4.9422000000 -3.2189000000
C   10.1621937338 -4.7860639605  10.2849797154
O   12.4931937338 -5.1380639605  10.7729797154
C   11.5201937338 -4.7160639605  9.9269797154
O   7.9391937338 -4.2700639605  9.8129797154
C   11.9781937338 -4.0440639605  8.7469797154
O   6.6911937338 -2.3140639605  5.6129797154
C   10.9991937338 -3.5650639605  7.8899797154
O   4.9881937338 -3.5500639605  4.0459797154
C   9.6121937338 -3.6750639605  8.1569797154
O   6.9021937338 -5.8300639605  0.2259797154
C   9.2161937338 -4.2530639605  9.3759797154
C   8.4399937338 -3.2692639605  7.3632797154
C   8.7791937338 -3.2350639605  6.0059797154
C   7.5541937338 -3.0500639605  5.2279797154
C   7.3881937338 -3.8310639605  3.9189797154
C   8.5121937338 -4.3600639605  3.2269797154
C   6.0801937338 -3.9740639605  3.3489797154
C   8.3381937338 -5.1200639605  2.0579797154
C   5.9161937338 -4.7310639605  2.1559797154
C   7.0761937338 -5.1580639605  1.4699797154
C   4.5201937338 -5.0600639605  1.7389797154
C   4.1351937338 -6.5060639605  1.4499797154
C   4.3131937338 -7.6050639605  2.2549797154
C   3.8451937338 -8.9820639605  1.8039797154
C   5.0181937338 -7.5120639605  3.6259797154
H   9.7971937338 -5.0460639605  11.2739797154
H   13.0511937338 -3.9060639605  8.6519797154
H   11.3091937338 -3.1200639605  6.9489797154
H   12.0301937338 -5.5760639605  11.5079797154
H   7.8851937338 -4.8560639605  10.5879797154
H   7.5481937338 -3.2200639605  7.7439797154
H   9.0451937338 -4.2710639605  5.8299797154
H   9.4971937338 -4.3170639605  3.6809797154
H   9.1641937338 -5.4390639605  1.4289797154
H   5.3911937338 -3.1430639605  4.8329797154
H   5.9611937338 -6.0100639605  0.0589797154
H   3.6551937338 -4.6840639605  2.2989797154
H   4.4011937338 -4.5720639605  0.7639797154
H   3.5021937338 -6.6860639605  0.5839797154
H   3.3431937338 -9.5330639605  2.6089797154
H   4.7761937338 -9.5030639605  1.5499797154
H   3.0631937338 -8.9440639605  1.0349797154
H   5.9991937338 -7.9840639605  3.7609797154
H   4.3711937338 -7.9790639605  4.3789797154
H   5.0191937338 -6.4920639605  4.0299797154
84
Scanning combination 159/256: [2.1000, 2.2000]  Energy = -385.9243615862
O   11.1233000000 -4.8002000000  5.0341000000
O   11.3873000000 -0.2652000000  3.3291000000
O   18.1143000000 -4.2382000000 -2.5629000000
O   15.0523000000 -3.1142000000  0.9841000000
C   13.0053000000 -3.3232000000  2.3291000000
C   12.6993000000 -1.9792000000  2.4491000000
C   12.3973000000 -4.3072000000  3.1831000000
C   11.6323000000 -1.5992000000  3.2951000000
C   11.4783000000 -3.8632000000  4.1231000000
C   11.0613000000 -2.4802000000  4.2331000000
C   10.1223000000 -1.9712000000  5.2561000000
C   10.5373000000 -1.3232000000  6.3251000000
C   9.8643000000 -1.0622000000  7.5921000000
C   8.6825000000 -1.0450000000  7.8959000000
C   10.8123000000 -0.2992000000  8.5731000000
C   14.6833000000 -4.8512000000 -0.4449000000
C   15.5183000000 -3.8012000000 -0.0889000000
C   16.6953000000 -3.5982000000 -0.8399000000
C   16.9703000000 -4.4882000000 -1.8899000000
C   16.1523000000 -5.5962000000 -2.2009000000
C   14.9513000000 -5.7522000000 -1.5279000000
C   13.6583000000 -4.8752000000  0.4711000000
C   13.8893000000 -3.7772000000  1.2511000000
H   13.1623000000 -1.2452000000  1.7971000000
H   12.5583000000 -5.3772000000  3.0881000000
H   11.7383000000 -5.5442000000  4.9131000000
H   11.8513000000  0.1658000000  2.5901000000
H   9.4643000000 -1.3292000000  4.6731000000
H   11.4933000000 -0.8182000000  6.2071000000
H   7.9073000000 -0.9712000000  7.1161000000
H   8.2313000000 -0.9072000000  8.8131000000
H   11.1183000000  0.6778000000  8.1811000000
H   11.7213000000 -0.7962000000  8.9311000000
H   10.3263000000 -0.0742000000  9.5301000000
H   17.3553000000 -2.7642000000 -0.6209000000
H   16.3753000000 -6.3042000000 -2.9929000000
H   14.4873000000 -6.7332000000 -1.5779000000
H   12.8783000000 -5.6272000000  0.4831000000
H   18.2613000000 -4.9422000000 -3.2189000000
C   10.1108410529 -4.6936503997  10.3607505658
O   12.4418410529 -5.0456503997  10.8487505658
C   11.4688410529 -4.6236503997  10.0027505658
O   7.8878410529 -4.1776503997  9.8887505658
C   11.9268410529 -3.9516503997  8.8227505658
O   6.6398410529 -2.2216503997  5.6887505658
C   10.9478410529 -3.4726503997  7.9657505658
O   4.9368410529 -3.4576503997  4.1217505658
C   9.5608410529 -3.5826503997  8.2327505658
O   6.8508410529 -5.7376503997  0.3017505658
C   9.1648410529 -4.1606503997  9.4517505658
C   8.3886410529 -3.1768503997  7.4390505658
C   8.7278410529 -3.1426503997  6.0817505658
C   7.5028410529 -2.9576503997  5.3037505658
C   7.3368410529 -3.7386503997  3.9947505658
C   8.4608410529 -4.2676503997  3.3027505658
C   6.0288410529 -3.8816503997  3.4247505658
C   8.2868410529 -5.0276503997  2.1337505658
C   5.8648410529 -4.6386503997  2.2317505658
C   7.0248410529 -5.0656503997  1.5457505658
C   4.4688410529 -4.9676503997  1.8147505658
C   4.0838410529 -6.4136503997  1.5257505658
C   4.2618410529 -7.5126503997  2.3307505658
C   3.7938410529 -8.8896503997  1.8797505658
C   4.9668410529 -7.4196503997  3.7017505658
H   9.7458410529 -4.9536503997  11.3497505658
H   12.9998410529 -3.8136503997  8.7277505658
H   11.2578410529 -3.0276503997  7.0247505658
H   11.9788410529 -5.4836503997  11.5837505658
H   7.8338410529 -4.7636503997  10.6637505658
H   7.4968410529 -3.1276503997  7.8197505658
H   8.9938410529 -4.1786503997  5.9057505658
H   9.4458410529 -4.2246503997  3.7567505658
H   9.1128410529 -5.3466503997  1.5047505658
H   5.3398410529 -3.0506503997  4.9087505658
H   5.9098410529 -5.9176503997  0.1347505658
H   3.6038410529 -4.5916503997  2.3747505658
H   4.3498410529 -4.4796503997  0.8397505658
H   3.4508410529 -6.5936503997  0.6597505658
H   3.2918410529 -9.4406503997  2.6847505658
H   4.7248410529 -9.4106503997  1.6257505658
H   3.0118410529 -8.8516503997  1.1107505658
H   5.9478410529 -7.8916503997  3.8367505658
H   4.3198410529 -7.8866503997  4.4547505658
H   4.9678410529 -6.3996503997  4.1057505658
84
Scanning combination 160/256: [2.1000, 2.1000]  Energy = -385.9068187471
O   11.1233000000 -4.8002000000  5.0341000000
O   11.3873000000 -0.2652000000  3.3291000000
O   18.1143000000 -4.2382000000 -2.5629000000
O   15.0523000000 -3.1142000000  0.9841000000
C   13.0053000000 -3.3232000000  2.3291000000
C   12.6993000000 -1.9792000000  2.4491000000
C   12.3973000000 -4.3072000000  3.1831000000
C   11.6323000000 -1.5992000000  3.2951000000
C   11.4783000000 -3.8632000000  4.1231000000
C   11.0613000000 -2.4802000000  4.2331000000
C   10.1223000000 -1.9712000000  5.2561000000
C   10.5373000000 -1.3232000000  6.3251000000
C   9.8643000000 -1.0622000000  7.5921000000
C   8.6825000000 -1.0450000000  7.8959000000
C   10.8123000000 -0.2992000000  8.5731000000
C   14.6833000000 -4.8512000000 -0.4449000000
C   15.5183000000 -3.8012000000 -0.0889000000
C   16.6953000000 -3.5982000000 -0.8399000000
C   16.9703000000 -4.4882000000 -1.8899000000
C   16.1523000000 -5.5962000000 -2.2009000000
C   14.9513000000 -5.7522000000 -1.5279000000
C   13.6583000000 -4.8752000000  0.4711000000
C   13.8893000000 -3.7772000000  1.2511000000
H   13.1623000000 -1.2452000000  1.7971000000
H   12.5583000000 -5.3772000000  3.0881000000
H   11.7383000000 -5.5442000000  4.9131000000
H   11.8513000000  0.1658000000  2.5901000000
H   9.4643000000 -1.3292000000  4.6731000000
H   11.4933000000 -0.8182000000  6.2071000000
H   7.9073000000 -0.9712000000  7.1161000000
H   8.2313000000 -0.9072000000  8.8131000000
H   11.1183000000  0.6778000000  8.1811000000
H   11.7213000000 -0.7962000000  8.9311000000
H   10.3263000000 -0.0742000000  9.5301000000
H   17.3553000000 -2.7642000000 -0.6209000000
H   16.3753000000 -6.3042000000 -2.9929000000
H   14.4873000000 -6.7332000000 -1.5779000000
H   12.8783000000 -5.6272000000  0.4831000000
H   18.2613000000 -4.9422000000 -3.2189000000
C   10.0664647892 -4.5980647499  10.4314909301
O   12.3974647892 -4.9500647499  10.9194909301
C   11.4244647892 -4.5280647499  10.0734909301
O   7.8434647892 -4.0820647499  9.9594909301
C   11.8824647892 -3.8560647499  8.8934909301
O   6.5954647892 -2.1260647499  5.7594909301
C   10.9034647892 -3.3770647499  8.0364909301
O   4.8924647892 -3.3620647499  4.1924909301
C   9.5164647892 -3.4870647499  8.3034909301
O   6.8064647892 -5.6420647499  0.3724909301
C   9.1204647892 -4.0650647499  9.5224909301
C   8.3442647892 -3.0812647499  7.5097909301
C   8.6834647892 -3.0470647499  6.1524909301
C   7.4584647892 -2.8620647499  5.3744909301
C   7.2924647892 -3.6430647499  4.0654909301
C   8.4164647892 -4.1720647499  3.3734909301
C   5.9844647892 -3.7860647499  3.4954909301
C   8.2424647892 -4.9320647499  2.2044909301
C   5.8204647892 -4.5430647499  2.3024909301
C   6.9804647892 -4.9700647499  1.6164909301
C   4.4244647892 -4.8720647499  1.8854909301
C   4.0394647892 -6.3180647499  1.5964909301
C   4.2174647892 -7.4170647499  2.4014909301
C   3.7494647892 -8.7940647499  1.9504909301
C   4.9224647892 -7.3240647499  3.7724909301
H   9.7014647892 -4.8580647499  11.4204909301
H   12.9554647892 -3.7180647499  8.7984909301
H   11.2134647892 -2.9320647499  7.0954909301
H   11.9344647892 -5.3880647499  11.6544909301
H   7.7894647892 -4.6680647499  10.7344909301
H   7.4524647892 -3.0320647499  7.8904909301
H   8.9494647892 -4.0830647499  5.9764909301
H   9.4014647892 -4.1290647499  3.8274909301
H   9.0684647892 -5.2510647499  1.5754909301
H   5.2954647892 -2.9550647499  4.9794909301
H   5.8654647892 -5.8220647499  0.2054909301
H   3.5594647892 -4.4960647499  2.4454909301
H   4.3054647892 -4.3840647499  0.9104909301
H   3.4064647892 -6.4980647499  0.7304909301
H   3.2474647892 -9.3450647499  2.7554909301
H   4.6804647892 -9.3150647499  1.6964909301
H   2.9674647892 -8.7560647499  1.1814909301
H   5.9034647892 -7.7960647499  3.9074909301
H   4.2754647892 -7.7910647499  4.5254909301
H   4.9234647892 -6.3040647499  4.1764909301
84
Scanning combination 161/256: [2.1000, 2.0000]  Energy = -385.8846126791
O   11.1233000000 -4.8002000000  5.0341000000
O   11.3873000000 -0.2652000000  3.3291000000
O   18.1143000000 -4.2382000000 -2.5629000000
O   15.0523000000 -3.1142000000  0.9841000000
C   13.0053000000 -3.3232000000  2.3291000000
C   12.6993000000 -1.9792000000  2.4491000000
C   12.3973000000 -4.3072000000  3.1831000000
C   11.6323000000 -1.5992000000  3.2951000000
C   11.4783000000 -3.8632000000  4.1231000000
C   11.0613000000 -2.4802000000  4.2331000000
C   10.1223000000 -1.9712000000  5.2561000000
C   10.5373000000 -1.3232000000  6.3251000000
C   9.8643000000 -1.0622000000  7.5921000000
C   8.6825000000 -1.0450000000  7.8959000000
C   10.8123000000 -0.2992000000  8.5731000000
C   14.6833000000 -4.8512000000 -0.4449000000
C   15.5183000000 -3.8012000000 -0.0889000000
C   16.6953000000 -3.5982000000 -0.8399000000
C   16.9703000000 -4.4882000000 -1.8899000000
C   16.1523000000 -5.5962000000 -2.2009000000
C   14.9513000000 -5.7522000000 -1.5279000000
C   13.6583000000 -4.8752000000  0.4711000000
C   13.8893000000 -3.7772000000  1.2511000000
H   13.1623000000 -1.2452000000  1.7971000000
H   12.5583000000 -5.3772000000  3.0881000000
H   11.7383000000 -5.5442000000  4.9131000000
H   11.8513000000  0.1658000000  2.5901000000
H   9.4643000000 -1.3292000000  4.6731000000
H   11.4933000000 -0.8182000000  6.2071000000
H   7.9073000000 -0.9712000000  7.1161000000
H   8.2313000000 -0.9072000000  8.8131000000
H   11.1183000000  0.6778000000  8.1811000000
H   11.7213000000 -0.7962000000  8.9311000000
H   10.3263000000 -0.0742000000  9.5301000000
H   17.3553000000 -2.7642000000 -0.6209000000
H   16.3753000000 -6.3042000000 -2.9929000000
H   14.4873000000 -6.7332000000 -1.5779000000
H   12.8783000000 -5.6272000000  0.4831000000
H   18.2613000000 -4.9422000000 -3.2189000000
C   10.0289854176 -4.4998346827  10.4970936585
O   12.3599854176 -4.8518346827  10.9850936585
C   11.3869854176 -4.4298346827  10.1390936585
O   7.8059854176 -3.9838346827  10.0250936585
C   11.8449854176 -3.7578346827  8.9590936585
O   6.5579854176 -2.0278346827  5.8250936585
C   10.8659854176 -3.2788346827  8.1020936585
O   4.8549854176 -3.2638346827  4.2580936585
C   9.4789854176 -3.3888346827  8.3690936585
O   6.7689854176 -5.5438346827  0.4380936585
C   9.0829854176 -3.9668346827  9.5880936585
C   8.3067854176 -2.9830346827  7.5753936585
C   8.6459854176 -2.9488346827  6.2180936585
C   7.4209854176 -2.7638346827  5.4400936585
C   7.2549854176 -3.5448346827  4.1310936585
C   8.3789854176 -4.0738346827  3.4390936585
C   5.9469854176 -3.6878346827  3.5610936585
C   8.2049854176 -4.8338346827  2.2700936585
C   5.7829854176 -4.4448346827  2.3680936585
C   6.9429854176 -4.8718346827  1.6820936585
C   4.3869854176 -4.7738346827  1.9510936585
C   4.0019854176 -6.2198346827  1.6620936585
C   4.1799854176 -7.3188346827  2.4670936585
C   3.7119854176 -8.6958346827  2.0160936585
C   4.8849854176 -7.2258346827  3.8380936585
H   9.6639854176 -4.7598346827  11.4860936585
H   12.9179854176 -3.6198346827  8.8640936585
H   11.1759854176 -2.8338346827  7.1610936585
H   11.8969854176 -5.2898346827  11.7200936585
H   7.7519854176 -4.5698346827  10.8000936585
H   7.4149854176 -2.9338346827  7.9560936585
H   8.9119854176 -3.9848346827  6.0420936585
H   9.3639854176 -4.0308346827  3.8930936585
H   9.0309854176 -5.1528346827  1.6410936585
H   5.2579854176 -2.8568346827  5.0450936585
H   5.8279854176 -5.7238346827  0.2710936585
H   3.5219854176 -4.3978346827  2.5110936585
H   4.2679854176 -4.2858346827  0.9760936585
H   3.3689854176 -6.3998346827  0.7960936585
H   3.2099854176 -9.2468346827  2.8210936585
H   4.6429854176 -9.2168346827  1.7620936585
H   2.9299854176 -8.6578346827  1.2470936585
H   5.8659854176 -7.6978346827  3.9730936585
H   4.2379854176 -7.6928346827  4.5910936585
H   4.8859854176 -6.2058346827  4.2420936585
84
Scanning combination 162/256: [2.1000, 1.9000]  Energy = -385.8570681807
O   11.1233000000 -4.8002000000  5.0341000000
O   11.3873000000 -0.2652000000  3.3291000000
O   18.1143000000 -4.2382000000 -2.5629000000
O   15.0523000000 -3.1142000000  0.9841000000
C   13.0053000000 -3.3232000000  2.3291000000
C   12.6993000000 -1.9792000000  2.4491000000
C   12.3973000000 -4.3072000000  3.1831000000
C   11.6323000000 -1.5992000000  3.2951000000
C   11.4783000000 -3.8632000000  4.1231000000
C   11.0613000000 -2.4802000000  4.2331000000
C   10.1223000000 -1.9712000000  5.2561000000
C   10.5373000000 -1.3232000000  6.3251000000
C   9.8643000000 -1.0622000000  7.5921000000
C   8.6825000000 -1.0450000000  7.8959000000
C   10.8123000000 -0.2992000000  8.5731000000
C   14.6833000000 -4.8512000000 -0.4449000000
C   15.5183000000 -3.8012000000 -0.0889000000
C   16.6953000000 -3.5982000000 -0.8399000000
C   16.9703000000 -4.4882000000 -1.8899000000
C   16.1523000000 -5.5962000000 -2.2009000000
C   14.9513000000 -5.7522000000 -1.5279000000
C   13.6583000000 -4.8752000000  0.4711000000
C   13.8893000000 -3.7772000000  1.2511000000
H   13.1623000000 -1.2452000000  1.7971000000
H   12.5583000000 -5.3772000000  3.0881000000
H   11.7383000000 -5.5442000000  4.9131000000
H   11.8513000000  0.1658000000  2.5901000000
H   9.4643000000 -1.3292000000  4.6731000000
H   11.4933000000 -0.8182000000  6.2071000000
H   7.9073000000 -0.9712000000  7.1161000000
H   8.2313000000 -0.9072000000  8.8131000000
H   11.1183000000  0.6778000000  8.1811000000
H   11.7213000000 -0.7962000000  8.9311000000
H   10.3263000000 -0.0742000000  9.5301000000
H   17.3553000000 -2.7642000000 -0.6209000000
H   16.3753000000 -6.3042000000 -2.9929000000
H   14.4873000000 -6.7332000000 -1.5779000000
H   12.8783000000 -5.6272000000  0.4831000000
H   18.2613000000 -4.9422000000 -3.2189000000
C   9.9980957671 -4.3994550007  10.5576613911
O   12.3290957671 -4.7514550007  11.0456613911
C   11.3560957671 -4.3294550007  10.1996613911
O   7.7750957671 -3.8834550007  10.0856613911
C   11.8140957671 -3.6574550007  9.0196613911
O   6.5270957671 -1.9274550007  5.8856613911
C   10.8350957671 -3.1784550007  8.1626613911
O   4.8240957671 -3.1634550007  4.3186613911
C   9.4480957671 -3.2884550007  8.4296613911
O   6.7380957671 -5.4434550007  0.4986613911
C   9.0520957671 -3.8664550007  9.6486613911
C   8.2758957671 -2.8826550007  7.6359613911
C   8.6150957671 -2.8484550007  6.2786613911
C   7.3900957671 -2.6634550007  5.5006613911
C   7.2240957671 -3.4444550007  4.1916613911
C   8.3480957671 -3.9734550007  3.4996613911
C   5.9160957671 -3.5874550007  3.6216613911
C   8.1740957671 -4.7334550007  2.3306613911
C   5.7520957671 -4.3444550007  2.4286613911
C   6.9120957671 -4.7714550007  1.7426613911
C   4.3560957671 -4.6734550007  2.0116613911
C   3.9710957671 -6.1194550007  1.7226613911
C   4.1490957671 -7.2184550007  2.5276613911
C   3.6810957671 -8.5954550007  2.0766613911
C   4.8540957671 -7.1254550007  3.8986613911
H   9.6330957671 -4.6594550007  11.5466613911
H   12.8870957671 -3.5194550007  8.9246613911
H   11.1450957671 -2.7334550007  7.2216613911
H   11.8660957671 -5.1894550007  11.7806613911
H   7.7210957671 -4.4694550007  10.8606613911
H   7.3840957671 -2.8334550007  8.0166613911
H   8.8810957671 -3.8844550007  6.1026613911
H   9.3330957671 -3.9304550007  3.9536613911
H   9.0000957671 -5.0524550007  1.7016613911
H   5.2270957671 -2.7564550007  5.1056613911
H   5.7970957671 -5.6234550007  0.3316613911
H   3.4910957671 -4.2974550007  2.5716613911
H   4.2370957671 -4.1854550007  1.0366613911
H   3.3380957671 -6.2994550007  0.8566613911
H   3.1790957671 -9.1464550007  2.8816613911
H   4.6120957671 -9.1164550007  1.8226613911
H   2.8990957671 -8.5574550007  1.3076613911
H   5.8350957671 -7.5974550007  4.0336613911
H   4.2070957671 -7.5924550007  4.6516613911
H   4.8550957671 -6.1054550007  4.3026613911
84
Scanning combination 163/256: [2.1000, 1.8000]  Energy = -385.8232401606
O   11.1233000000 -4.8002000000  5.0341000000
O   11.3873000000 -0.2652000000  3.3291000000
O   18.1143000000 -4.2382000000 -2.5629000000
O   15.0523000000 -3.1142000000  0.9841000000
C   13.0053000000 -3.3232000000  2.3291000000
C   12.6993000000 -1.9792000000  2.4491000000
C   12.3973000000 -4.3072000000  3.1831000000
C   11.6323000000 -1.5992000000  3.2951000000
C   11.4783000000 -3.8632000000  4.1231000000
C   11.0613000000 -2.4802000000  4.2331000000
C   10.1223000000 -1.9712000000  5.2561000000
C   10.5373000000 -1.3232000000  6.3251000000
C   9.8643000000 -1.0622000000  7.5921000000
C   8.6825000000 -1.0450000000  7.8959000000
C   10.8123000000 -0.2992000000  8.5731000000
C   14.6833000000 -4.8512000000 -0.4449000000
C   15.5183000000 -3.8012000000 -0.0889000000
C   16.6953000000 -3.5982000000 -0.8399000000
C   16.9703000000 -4.4882000000 -1.8899000000
C   16.1523000000 -5.5962000000 -2.2009000000
C   14.9513000000 -5.7522000000 -1.5279000000
C   13.6583000000 -4.8752000000  0.4711000000
C   13.8893000000 -3.7772000000  1.2511000000
H   13.1623000000 -1.2452000000  1.7971000000
H   12.5583000000 -5.3772000000  3.0881000000
H   11.7383000000 -5.5442000000  4.9131000000
H   11.8513000000  0.1658000000  2.5901000000
H   9.4643000000 -1.3292000000  4.6731000000
H   11.4933000000 -0.8182000000  6.2071000000
H   7.9073000000 -0.9712000000  7.1161000000
H   8.2313000000 -0.9072000000  8.8131000000
H   11.1183000000  0.6778000000  8.1811000000
H   11.7213000000 -0.7962000000  8.9311000000
H   10.3263000000 -0.0742000000  9.5301000000
H   17.3553000000 -2.7642000000 -0.6209000000
H   16.3753000000 -6.3042000000 -2.9929000000
H   14.4873000000 -6.7332000000 -1.5779000000
H   12.8783000000 -5.6272000000  0.4831000000
H   18.2613000000 -4.9422000000 -3.2189000000
C   9.9734407133 -4.2973628433  10.6133579403
O   12.3044407133 -4.6493628433  11.1013579403
C   11.3314407133 -4.2273628433  10.2553579403
O   7.7504407133 -3.7813628433  10.1413579403
C   11.7894407133 -3.5553628433  9.0753579403
O   6.5024407133 -1.8253628433  5.9413579403
C   10.8104407133 -3.0763628433  8.2183579403
O   4.7994407133 -3.0613628433  4.3743579403
C   9.4234407133 -3.1863628433  8.4853579403
O   6.7134407133 -5.3413628433  0.5543579403
C   9.0274407133 -3.7643628433  9.7043579403
C   8.2512407133 -2.7805628433  7.6916579403
C   8.5904407133 -2.7463628433  6.3343579403
C   7.3654407133 -2.5613628433  5.5563579403
C   7.1994407133 -3.3423628433  4.2473579403
C   8.3234407133 -3.8713628433  3.5553579403
C   5.8914407133 -3.4853628433  3.6773579403
C   8.1494407133 -4.6313628433  2.3863579403
C   5.7274407133 -4.2423628433  2.4843579403
C   6.8874407133 -4.6693628433  1.7983579403
C   4.3314407133 -4.5713628433  2.0673579403
C   3.9464407133 -6.0173628433  1.7783579403
C   4.1244407133 -7.1163628433  2.5833579403
C   3.6564407133 -8.4933628433  2.1323579403
C   4.8294407133 -7.0233628433  3.9543579403
H   9.6084407133 -4.5573628433  11.6023579403
H   12.8624407133 -3.4173628433  8.9803579403
H   11.1204407133 -2.6313628433  7.2773579403
H   11.8414407133 -5.0873628433  11.8363579403
H   7.6964407133 -4.3673628433  10.9163579403
H   7.3594407133 -2.7313628433  8.0723579403
H   8.8564407133 -3.7823628433  6.1583579403
H   9.3084407133 -3.8283628433  4.0093579403
H   8.9754407133 -4.9503628433  1.7573579403
H   5.2024407133 -2.6543628433  5.1613579403
H   5.7724407133 -5.5213628433  0.3873579403
H   3.4664407133 -4.1953628433  2.6273579403
H   4.2124407133 -4.0833628433  1.0923579403
H   3.3134407133 -6.1973628433  0.9123579403
H   3.1544407133 -9.0443628433  2.9373579403
H   4.5874407133 -9.0143628433  1.8783579403
H   2.8744407133 -8.4553628433  1.3633579403
H   5.8104407133 -7.4953628433  4.0893579403
H   4.1824407133 -7.4903628433  4.7073579403
H   4.8304407133 -6.0033628433  4.3583579403
84
Scanning combination 164/256: [2.1000, 1.7000]  Energy = -385.7822970148
O   11.1233000000 -4.8002000000  5.0341000000
O   11.3873000000 -0.2652000000  3.3291000000
O   18.1143000000 -4.2382000000 -2.5629000000
O   15.0523000000 -3.1142000000  0.9841000000
C   13.0053000000 -3.3232000000  2.3291000000
C   12.6993000000 -1.9792000000  2.4491000000
C   12.3973000000 -4.3072000000  3.1831000000
C   11.6323000000 -1.5992000000  3.2951000000
C   11.4783000000 -3.8632000000  4.1231000000
C   11.0613000000 -2.4802000000  4.2331000000
C   10.1223000000 -1.9712000000  5.2561000000
C   10.5373000000 -1.3232000000  6.3251000000
C   9.8643000000 -1.0622000000  7.5921000000
C   8.6825000000 -1.0450000000  7.8959000000
C   10.8123000000 -0.2992000000  8.5731000000
C   14.6833000000 -4.8512000000 -0.4449000000
C   15.5183000000 -3.8012000000 -0.0889000000
C   16.6953000000 -3.5982000000 -0.8399000000
C   16.9703000000 -4.4882000000 -1.8899000000
C   16.1523000000 -5.5962000000 -2.2009000000
C   14.9513000000 -5.7522000000 -1.5279000000
C   13.6583000000 -4.8752000000  0.4711000000
C   13.8893000000 -3.7772000000  1.2511000000
H   13.1623000000 -1.2452000000  1.7971000000
H   12.5583000000 -5.3772000000  3.0881000000
H   11.7383000000 -5.5442000000  4.9131000000
H   11.8513000000  0.1658000000  2.5901000000
H   9.4643000000 -1.3292000000  4.6731000000
H   11.4933000000 -0.8182000000  6.2071000000
H   7.9073000000 -0.9712000000  7.1161000000
H   8.2313000000 -0.9072000000  8.8131000000
H   11.1183000000  0.6778000000  8.1811000000
H   11.7213000000 -0.7962000000  8.9311000000
H   10.3263000000 -0.0742000000  9.5301000000
H   17.3553000000 -2.7642000000 -0.6209000000
H   16.3753000000 -6.3042000000 -2.9929000000
H   14.4873000000 -6.7332000000 -1.5779000000
H   12.8783000000 -5.6272000000  0.4831000000
H   18.2613000000 -4.9422000000 -3.2189000000
C   9.9546871422 -4.1939415902  10.6643458900
O   12.2856871422 -4.5459415902  11.1523458900
C   11.3126871422 -4.1239415902  10.3063458900
O   7.7316871422 -3.6779415902  10.1923458900
C   11.7706871422 -3.4519415902  9.1263458900
O   6.4836871422 -1.7219415902  5.9923458900
C   10.7916871422 -2.9729415902  8.2693458900
O   4.7806871422 -2.9579415902  4.4253458900
C   9.4046871422 -3.0829415902  8.5363458900
O   6.6946871422 -5.2379415902  0.6053458900
C   9.0086871422 -3.6609415902  9.7553458900
C   8.2324871422 -2.6771415902  7.7426458900
C   8.5716871422 -2.6429415902  6.3853458900
C   7.3466871422 -2.4579415902  5.6073458900
C   7.1806871422 -3.2389415902  4.2983458900
C   8.3046871422 -3.7679415902  3.6063458900
C   5.8726871422 -3.3819415902  3.7283458900
C   8.1306871422 -4.5279415902  2.4373458900
C   5.7086871422 -4.1389415902  2.5353458900
C   6.8686871422 -4.5659415902  1.8493458900
C   4.3126871422 -4.4679415902  2.1183458900
C   3.9276871422 -5.9139415902  1.8293458900
C   4.1056871422 -7.0129415902  2.6343458900
C   3.6376871422 -8.3899415902  2.1833458900
C   4.8106871422 -6.9199415902  4.0053458900
H   9.5896871422 -4.4539415902  11.6533458900
H   12.8436871422 -3.3139415902  9.0313458900
H   11.1016871422 -2.5279415902  7.3283458900
H   11.8226871422 -4.9839415902  11.8873458900
H   7.6776871422 -4.2639415902  10.9673458900
H   7.3406871422 -2.6279415902  8.1233458900
H   8.8376871422 -3.6789415902  6.2093458900
H   9.2896871422 -3.7249415902  4.0603458900
H   8.9566871422 -4.8469415902  1.8083458900
H   5.1836871422 -2.5509415902  5.2123458900
H   5.7536871422 -5.4179415902  0.4383458900
H   3.4476871422 -4.0919415902  2.6783458900
H   4.1936871422 -3.9799415902  1.1433458900
H   3.2946871422 -6.0939415902  0.9633458900
H   3.1356871422 -8.9409415902  2.9883458900
H   4.5686871422 -8.9109415902  1.9293458900
H   2.8556871422 -8.3519415902  1.4143458900
H   5.7916871422 -7.3919415902  4.1403458900
H   4.1636871422 -7.3869415902  4.7583458900
H   4.8116871422 -5.8999415902  4.4093458900
84
Scanning combination 165/256: [2.1000, 1.6000]  Energy = -385.7291430231
O   11.1233000000 -4.8002000000  5.0341000000
O   11.3873000000 -0.2652000000  3.3291000000
O   18.1143000000 -4.2382000000 -2.5629000000
O   15.0523000000 -3.1142000000  0.9841000000
C   13.0053000000 -3.3232000000  2.3291000000
C   12.6993000000 -1.9792000000  2.4491000000
C   12.3973000000 -4.3072000000  3.1831000000
C   11.6323000000 -1.5992000000  3.2951000000
C   11.4783000000 -3.8632000000  4.1231000000
C   11.0613000000 -2.4802000000  4.2331000000
C   10.1223000000 -1.9712000000  5.2561000000
C   10.5373000000 -1.3232000000  6.3251000000
C   9.8643000000 -1.0622000000  7.5921000000
C   8.6825000000 -1.0450000000  7.8959000000
C   10.8123000000 -0.2992000000  8.5731000000
C   14.6833000000 -4.8512000000 -0.4449000000
C   15.5183000000 -3.8012000000 -0.0889000000
C   16.6953000000 -3.5982000000 -0.8399000000
C   16.9703000000 -4.4882000000 -1.8899000000
C   16.1523000000 -5.5962000000 -2.2009000000
C   14.9513000000 -5.7522000000 -1.5279000000
C   13.6583000000 -4.8752000000  0.4711000000
C   13.8893000000 -3.7772000000  1.2511000000
H   13.1623000000 -1.2452000000  1.7971000000
H   12.5583000000 -5.3772000000  3.0881000000
H   11.7383000000 -5.5442000000  4.9131000000
H   11.8513000000  0.1658000000  2.5901000000
H   9.4643000000 -1.3292000000  4.6731000000
H   11.4933000000 -0.8182000000  6.2071000000
H   7.9073000000 -0.9712000000  7.1161000000
H   8.2313000000 -0.9072000000  8.8131000000
H   11.1183000000  0.6778000000  8.1811000000
H   11.7213000000 -0.7962000000  8.9311000000
H   10.3263000000 -0.0742000000  9.5301000000
H   17.3553000000 -2.7642000000 -0.6209000000
H   16.3753000000 -6.3042000000 -2.9929000000
H   14.4873000000 -6.7332000000 -1.5779000000
H   12.8783000000 -5.6272000000  0.4831000000
H   18.2613000000 -4.9422000000 -3.2189000000
C   9.9415423374 -4.0895313414  10.7107670315
O   12.2725423374 -4.4415313414  11.1987670315
C   11.2995423374 -4.0195313414  10.3527670315
O   7.7185423374 -3.5735313414  10.2387670315
C   11.7575423374 -3.3475313414  9.1727670315
O   6.4705423374 -1.6175313414  6.0387670315
C   10.7785423374 -2.8685313414  8.3157670315
O   4.7675423374 -2.8535313414  4.4717670315
C   9.3915423374 -2.9785313414  8.5827670315
O   6.6815423374 -5.1335313414  0.6517670315
C   8.9955423374 -3.5565313414  9.8017670315
C   8.2193423374 -2.5727313414  7.7890670315
C   8.5585423374 -2.5385313414  6.4317670315
C   7.3335423374 -2.3535313414  5.6537670315
C   7.1675423374 -3.1345313414  4.3447670315
C   8.2915423374 -3.6635313414  3.6527670315
C   5.8595423374 -3.2775313414  3.7747670315
C   8.1175423374 -4.4235313414  2.4837670315
C   5.6955423374 -4.0345313414  2.5817670315
C   6.8555423374 -4.4615313414  1.8957670315
C   4.2995423374 -4.3635313414  2.1647670315
C   3.9145423374 -5.8095313414  1.8757670315
C   4.0925423374 -6.9085313414  2.6807670315
C   3.6245423374 -8.2855313414  2.2297670315
C   4.7975423374 -6.8155313414  4.0517670315
H   9.5765423374 -4.3495313414  11.6997670315
H   12.8305423374 -3.2095313414  9.0777670315
H   11.0885423374 -2.4235313414  7.3747670315
H   11.8095423374 -4.8795313414  11.9337670315
H   7.6645423374 -4.1595313414  11.0137670315
H   7.3275423374 -2.5235313414  8.1697670315
H   8.8245423374 -3.5745313414  6.2557670315
H   9.2765423374 -3.6205313414  4.1067670315
H   8.9435423374 -4.7425313414  1.8547670315
H   5.1705423374 -2.4465313414  5.2587670315
H   5.7405423374 -5.3135313414  0.4847670315
H   3.4345423374 -3.9875313414  2.7247670315
H   4.1805423374 -3.8755313414  1.1897670315
H   3.2815423374 -5.9895313414  1.0097670315
H   3.1225423374 -8.8365313414  3.0347670315
H   4.5555423374 -8.8065313414  1.9757670315
H   2.8425423374 -8.2475313414  1.4607670315
H   5.7785423374 -7.2875313414  4.1867670315
H   4.1505423374 -7.2825313414  4.8047670315
H   4.7985423374 -5.7955313414  4.4557670315
84
Scanning combination 166/256: [2.1000, 1.5000]  Energy = -385.6573497053
O   11.1233000000 -4.8002000000  5.0341000000
O   11.3873000000 -0.2652000000  3.3291000000
O   18.1143000000 -4.2382000000 -2.5629000000
O   15.0523000000 -3.1142000000  0.9841000000
C   13.0053000000 -3.3232000000  2.3291000000
C   12.6993000000 -1.9792000000  2.4491000000
C   12.3973000000 -4.3072000000  3.1831000000
C   11.6323000000 -1.5992000000  3.2951000000
C   11.4783000000 -3.8632000000  4.1231000000
C   11.0613000000 -2.4802000000  4.2331000000
C   10.1223000000 -1.9712000000  5.2561000000
C   10.5373000000 -1.3232000000  6.3251000000
C   9.8643000000 -1.0622000000  7.5921000000
C   8.6825000000 -1.0450000000  7.8959000000
C   10.8123000000 -0.2992000000  8.5731000000
C   14.6833000000 -4.8512000000 -0.4449000000
C   15.5183000000 -3.8012000000 -0.0889000000
C   16.6953000000 -3.5982000000 -0.8399000000
C   16.9703000000 -4.4882000000 -1.8899000000
C   16.1523000000 -5.5962000000 -2.2009000000
C   14.9513000000 -5.7522000000 -1.5279000000
C   13.6583000000 -4.8752000000  0.4711000000
C   13.8893000000 -3.7772000000  1.2511000000
H   13.1623000000 -1.2452000000  1.7971000000
H   12.5583000000 -5.3772000000  3.0881000000
H   11.7383000000 -5.5442000000  4.9131000000
H   11.8513000000  0.1658000000  2.5901000000
H   9.4643000000 -1.3292000000  4.6731000000
H   11.4933000000 -0.8182000000  6.2071000000
H   7.9073000000 -0.9712000000  7.1161000000
H   8.2313000000 -0.9072000000  8.8131000000
H   11.1183000000  0.6778000000  8.1811000000
H   11.7213000000 -0.7962000000  8.9311000000
H   10.3263000000 -0.0742000000  9.5301000000
H   17.3553000000 -2.7642000000 -0.6209000000
H   16.3753000000 -6.3042000000 -2.9929000000
H   14.4873000000 -6.7332000000 -1.5779000000
H   12.8783000000 -5.6272000000  0.4831000000
H   18.2613000000 -4.9422000000 -3.2189000000
C   9.9337530457 -3.9844384955  10.7527399740
O   12.2647530457 -4.3364384955  11.2407399740
C   11.2917530457 -3.9144384955  10.3947399740
O   7.7107530457 -3.4684384955  10.2807399740
C   11.7497530457 -3.2424384955  9.2147399740
O   6.4627530457 -1.5124384955  6.0807399740
C   10.7707530457 -2.7634384955  8.3577399740
O   4.7597530457 -2.7484384955  4.5137399740
C   9.3837530457 -2.8734384955  8.6247399740
O   6.6737530457 -5.0284384955  0.6937399740
C   8.9877530457 -3.4514384955  9.8437399740
C   8.2115530457 -2.4676384955  7.8310399740
C   8.5507530457 -2.4334384955  6.4737399740
C   7.3257530457 -2.2484384955  5.6957399740
C   7.1597530457 -3.0294384955  4.3867399740
C   8.2837530457 -3.5584384955  3.6947399740
C   5.8517530457 -3.1724384955  3.8167399740
C   8.1097530457 -4.3184384955  2.5257399740
C   5.6877530457 -3.9294384955  2.6237399740
C   6.8477530457 -4.3564384955  1.9377399740
C   4.2917530457 -4.2584384955  2.2067399740
C   3.9067530457 -5.7044384955  1.9177399740
C   4.0847530457 -6.8034384955  2.7227399740
C   3.6167530457 -8.1804384955  2.2717399740
C   4.7897530457 -6.7104384955  4.0937399740
H   9.5687530457 -4.2444384955  11.7417399740
H   12.8227530457 -3.1044384955  9.1197399740
H   11.0807530457 -2.3184384955  7.4167399740
H   11.8017530457 -4.7744384955  11.9757399740
H   7.6567530457 -4.0544384955  11.0557399740
H   7.3197530457 -2.4184384955  8.2117399740
H   8.8167530457 -3.4694384955  6.2977399740
H   9.2687530457 -3.5154384955  4.1487399740
H   8.9357530457 -4.6374384955  1.8967399740
H   5.1627530457 -2.3414384955  5.3007399740
H   5.7327530457 -5.2084384955  0.5267399740
H   3.4267530457 -3.8824384955  2.7667399740
H   4.1727530457 -3.7704384955  1.2317399740
H   3.2737530457 -5.8844384955  1.0517399740
H   3.1147530457 -8.7314384955  3.0767399740
H   4.5477530457 -8.7014384955  2.0177399740
H   2.8347530457 -8.1424384955  1.5027399740
H   5.7707530457 -7.1824384955  4.2287399740
H   4.1427530457 -7.1774384955  4.8467399740
H   4.7907530457 -5.6904384955  4.4977399740
84
Scanning combination 167/256: [2.0000, 2.9000]  Energy = -385.9309853312
O   11.1233000000 -4.8002000000  5.0341000000
O   11.3873000000 -0.2652000000  3.3291000000
O   18.1143000000 -4.2382000000 -2.5629000000
O   15.0523000000 -3.1142000000  0.9841000000
C   13.0053000000 -3.3232000000  2.3291000000
C   12.6993000000 -1.9792000000  2.4491000000
C   12.3973000000 -4.3072000000  3.1831000000
C   11.6323000000 -1.5992000000  3.2951000000
C   11.4783000000 -3.8632000000  4.1231000000
C   11.0613000000 -2.4802000000  4.2331000000
C   10.1223000000 -1.9712000000  5.2561000000
C   10.5373000000 -1.3232000000  6.3251000000
C   9.8643000000 -1.0622000000  7.5921000000
C   8.6825000000 -1.0450000000  7.8959000000
C   10.8123000000 -0.2992000000  8.5731000000
C   14.6833000000 -4.8512000000 -0.4449000000
C   15.5183000000 -3.8012000000 -0.0889000000
C   16.6953000000 -3.5982000000 -0.8399000000
C   16.9703000000 -4.4882000000 -1.8899000000
C   16.1523000000 -5.5962000000 -2.2009000000
C   14.9513000000 -5.7522000000 -1.5279000000
C   13.6583000000 -4.8752000000  0.4711000000
C   13.8893000000 -3.7772000000  1.2511000000
H   13.1623000000 -1.2452000000  1.7971000000
H   12.5583000000 -5.3772000000  3.0881000000
H   11.7383000000 -5.5442000000  4.9131000000
H   11.8513000000  0.1658000000  2.5901000000
H   9.4643000000 -1.3292000000  4.6731000000
H   11.4933000000 -0.8182000000  6.2071000000
H   7.9073000000 -0.9712000000  7.1161000000
H   8.2313000000 -0.9072000000  8.8131000000
H   11.1183000000  0.6778000000  8.1811000000
H   11.7213000000 -0.7962000000  8.9311000000
H   10.3263000000 -0.0742000000  9.5301000000
H   17.3553000000 -2.7642000000 -0.6209000000
H   16.3753000000 -6.3042000000 -2.9929000000
H   14.4873000000 -6.7332000000 -1.5779000000
H   12.8783000000 -5.6272000000  0.4831000000
H   18.2613000000 -4.9422000000 -3.2189000000
C   10.5607870338 -5.2641034006  9.7769289427
O   12.8917870338 -5.6161034006  10.2649289427
C   11.9187870338 -5.1941034006  9.4189289427
O   8.3377870338 -4.7481034006  9.3049289427
C   12.3767870338 -4.5221034006  8.2389289427
O   7.0897870338 -2.7921034006  5.1049289427
C   11.3977870338 -4.0431034006  7.3819289427
O   5.3867870338 -4.0281034006  3.5379289427
C   10.0107870338 -4.1531034006  7.6489289427
O   7.3007870338 -6.3081034006 -0.2820710573
C   9.6147870338 -4.7311034006  8.8679289427
C   8.8385870338 -3.7473034006  6.8552289427
C   9.1777870338 -3.7131034006  5.4979289427
C   7.9527870338 -3.5281034006  4.7199289427
C   7.7867870338 -4.3091034006  3.4109289427
C   8.9107870338 -4.8381034006  2.7189289427
C   6.4787870338 -4.4521034006  2.8409289427
C   8.7367870338 -5.5981034006  1.5499289427
C   6.3147870338 -5.2091034006  1.6479289427
C   7.4747870338 -5.6361034006  0.9619289427
C   4.9187870338 -5.5381034006  1.2309289427
C   4.5337870338 -6.9841034006  0.9419289427
C   4.7117870338 -8.0831034006  1.7469289427
C   4.2437870338 -9.4601034006  1.2959289427
C   5.4167870338 -7.9901034006  3.1179289427
H   10.1957870338 -5.5241034006  10.7659289427
H   13.4497870338 -4.3841034006  8.1439289427
H   11.7077870338 -3.5981034006  6.4409289427
H   12.4287870338 -6.0541034006  10.9999289427
H   8.2837870338 -5.3341034006  10.0799289427
H   7.9467870338 -3.6981034006  7.2359289427
H   9.4437870338 -4.7491034006  5.3219289427
H   9.8957870338 -4.7951034006  3.1729289427
H   9.5627870338 -5.9171034006  0.9209289427
H   5.7897870338 -3.6211034006  4.3249289427
H   6.3597870338 -6.4881034006 -0.4490710573
H   4.0537870338 -5.1621034006  1.7909289427
H   4.7997870338 -5.0501034006  0.2559289427
H   3.9007870338 -7.1641034006  0.0759289427
H   3.7417870338 -10.0111034006  2.1009289427
H   5.1747870338 -9.9811034006  1.0419289427
H   3.4617870338 -9.4221034006  0.5269289427
H   6.3977870338 -8.4621034006  3.2529289427
H   4.7697870338 -8.4571034006  3.8709289427
H   5.4177870338 -6.9701034006  3.5219289427
84
Scanning combination 168/256: [2.0000, 2.8000]  Energy = -385.9374455210
O   11.1233000000 -4.8002000000  5.0341000000
O   11.3873000000 -0.2652000000  3.3291000000
O   18.1143000000 -4.2382000000 -2.5629000000
O   15.0523000000 -3.1142000000  0.9841000000
C   13.0053000000 -3.3232000000  2.3291000000
C   12.6993000000 -1.9792000000  2.4491000000
C   12.3973000000 -4.3072000000  3.1831000000
C   11.6323000000 -1.5992000000  3.2951000000
C   11.4783000000 -3.8632000000  4.1231000000
C   11.0613000000 -2.4802000000  4.2331000000
C   10.1223000000 -1.9712000000  5.2561000000
C   10.5373000000 -1.3232000000  6.3251000000
C   9.8643000000 -1.0622000000  7.5921000000
C   8.6825000000 -1.0450000000  7.8959000000
C   10.8123000000 -0.2992000000  8.5731000000
C   14.6833000000 -4.8512000000 -0.4449000000
C   15.5183000000 -3.8012000000 -0.0889000000
C   16.6953000000 -3.5982000000 -0.8399000000
C   16.9703000000 -4.4882000000 -1.8899000000
C   16.1523000000 -5.5962000000 -2.2009000000
C   14.9513000000 -5.7522000000 -1.5279000000
C   13.6583000000 -4.8752000000  0.4711000000
C   13.8893000000 -3.7772000000  1.2511000000
H   13.1623000000 -1.2452000000  1.7971000000
H   12.5583000000 -5.3772000000  3.0881000000
H   11.7383000000 -5.5442000000  4.9131000000
H   11.8513000000  0.1658000000  2.5901000000
H   9.4643000000 -1.3292000000  4.6731000000
H   11.4933000000 -0.8182000000  6.2071000000
H   7.9073000000 -0.9712000000  7.1161000000
H   8.2313000000 -0.9072000000  8.8131000000
H   11.1183000000  0.6778000000  8.1811000000
H   11.7213000000 -0.7962000000  8.9311000000
H   10.3263000000 -0.0742000000  9.5301000000
H   17.3553000000 -2.7642000000 -0.6209000000
H   16.3753000000 -6.3042000000 -2.9929000000
H   14.4873000000 -6.7332000000 -1.5779000000
H   12.8783000000 -5.6272000000  0.4831000000
H   18.2613000000 -4.9422000000 -3.2189000000
C   10.5535025445 -5.1715823490  9.8142537165
O   12.8845025445 -5.5235823490  10.3022537165
C   11.9115025445 -5.1015823490  9.4562537165
O   8.3305025445 -4.6555823490  9.3422537165
C   12.3695025445 -4.4295823490  8.2762537165
O   7.0825025445 -2.6995823490  5.1422537165
C   11.3905025445 -3.9505823490  7.4192537165
O   5.3795025445 -3.9355823490  3.5752537165
C   10.0035025445 -4.0605823490  7.6862537165
O   7.2935025445 -6.2155823490 -0.2447462835
C   9.6075025445 -4.6385823490  8.9052537165
C   8.8313025445 -3.6547823490  6.8925537165
C   9.1705025445 -3.6205823490  5.5352537165
C   7.9455025445 -3.4355823490  4.7572537165
C   7.7795025445 -4.2165823490  3.4482537165
C   8.9035025445 -4.7455823490  2.7562537165
C   6.4715025445 -4.3595823490  2.8782537165
C   8.7295025445 -5.5055823490  1.5872537165
C   6.3075025445 -5.1165823490  1.6852537165
C   7.4675025445 -5.5435823490  0.9992537165
C   4.9115025445 -5.4455823490  1.2682537165
C   4.5265025445 -6.8915823490  0.9792537165
C   4.7045025445 -7.9905823490  1.7842537165
C   4.2365025445 -9.3675823490  1.3332537165
C   5.4095025445 -7.8975823490  3.1552537165
H   10.1885025445 -5.4315823490  10.8032537165
H   13.4425025445 -4.2915823490  8.1812537165
H   11.7005025445 -3.5055823490  6.4782537165
H   12.4215025445 -5.9615823490  11.0372537165
H   8.2765025445 -5.2415823490  10.1172537165
H   7.9395025445 -3.6055823490  7.2732537165
H   9.4365025445 -4.6565823490  5.3592537165
H   9.8885025445 -4.7025823490  3.2102537165
H   9.5555025445 -5.8245823490  0.9582537165
H   5.7825025445 -3.5285823490  4.3622537165
H   6.3525025445 -6.3955823490 -0.4117462835
H   4.0465025445 -5.0695823490  1.8282537165
H   4.7925025445 -4.9575823490  0.2932537165
H   3.8935025445 -7.0715823490  0.1132537165
H   3.7345025445 -9.9185823490  2.1382537165
H   5.1675025445 -9.8885823490  1.0792537165
H   3.4545025445 -9.3295823490  0.5642537165
H   6.3905025445 -8.3695823490  3.2902537165
H   4.7625025445 -8.3645823490  3.9082537165
H   5.4105025445 -6.8775823490  3.5592537165
84
Scanning combination 169/256: [2.0000, 2.7000]  Energy = -385.9460507627
O   11.1233000000 -4.8002000000  5.0341000000
O   11.3873000000 -0.2652000000  3.3291000000
O   18.1143000000 -4.2382000000 -2.5629000000
O   15.0523000000 -3.1142000000  0.9841000000
C   13.0053000000 -3.3232000000  2.3291000000
C   12.6993000000 -1.9792000000  2.4491000000
C   12.3973000000 -4.3072000000  3.1831000000
C   11.6323000000 -1.5992000000  3.2951000000
C   11.4783000000 -3.8632000000  4.1231000000
C   11.0613000000 -2.4802000000  4.2331000000
C   10.1223000000 -1.9712000000  5.2561000000
C   10.5373000000 -1.3232000000  6.3251000000
C   9.8643000000 -1.0622000000  7.5921000000
C   8.6825000000 -1.0450000000  7.8959000000
C   10.8123000000 -0.2992000000  8.5731000000
C   14.6833000000 -4.8512000000 -0.4449000000
C   15.5183000000 -3.8012000000 -0.0889000000
C   16.6953000000 -3.5982000000 -0.8399000000
C   16.9703000000 -4.4882000000 -1.8899000000
C   16.1523000000 -5.5962000000 -2.2009000000
C   14.9513000000 -5.7522000000 -1.5279000000
C   13.6583000000 -4.8752000000  0.4711000000
C   13.8893000000 -3.7772000000  1.2511000000
H   13.1623000000 -1.2452000000  1.7971000000
H   12.5583000000 -5.3772000000  3.0881000000
H   11.7383000000 -5.5442000000  4.9131000000
H   11.8513000000  0.1658000000  2.5901000000
H   9.4643000000 -1.3292000000  4.6731000000
H   11.4933000000 -0.8182000000  6.2071000000
H   7.9073000000 -0.9712000000  7.1161000000
H   8.2313000000 -0.9072000000  8.8131000000
H   11.1183000000  0.6778000000  8.1811000000
H   11.7213000000 -0.7962000000  8.9311000000
H   10.3263000000 -0.0742000000  9.5301000000
H   17.3553000000 -2.7642000000 -0.6209000000
H   16.3753000000 -6.3042000000 -2.9929000000
H   14.4873000000 -6.7332000000 -1.5779000000
H   12.8783000000 -5.6272000000  0.4831000000
H   18.2613000000 -4.9422000000 -3.2189000000
C   10.5101757372 -5.0911714664  9.8789991718
O   12.8411757372 -5.4431714664  10.3669991718
C   11.8681757372 -5.0211714664  9.5209991718
O   8.2871757372 -4.5751714664  9.4069991718
C   12.3261757372 -4.3491714664  8.3409991718
O   7.0391757372 -2.6191714664  5.2069991718
C   11.3471757372 -3.8701714664  7.4839991718
O   5.3361757372 -3.8551714664  3.6399991718
C   9.9601757372 -3.9801714664  7.7509991718
O   7.2501757372 -6.1351714664 -0.1800008282
C   9.5641757372 -4.5581714664  8.9699991718
C   8.7879757372 -3.5743714664  6.9572991718
C   9.1271757372 -3.5401714664  5.5999991718
C   7.9021757372 -3.3551714664  4.8219991718
C   7.7361757372 -4.1361714664  3.5129991718
C   8.8601757372 -4.6651714664  2.8209991718
C   6.4281757372 -4.2791714664  2.9429991718
C   8.6861757372 -5.4251714664  1.6519991718
C   6.2641757372 -5.0361714664  1.7499991718
C   7.4241757372 -5.4631714664  1.0639991718
C   4.8681757372 -5.3651714664  1.3329991718
C   4.4831757372 -6.8111714664  1.0439991718
C   4.6611757372 -7.9101714664  1.8489991718
C   4.1931757372 -9.2871714664  1.3979991718
C   5.3661757372 -7.8171714664  3.2199991718
H   10.1451757372 -5.3511714664  10.8679991718
H   13.3991757372 -4.2111714664  8.2459991718
H   11.6571757372 -3.4251714664  6.5429991718
H   12.3781757372 -5.8811714664  11.1019991718
H   8.2331757372 -5.1611714664  10.1819991718
H   7.8961757372 -3.5251714664  7.3379991718
H   9.3931757372 -4.5761714664  5.4239991718
H   9.8451757372 -4.6221714664  3.2749991718
H   9.5121757372 -5.7441714664  1.0229991718
H   5.7391757372 -3.4481714664  4.4269991718
H   6.3091757372 -6.3151714664 -0.3470008282
H   4.0031757372 -4.9891714664  1.8929991718
H   4.7491757372 -4.8771714664  0.3579991718
H   3.8501757372 -6.9911714664  0.1779991718
H   3.6911757372 -9.8381714664  2.2029991718
H   5.1241757372 -9.8081714664  1.1439991718
H   3.4111757372 -9.2491714664  0.6289991718
H   6.3471757372 -8.2891714664  3.3549991718
H   4.7191757372 -8.2841714664  3.9729991718
H   5.3671757372 -6.7971714664  3.6239991718
84
Scanning combination 170/256: [2.0000, 2.6000]  Energy = -385.9516104456
O   11.1233000000 -4.8002000000  5.0341000000
O   11.3873000000 -0.2652000000  3.3291000000
O   18.1143000000 -4.2382000000 -2.5629000000
O   15.0523000000 -3.1142000000  0.9841000000
C   13.0053000000 -3.3232000000  2.3291000000
C   12.6993000000 -1.9792000000  2.4491000000
C   12.3973000000 -4.3072000000  3.1831000000
C   11.6323000000 -1.5992000000  3.2951000000
C   11.4783000000 -3.8632000000  4.1231000000
C   11.0613000000 -2.4802000000  4.2331000000
C   10.1223000000 -1.9712000000  5.2561000000
C   10.5373000000 -1.3232000000  6.3251000000
C   9.8643000000 -1.0622000000  7.5921000000
C   8.6825000000 -1.0450000000  7.8959000000
C   10.8123000000 -0.2992000000  8.5731000000
C   14.6833000000 -4.8512000000 -0.4449000000
C   15.5183000000 -3.8012000000 -0.0889000000
C   16.6953000000 -3.5982000000 -0.8399000000
C   16.9703000000 -4.4882000000 -1.8899000000
C   16.1523000000 -5.5962000000 -2.2009000000
C   14.9513000000 -5.7522000000 -1.5279000000
C   13.6583000000 -4.8752000000  0.4711000000
C   13.8893000000 -3.7772000000  1.2511000000
H   13.1623000000 -1.2452000000  1.7971000000
H   12.5583000000 -5.3772000000  3.0881000000
H   11.7383000000 -5.5442000000  4.9131000000
H   11.8513000000  0.1658000000  2.5901000000
H   9.4643000000 -1.3292000000  4.6731000000
H   11.4933000000 -0.8182000000  6.2071000000
H   7.9073000000 -0.9712000000  7.1161000000
H   8.2313000000 -0.9072000000  8.8131000000
H   11.1183000000  0.6778000000  8.1811000000
H   11.7213000000 -0.7962000000  8.9311000000
H   10.3263000000 -0.0742000000  9.5301000000
H   17.3553000000 -2.7642000000 -0.6209000000
H   16.3753000000 -6.3042000000 -2.9929000000
H   14.4873000000 -6.7332000000 -1.5779000000
H   12.8783000000 -5.6272000000  0.4831000000
H   18.2613000000 -4.9422000000 -3.2189000000
C   10.4489317813 -5.0151306281  9.9579280682
O   12.7799317813 -5.3671306281  10.4459280682
C   11.8069317813 -4.9451306281  9.5999280682
O   8.2259317813 -4.4991306281  9.4859280682
C   12.2649317813 -4.2731306281  8.4199280682
O   6.9779317813 -2.5431306281  5.2859280682
C   11.2859317813 -3.7941306281  7.5629280682
O   5.2749317813 -3.7791306281  3.7189280682
C   9.8989317813 -3.9041306281  7.8299280682
O   7.1889317813 -6.0591306281 -0.1010719318
C   9.5029317813 -4.4821306281  9.0489280682
C   8.7267317813 -3.4983306281  7.0362280682
C   9.0659317813 -3.4641306281  5.6789280682
C   7.8409317813 -3.2791306281  4.9009280682
C   7.6749317813 -4.0601306281  3.5919280682
C   8.7989317813 -4.5891306281  2.8999280682
C   6.3669317813 -4.2031306281  3.0219280682
C   8.6249317813 -5.3491306281  1.7309280682
C   6.2029317813 -4.9601306281  1.8289280682
C   7.3629317813 -5.3871306281  1.1429280682
C   4.8069317813 -5.2891306281  1.4119280682
C   4.4219317813 -6.7351306281  1.1229280682
C   4.5999317813 -7.8341306281  1.9279280682
C   4.1319317813 -9.2111306281  1.4769280682
C   5.3049317813 -7.7411306281  3.2989280682
H   10.0839317813 -5.2751306281  10.9469280682
H   13.3379317813 -4.1351306281  8.3249280682
H   11.5959317813 -3.3491306281  6.6219280682
H   12.3169317813 -5.8051306281  11.1809280682
H   8.1719317813 -5.0851306281  10.2609280682
H   7.8349317813 -3.4491306281  7.4169280682
H   9.3319317813 -4.5001306281  5.5029280682
H   9.7839317813 -4.5461306281  3.3539280682
H   9.4509317813 -5.6681306281  1.1019280682
H   5.6779317813 -3.3721306281  4.5059280682
H   6.2479317813 -6.2391306281 -0.2680719318
H   3.9419317813 -4.9131306281  1.9719280682
H   4.6879317813 -4.8011306281  0.4369280682
H   3.7889317813 -6.9151306281  0.2569280682
H   3.6299317813 -9.7621306281  2.2819280682
H   5.0629317813 -9.7321306281  1.2229280682
H   3.3499317813 -9.1731306281  0.7079280682
H   6.2859317813 -8.2131306281  3.4339280682
H   4.6579317813 -8.2081306281  4.0519280682
H   5.3059317813 -6.7211306281  3.7029280682
84
Scanning combination 171/256: [2.0000, 2.5000]  Energy = -385.9519799944
O   11.1233000000 -4.8002000000  5.0341000000
O   11.3873000000 -0.2652000000  3.3291000000
O   18.1143000000 -4.2382000000 -2.5629000000
O   15.0523000000 -3.1142000000  0.9841000000
C   13.0053000000 -3.3232000000  2.3291000000
C   12.6993000000 -1.9792000000  2.4491000000
C   12.3973000000 -4.3072000000  3.1831000000
C   11.6323000000 -1.5992000000  3.2951000000
C   11.4783000000 -3.8632000000  4.1231000000
C   11.0613000000 -2.4802000000  4.2331000000
C   10.1223000000 -1.9712000000  5.2561000000
C   10.5373000000 -1.3232000000  6.3251000000
C   9.8643000000 -1.0622000000  7.5921000000
C   8.6825000000 -1.0450000000  7.8959000000
C   10.8123000000 -0.2992000000  8.5731000000
C   14.6833000000 -4.8512000000 -0.4449000000
C   15.5183000000 -3.8012000000 -0.0889000000
C   16.6953000000 -3.5982000000 -0.8399000000
C   16.9703000000 -4.4882000000 -1.8899000000
C   16.1523000000 -5.5962000000 -2.2009000000
C   14.9513000000 -5.7522000000 -1.5279000000
C   13.6583000000 -4.8752000000  0.4711000000
C   13.8893000000 -3.7772000000  1.2511000000
H   13.1623000000 -1.2452000000  1.7971000000
H   12.5583000000 -5.3772000000  3.0881000000
H   11.7383000000 -5.5442000000  4.9131000000
H   11.8513000000  0.1658000000  2.5901000000
H   9.4643000000 -1.3292000000  4.6731000000
H   11.4933000000 -0.8182000000  6.2071000000
H   7.9073000000 -0.9712000000  7.1161000000
H   8.2313000000 -0.9072000000  8.8131000000
H   11.1183000000  0.6778000000  8.1811000000
H   11.7213000000 -0.7962000000  8.9311000000
H   10.3263000000 -0.0742000000  9.5301000000
H   17.3553000000 -2.7642000000 -0.6209000000
H   16.3753000000 -6.3042000000 -2.9929000000
H   14.4873000000 -6.7332000000 -1.5779000000
H   12.8783000000 -5.6272000000  0.4831000000
H   18.2613000000 -4.9422000000 -3.2189000000
C   10.3814557749 -4.9384623476  10.0425090160
O   12.7124557749 -5.2904623476  10.5305090160
C   11.7394557749 -4.8684623476  9.6845090160
O   8.1584557749 -4.4224623476  9.5705090160
C   12.1974557749 -4.1964623476  8.5045090160
O   6.9104557749 -2.4664623476  5.3705090160
C   11.2184557749 -3.7174623476  7.6475090160
O   5.2074557749 -3.7024623476  3.8035090160
C   9.8314557749 -3.8274623476  7.9145090160
O   7.1214557749 -5.9824623476 -0.0164909840
C   9.4354557749 -4.4054623476  9.1335090160
C   8.6592557749 -3.4216623476  7.1208090160
C   8.9984557749 -3.3874623476  5.7635090160
C   7.7734557749 -3.2024623476  4.9855090160
C   7.6074557749 -3.9834623476  3.6765090160
C   8.7314557749 -4.5124623476  2.9845090160
C   6.2994557749 -4.1264623476  3.1065090160
C   8.5574557749 -5.2724623476  1.8155090160
C   6.1354557749 -4.8834623476  1.9135090160
C   7.2954557749 -5.3104623476  1.2275090160
C   4.7394557749 -5.2124623476  1.4965090160
C   4.3544557749 -6.6584623476  1.2075090160
C   4.5324557749 -7.7574623476  2.0125090160
C   4.0644557749 -9.1344623476  1.5615090160
C   5.2374557749 -7.6644623476  3.3835090160
H   10.0164557749 -5.1984623476  11.0315090160
H   13.2704557749 -4.0584623476  8.4095090160
H   11.5284557749 -3.2724623476  6.7065090160
H   12.2494557749 -5.7284623476  11.2655090160
H   8.1044557749 -5.0084623476  10.3455090160
H   7.7674557749 -3.3724623476  7.5015090160
H   9.2644557749 -4.4234623476  5.5875090160
H   9.7164557749 -4.4694623476  3.4385090160
H   9.3834557749 -5.5914623476  1.1865090160
H   5.6104557749 -3.2954623476  4.5905090160
H   6.1804557749 -6.1624623476 -0.1834909840
H   3.8744557749 -4.8364623476  2.0565090160
H   4.6204557749 -4.7244623476  0.5215090160
H   3.7214557749 -6.8384623476  0.3415090160
H   3.5624557749 -9.6854623476  2.3665090160
H   4.9954557749 -9.6554623476  1.3075090160
H   3.2824557749 -9.0964623476  0.7925090160
H   6.2184557749 -8.1364623476  3.5185090160
H   4.5904557749 -8.1314623476  4.1365090160
H   5.2384557749 -6.6444623476  3.7875090160
84
Scanning combination 172/256: [2.0000, 2.4000]  Energy = -385.9471229311
O   11.1233000000 -4.8002000000  5.0341000000
O   11.3873000000 -0.2652000000  3.3291000000
O   18.1143000000 -4.2382000000 -2.5629000000
O   15.0523000000 -3.1142000000  0.9841000000
C   13.0053000000 -3.3232000000  2.3291000000
C   12.6993000000 -1.9792000000  2.4491000000
C   12.3973000000 -4.3072000000  3.1831000000
C   11.6323000000 -1.5992000000  3.2951000000
C   11.4783000000 -3.8632000000  4.1231000000
C   11.0613000000 -2.4802000000  4.2331000000
C   10.1223000000 -1.9712000000  5.2561000000
C   10.5373000000 -1.3232000000  6.3251000000
C   9.8643000000 -1.0622000000  7.5921000000
C   8.6825000000 -1.0450000000  7.8959000000
C   10.8123000000 -0.2992000000  8.5731000000
C   14.6833000000 -4.8512000000 -0.4449000000
C   15.5183000000 -3.8012000000 -0.0889000000
C   16.6953000000 -3.5982000000 -0.8399000000
C   16.9703000000 -4.4882000000 -1.8899000000
C   16.1523000000 -5.5962000000 -2.2009000000
C   14.9513000000 -5.7522000000 -1.5279000000
C   13.6583000000 -4.8752000000  0.4711000000
C   13.8893000000 -3.7772000000  1.2511000000
H   13.1623000000 -1.2452000000  1.7971000000
H   12.5583000000 -5.3772000000  3.0881000000
H   11.7383000000 -5.5442000000  4.9131000000
H   11.8513000000  0.1658000000  2.5901000000
H   9.4643000000 -1.3292000000  4.6731000000
H   11.4933000000 -0.8182000000  6.2071000000
H   7.9073000000 -0.9712000000  7.1161000000
H   8.2313000000 -0.9072000000  8.8131000000
H   11.1183000000  0.6778000000  8.1811000000
H   11.7213000000 -0.7962000000  8.9311000000
H   10.3263000000 -0.0742000000  9.5301000000
H   17.3553000000 -2.7642000000 -0.6209000000
H   16.3753000000 -6.3042000000 -2.9929000000
H   14.4873000000 -6.7332000000 -1.5779000000
H   12.8783000000 -5.6272000000  0.4831000000
H   18.2613000000 -4.9422000000 -3.2189000000
C   10.3150379039 -4.8585809198  10.1272412911
O   12.6460379039 -5.2105809198  10.6152412911
C   11.6730379039 -4.7885809198  9.7692412911
O   8.0920379039 -4.3425809198  9.6552412911
C   12.1310379039 -4.1165809198  8.5892412911
O   6.8440379039 -2.3865809198  5.4552412911
C   11.1520379039 -3.6375809198  7.7322412911
O   5.1410379039 -3.6225809198  3.8882412911
C   9.7650379039 -3.7475809198  7.9992412911
O   7.0550379039 -5.9025809198  0.0682412911
C   9.3690379039 -4.3255809198  9.2182412911
C   8.5928379039 -3.3417809198  7.2055412911
C   8.9320379039 -3.3075809198  5.8482412911
C   7.7070379039 -3.1225809198  5.0702412911
C   7.5410379039 -3.9035809198  3.7612412911
C   8.6650379039 -4.4325809198  3.0692412911
C   6.2330379039 -4.0465809198  3.1912412911
C   8.4910379039 -5.1925809198  1.9002412911
C   6.0690379039 -4.8035809198  1.9982412911
C   7.2290379039 -5.2305809198  1.3122412911
C   4.6730379039 -5.1325809198  1.5812412911
C   4.2880379039 -6.5785809198  1.2922412911
C   4.4660379039 -7.6775809198  2.0972412911
C   3.9980379039 -9.0545809198  1.6462412911
C   5.1710379039 -7.5845809198  3.4682412911
H   9.9500379039 -5.1185809198  11.1162412911
H   13.2040379039 -3.9785809198  8.4942412911
H   11.4620379039 -3.1925809198  6.7912412911
H   12.1830379039 -5.6485809198  11.3502412911
H   8.0380379039 -4.9285809198  10.4302412911
H   7.7010379039 -3.2925809198  7.5862412911
H   9.1980379039 -4.3435809198  5.6722412911
H   9.6500379039 -4.3895809198  3.5232412911
H   9.3170379039 -5.5115809198  1.2712412911
H   5.5440379039 -3.2155809198  4.6752412911
H   6.1140379039 -6.0825809198 -0.0987587089
H   3.8080379039 -4.7565809198  2.1412412911
H   4.5540379039 -4.6445809198  0.6062412911
H   3.6550379039 -6.7585809198  0.4262412911
H   3.4960379039 -9.6055809198  2.4512412911
H   4.9290379039 -9.5755809198  1.3922412911
H   3.2160379039 -9.0165809198  0.8772412911
H   6.1520379039 -8.0565809198  3.6032412911
H   4.5240379039 -8.0515809198  4.2212412911
H   5.1720379039 -6.5645809198  3.8722412911
84
Scanning combination 173/256: [2.0000, 2.3000]  Energy = -385.9375466104
O   11.1233000000 -4.8002000000  5.0341000000
O   11.3873000000 -0.2652000000  3.3291000000
O   18.1143000000 -4.2382000000 -2.5629000000
O   15.0523000000 -3.1142000000  0.9841000000
C   13.0053000000 -3.3232000000  2.3291000000
C   12.6993000000 -1.9792000000  2.4491000000
C   12.3973000000 -4.3072000000  3.1831000000
C   11.6323000000 -1.5992000000  3.2951000000
C   11.4783000000 -3.8632000000  4.1231000000
C   11.0613000000 -2.4802000000  4.2331000000
C   10.1223000000 -1.9712000000  5.2561000000
C   10.5373000000 -1.3232000000  6.3251000000
C   9.8643000000 -1.0622000000  7.5921000000
C   8.6825000000 -1.0450000000  7.8959000000
C   10.8123000000 -0.2992000000  8.5731000000
C   14.6833000000 -4.8512000000 -0.4449000000
C   15.5183000000 -3.8012000000 -0.0889000000
C   16.6953000000 -3.5982000000 -0.8399000000
C   16.9703000000 -4.4882000000 -1.8899000000
C   16.1523000000 -5.5962000000 -2.2009000000
C   14.9513000000 -5.7522000000 -1.5279000000
C   13.6583000000 -4.8752000000  0.4711000000
C   13.8893000000 -3.7772000000  1.2511000000
H   13.1623000000 -1.2452000000  1.7971000000
H   12.5583000000 -5.3772000000  3.0881000000
H   11.7383000000 -5.5442000000  4.9131000000
H   11.8513000000  0.1658000000  2.5901000000
H   9.4643000000 -1.3292000000  4.6731000000
H   11.4933000000 -0.8182000000  6.2071000000
H   7.9073000000 -0.9712000000  7.1161000000
H   8.2313000000 -0.9072000000  8.8131000000
H   11.1183000000  0.6778000000  8.1811000000
H   11.7213000000 -0.7962000000  8.9311000000
H   10.3263000000 -0.0742000000  9.5301000000
H   17.3553000000 -2.7642000000 -0.6209000000
H   16.3753000000 -6.3042000000 -2.9929000000
H   14.4873000000 -6.7332000000 -1.5779000000
H   12.8783000000 -5.6272000000  0.4831000000
H   18.2613000000 -4.9422000000 -3.2189000000
C   10.2536987384 -4.7746115503  10.2089067402
O   12.5846987384 -5.1266115503  10.6969067402
C   11.6116987384 -4.7046115503  9.8509067402
O   8.0306987384 -4.2586115503  9.7369067402
C   12.0696987384 -4.0326115503  8.6709067402
O   6.7826987384 -2.3026115503  5.5369067402
C   11.0906987384 -3.5536115503  7.8139067402
O   5.0796987384 -3.5386115503  3.9699067402
C   9.7036987384 -3.6636115503  8.0809067402
O   6.9936987384 -5.8186115503  0.1499067402
C   9.3076987384 -4.2416115503  9.2999067402
C   8.5314987384 -3.2578115503  7.2872067402
C   8.8706987384 -3.2236115503  5.9299067402
C   7.6456987384 -3.0386115503  5.1519067402
C   7.4796987384 -3.8196115503  3.8429067402
C   8.6036987384 -4.3486115503  3.1509067402
C   6.1716987384 -3.9626115503  3.2729067402
C   8.4296987384 -5.1086115503  1.9819067402
C   6.0076987384 -4.7196115503  2.0799067402
C   7.1676987384 -5.1466115503  1.3939067402
C   4.6116987384 -5.0486115503  1.6629067402
C   4.2266987384 -6.4946115503  1.3739067402
C   4.4046987384 -7.5936115503  2.1789067402
C   3.9366987384 -8.9706115503  1.7279067402
C   5.1096987384 -7.5006115503  3.5499067402
H   9.8886987384 -5.0346115503  11.1979067402
H   13.1426987384 -3.8946115503  8.5759067402
H   11.4006987384 -3.1086115503  6.8729067402
H   12.1216987384 -5.5646115503  11.4319067402
H   7.9766987384 -4.8446115503  10.5119067402
H   7.6396987384 -3.2086115503  7.6679067402
H   9.1366987384 -4.2596115503  5.7539067402
H   9.5886987384 -4.3056115503  3.6049067402
H   9.2556987384 -5.4276115503  1.3529067402
H   5.4826987384 -3.1316115503  4.7569067402
H   6.0526987384 -5.9986115503 -0.0170932598
H   3.7466987384 -4.6726115503  2.2229067402
H   4.4926987384 -4.5606115503  0.6879067402
H   3.5936987384 -6.6746115503  0.5079067402
H   3.4346987384 -9.5216115503  2.5329067402
H   4.8676987384 -9.4916115503  1.4739067402
H   3.1546987384 -8.9326115503  0.9589067402
H   6.0906987384 -7.9726115503  3.6849067402
H   4.4626987384 -7.9676115503  4.3029067402
H   5.1106987384 -6.4806115503  3.9539067402
84
Scanning combination 174/256: [2.0000, 2.2000]  Energy = -385.9237860437
O   11.1233000000 -4.8002000000  5.0341000000
O   11.3873000000 -0.2652000000  3.3291000000
O   18.1143000000 -4.2382000000 -2.5629000000
O   15.0523000000 -3.1142000000  0.9841000000
C   13.0053000000 -3.3232000000  2.3291000000
C   12.6993000000 -1.9792000000  2.4491000000
C   12.3973000000 -4.3072000000  3.1831000000
C   11.6323000000 -1.5992000000  3.2951000000
C   11.4783000000 -3.8632000000  4.1231000000
C   11.0613000000 -2.4802000000  4.2331000000
C   10.1223000000 -1.9712000000  5.2561000000
C   10.5373000000 -1.3232000000  6.3251000000
C   9.8643000000 -1.0622000000  7.5921000000
C   8.6825000000 -1.0450000000  7.8959000000
C   10.8123000000 -0.2992000000  8.5731000000
C   14.6833000000 -4.8512000000 -0.4449000000
C   15.5183000000 -3.8012000000 -0.0889000000
C   16.6953000000 -3.5982000000 -0.8399000000
C   16.9703000000 -4.4882000000 -1.8899000000
C   16.1523000000 -5.5962000000 -2.2009000000
C   14.9513000000 -5.7522000000 -1.5279000000
C   13.6583000000 -4.8752000000  0.4711000000
C   13.8893000000 -3.7772000000  1.2511000000
H   13.1623000000 -1.2452000000  1.7971000000
H   12.5583000000 -5.3772000000  3.0881000000
H   11.7383000000 -5.5442000000  4.9131000000
H   11.8513000000  0.1658000000  2.5901000000
H   9.4643000000 -1.3292000000  4.6731000000
H   11.4933000000 -0.8182000000  6.2071000000
H   7.9073000000 -0.9712000000  7.1161000000
H   8.2313000000 -0.9072000000  8.8131000000
H   11.1183000000  0.6778000000  8.1811000000
H   11.7213000000 -0.7962000000  8.9311000000
H   10.3263000000 -0.0742000000  9.5301000000
H   17.3553000000 -2.7642000000 -0.6209000000
H   16.3753000000 -6.3042000000 -2.9929000000
H   14.4873000000 -6.7332000000 -1.5779000000
H   12.8783000000 -5.6272000000  0.4831000000
H   18.2613000000 -4.9422000000 -3.2189000000
C   10.1992146715 -4.6866407679  10.2859251899
O   12.5302146715 -5.0386407679  10.7739251899
C   11.5572146715 -4.6166407679  9.9279251899
O   7.9762146715 -4.1706407679  9.8139251899
C   12.0152146715 -3.9446407679  8.7479251899
O   6.7282146715 -2.2146407679  5.6139251899
C   11.0362146715 -3.4656407679  7.8909251899
O   5.0252146715 -3.4506407679  4.0469251899
C   9.6492146715 -3.5756407679  8.1579251899
O   6.9392146715 -5.7306407679  0.2269251899
C   9.2532146715 -4.1536407679  9.3769251899
C   8.4770146715 -3.1698407679  7.3642251899
C   8.8162146715 -3.1356407679  6.0069251899
C   7.5912146715 -2.9506407679  5.2289251899
C   7.4252146715 -3.7316407679  3.9199251899
C   8.5492146715 -4.2606407679  3.2279251899
C   6.1172146715 -3.8746407679  3.3499251899
C   8.3752146715 -5.0206407679  2.0589251899
C   5.9532146715 -4.6316407679  2.1569251899
C   7.1132146715 -5.0586407679  1.4709251899
C   4.5572146715 -4.9606407679  1.7399251899
C   4.1722146715 -6.4066407679  1.4509251899
C   4.3502146715 -7.5056407679  2.2559251899
C   3.8822146715 -8.8826407679  1.8049251899
C   5.0552146715 -7.4126407679  3.6269251899
H   9.8342146715 -4.9466407679  11.2749251899
H   13.0882146715 -3.8066407679  8.6529251899
H   11.3462146715 -3.0206407679  6.9499251899
H   12.0672146715 -5.4766407679  11.5089251899
H   7.9222146715 -4.7566407679  10.5889251899
H   7.5852146715 -3.1206407679  7.7449251899
H   9.0822146715 -4.1716407679  5.8309251899
H   9.5342146715 -4.2176407679  3.6819251899
H   9.2012146715 -5.3396407679  1.4299251899
H   5.4282146715 -3.0436407679  4.8339251899
H   5.9982146715 -5.9106407679  0.0599251899
H   3.6922146715 -4.5846407679  2.2999251899
H   4.4382146715 -4.4726407679  0.7649251899
H   3.5392146715 -6.5866407679  0.5849251899
H   3.3802146715 -9.4336407679  2.6099251899
H   4.8132146715 -9.4036407679  1.5509251899
H   3.1002146715 -8.8446407679  1.0359251899
H   6.0362146715 -7.8846407679  3.7619251899
H   4.4082146715 -7.8796407679  4.3799251899
H   5.0562146715 -6.3926407679  4.0309251899
84
Scanning combination 175/256: [2.0000, 2.1000]  Energy = -385.9060138460
O   11.1233000000 -4.8002000000  5.0341000000
O   11.3873000000 -0.2652000000  3.3291000000
O   18.1143000000 -4.2382000000 -2.5629000000
O   15.0523000000 -3.1142000000  0.9841000000
C   13.0053000000 -3.3232000000  2.3291000000
C   12.6993000000 -1.9792000000  2.4491000000
C   12.3973000000 -4.3072000000  3.1831000000
C   11.6323000000 -1.5992000000  3.2951000000
C   11.4783000000 -3.8632000000  4.1231000000
C   11.0613000000 -2.4802000000  4.2331000000
C   10.1223000000 -1.9712000000  5.2561000000
C   10.5373000000 -1.3232000000  6.3251000000
C   9.8643000000 -1.0622000000  7.5921000000
C   8.6825000000 -1.0450000000  7.8959000000
C   10.8123000000 -0.2992000000  8.5731000000
C   14.6833000000 -4.8512000000 -0.4449000000
C   15.5183000000 -3.8012000000 -0.0889000000
C   16.6953000000 -3.5982000000 -0.8399000000
C   16.9703000000 -4.4882000000 -1.8899000000
C   16.1523000000 -5.5962000000 -2.2009000000
C   14.9513000000 -5.7522000000 -1.5279000000
C   13.6583000000 -4.8752000000  0.4711000000
C   13.8893000000 -3.7772000000  1.2511000000
H   13.1623000000 -1.2452000000  1.7971000000
H   12.5583000000 -5.3772000000  3.0881000000
H   11.7383000000 -5.5442000000  4.9131000000
H   11.8513000000  0.1658000000  2.5901000000
H   9.4643000000 -1.3292000000  4.6731000000
H   11.4933000000 -0.8182000000  6.2071000000
H   7.9073000000 -0.9712000000  7.1161000000
H   8.2313000000 -0.9072000000  8.8131000000
H   11.1183000000  0.6778000000  8.1811000000
H   11.7213000000 -0.7962000000  8.9311000000
H   10.3263000000 -0.0742000000  9.5301000000
H   17.3553000000 -2.7642000000 -0.6209000000
H   16.3753000000 -6.3042000000 -2.9929000000
H   14.4873000000 -6.7332000000 -1.5779000000
H   12.8783000000 -5.6272000000  0.4831000000
H   18.2613000000 -4.9422000000 -3.2189000000
C   10.1520491688 -4.5951575582  10.3577282772
O   12.4830491688 -4.9471575582  10.8457282772
C   11.5100491688 -4.5251575582  9.9997282772
O   7.9290491688 -4.0791575582  9.8857282772
C   11.9680491688 -3.8531575582  8.8197282772
O   6.6810491688 -2.1231575582  5.6857282772
C   10.9890491688 -3.3741575582  7.9627282772
O   4.9780491688 -3.3591575582  4.1187282772
C   9.6020491688 -3.4841575582  8.2297282772
O   6.8920491688 -5.6391575582  0.2987282772
C   9.2060491688 -4.0621575582  9.4487282772
C   8.4298491688 -3.0783575582  7.4360282772
C   8.7690491688 -3.0441575582  6.0787282772
C   7.5440491688 -2.8591575582  5.3007282772
C   7.3780491688 -3.6401575582  3.9917282772
C   8.5020491688 -4.1691575582  3.2997282772
C   6.0700491688 -3.7831575582  3.4217282772
C   8.3280491688 -4.9291575582  2.1307282772
C   5.9060491688 -4.5401575582  2.2287282772
C   7.0660491688 -4.9671575582  1.5427282772
C   4.5100491688 -4.8691575582  1.8117282772
C   4.1250491688 -6.3151575582  1.5227282772
C   4.3030491688 -7.4141575582  2.3277282772
C   3.8350491688 -8.7911575582  1.8767282772
C   5.0080491688 -7.3211575582  3.6987282772
H   9.7870491688 -4.8551575582  11.3467282772
H   13.0410491688 -3.7151575582  8.7247282772
H   11.2990491688 -2.9291575582  7.0217282772
H   12.0200491688 -5.3851575582  11.5807282772
H   7.8750491688 -4.6651575582  10.6607282772
H   7.5380491688 -3.0291575582  7.8167282772
H   9.0350491688 -4.0801575582  5.9027282772
H   9.4870491688 -4.1261575582  3.7537282772
H   9.1540491688 -5.2481575582  1.5017282772
H   5.3810491688 -2.9521575582  4.9057282772
H   5.9510491688 -5.8191575582  0.1317282772
H   3.6450491688 -4.4931575582  2.3717282772
H   4.3910491688 -4.3811575582  0.8367282772
H   3.4920491688 -6.4951575582  0.6567282772
H   3.3330491688 -9.3421575582  2.6817282772
H   4.7660491688 -9.3121575582  1.6227282772
H   3.0530491688 -8.7531575582  1.1077282772
H   5.9890491688 -7.7931575582  3.8337282772
H   4.3610491688 -7.7881575582  4.4517282772
H   5.0090491688 -6.3011575582  4.1027282772
84
Scanning combination 176/256: [2.0000, 2.0000]  Energy = -385.8838740583
O   11.1233000000 -4.8002000000  5.0341000000
O   11.3873000000 -0.2652000000  3.3291000000
O   18.1143000000 -4.2382000000 -2.5629000000
O   15.0523000000 -3.1142000000  0.9841000000
C   13.0053000000 -3.3232000000  2.3291000000
C   12.6993000000 -1.9792000000  2.4491000000
C   12.3973000000 -4.3072000000  3.1831000000
C   11.6323000000 -1.5992000000  3.2951000000
C   11.4783000000 -3.8632000000  4.1231000000
C   11.0613000000 -2.4802000000  4.2331000000
C   10.1223000000 -1.9712000000  5.2561000000
C   10.5373000000 -1.3232000000  6.3251000000
C   9.8643000000 -1.0622000000  7.5921000000
C   8.6825000000 -1.0450000000  7.8959000000
C   10.8123000000 -0.2992000000  8.5731000000
C   14.6833000000 -4.8512000000 -0.4449000000
C   15.5183000000 -3.8012000000 -0.0889000000
C   16.6953000000 -3.5982000000 -0.8399000000
C   16.9703000000 -4.4882000000 -1.8899000000
C   16.1523000000 -5.5962000000 -2.2009000000
C   14.9513000000 -5.7522000000 -1.5279000000
C   13.6583000000 -4.8752000000  0.4711000000
C   13.8893000000 -3.7772000000  1.2511000000
H   13.1623000000 -1.2452000000  1.7971000000
H   12.5583000000 -5.3772000000  3.0881000000
H   11.7383000000 -5.5442000000  4.9131000000
H   11.8513000000  0.1658000000  2.5901000000
H   9.4643000000 -1.3292000000  4.6731000000
H   11.4933000000 -0.8182000000  6.2071000000
H   7.9073000000 -0.9712000000  7.1161000000
H   8.2313000000 -0.9072000000  8.8131000000
H   11.1183000000  0.6778000000  8.1811000000
H   11.7213000000 -0.7962000000  8.9311000000
H   10.3263000000 -0.0742000000  9.5301000000
H   17.3553000000 -2.7642000000 -0.6209000000
H   16.3753000000 -6.3042000000 -2.9929000000
H   14.4873000000 -6.7332000000 -1.5779000000
H   12.8783000000 -5.6272000000  0.4831000000
H   18.2613000000 -4.9422000000 -3.2189000000
C   10.1120398608 -4.5007431297  10.4242632784
O   12.4430398608 -4.8527431297  10.9122632784
C   11.4700398608 -4.4307431297  10.0662632784
O   7.8890398608 -3.9847431297  9.9522632784
C   11.9280398608 -3.7587431297  8.8862632784
O   6.6410398608 -2.0287431297  5.7522632784
C   10.9490398608 -3.2797431297  8.0292632784
O   4.9380398608 -3.2647431297  4.1852632784
C   9.5620398608 -3.3897431297  8.2962632784
O   6.8520398608 -5.5447431297  0.3652632784
C   9.1660398608 -3.9677431297  9.5152632784
C   8.3898398608 -2.9839431297  7.5025632784
C   8.7290398608 -2.9497431297  6.1452632784
C   7.5040398608 -2.7647431297  5.3672632784
C   7.3380398608 -3.5457431297  4.0582632784
C   8.4620398608 -4.0747431297  3.3662632784
C   6.0300398608 -3.6887431297  3.4882632784
C   8.2880398608 -4.8347431297  2.1972632784
C   5.8660398608 -4.4457431297  2.2952632784
C   7.0260398608 -4.8727431297  1.6092632784
C   4.4700398608 -4.7747431297  1.8782632784
C   4.0850398608 -6.2207431297  1.5892632784
C   4.2630398608 -7.3197431297  2.3942632784
C   3.7950398608 -8.6967431297  1.9432632784
C   4.9680398608 -7.2267431297  3.7652632784
H   9.7470398608 -4.7607431297  11.4132632784
H   13.0010398608 -3.6207431297  8.7912632784
H   11.2590398608 -2.8347431297  7.0882632784
H   11.9800398608 -5.2907431297  11.6472632784
H   7.8350398608 -4.5707431297  10.7272632784
H   7.4980398608 -2.9347431297  7.8832632784
H   8.9950398608 -3.9857431297  5.9692632784
H   9.4470398608 -4.0317431297  3.8202632784
H   9.1140398608 -5.1537431297  1.5682632784
H   5.3410398608 -2.8577431297  4.9722632784
H   5.9110398608 -5.7247431297  0.1982632784
H   3.6050398608 -4.3987431297  2.4382632784
H   4.3510398608 -4.2867431297  0.9032632784
H   3.4520398608 -6.4007431297  0.7232632784
H   3.2930398608 -9.2477431297  2.7482632784
H   4.7260398608 -9.2177431297  1.6892632784
H   3.0130398608 -8.6587431297  1.1742632784
H   5.9490398608 -7.6987431297  3.9002632784
H   4.3210398608 -7.6937431297  4.5182632784
H   4.9690398608 -6.2067431297  4.1692632784
84
Scanning combination 177/256: [2.0000, 1.9000]  Energy = -385.8570255037
O   11.1233000000 -4.8002000000  5.0341000000
O   11.3873000000 -0.2652000000  3.3291000000
O   18.1143000000 -4.2382000000 -2.5629000000
O   15.0523000000 -3.1142000000  0.9841000000
C   13.0053000000 -3.3232000000  2.3291000000
C   12.6993000000 -1.9792000000  2.4491000000
C   12.3973000000 -4.3072000000  3.1831000000
C   11.6323000000 -1.5992000000  3.2951000000
C   11.4783000000 -3.8632000000  4.1231000000
C   11.0613000000 -2.4802000000  4.2331000000
C   10.1223000000 -1.9712000000  5.2561000000
C   10.5373000000 -1.3232000000  6.3251000000
C   9.8643000000 -1.0622000000  7.5921000000
C   8.6825000000 -1.0450000000  7.8959000000
C   10.8123000000 -0.2992000000  8.5731000000
C   14.6833000000 -4.8512000000 -0.4449000000
C   15.5183000000 -3.8012000000 -0.0889000000
C   16.6953000000 -3.5982000000 -0.8399000000
C   16.9703000000 -4.4882000000 -1.8899000000
C   16.1523000000 -5.5962000000 -2.2009000000
C   14.9513000000 -5.7522000000 -1.5279000000
C   13.6583000000 -4.8752000000  0.4711000000
C   13.8893000000 -3.7772000000  1.2511000000
H   13.1623000000 -1.2452000000  1.7971000000
H   12.5583000000 -5.3772000000  3.0881000000
H   11.7383000000 -5.5442000000  4.9131000000
H   11.8513000000  0.1658000000  2.5901000000
H   9.4643000000 -1.3292000000  4.6731000000
H   11.4933000000 -0.8182000000  6.2071000000
H   7.9073000000 -0.9712000000  7.1161000000
H   8.2313000000 -0.9072000000  8.8131000000
H   11.1183000000  0.6778000000  8.1811000000
H   11.7213000000 -0.7962000000  8.9311000000
H   10.3263000000 -0.0742000000  9.5301000000
H   17.3553000000 -2.7642000000 -0.6209000000
H   16.3753000000 -6.3042000000 -2.9929000000
H   14.4873000000 -6.7332000000 -1.5779000000
H   12.8783000000 -5.6272000000  0.4831000000
H   18.2613000000 -4.9422000000 -3.2189000000
C   10.0788038113 -4.4039435841  10.4856818265
O   12.4098038113 -4.7559435841  10.9736818265
C   11.4368038113 -4.3339435841  10.1276818265
O   7.8558038113 -3.8879435841  10.0136818265
C   11.8948038113 -3.6619435841  8.9476818265
O   6.6078038113 -1.9319435841  5.8136818265
C   10.9158038113 -3.1829435841  8.0906818265
O   4.9048038113 -3.1679435841  4.2466818265
C   9.5288038113 -3.2929435841  8.3576818265
O   6.8188038113 -5.4479435841  0.4266818265
C   9.1328038113 -3.8709435841  9.5766818265
C   8.3566038113 -2.8871435841  7.5639818265
C   8.6958038113 -2.8529435841  6.2066818265
C   7.4708038113 -2.6679435841  5.4286818265
C   7.3048038113 -3.4489435841  4.1196818265
C   8.4288038113 -3.9779435841  3.4276818265
C   5.9968038113 -3.5919435841  3.5496818265
C   8.2548038113 -4.7379435841  2.2586818265
C   5.8328038113 -4.3489435841  2.3566818265
C   6.9928038113 -4.7759435841  1.6706818265
C   4.4368038113 -4.6779435841  1.9396818265
C   4.0518038113 -6.1239435841  1.6506818265
C   4.2298038113 -7.2229435841  2.4556818265
C   3.7618038113 -8.5999435841  2.0046818265
C   4.9348038113 -7.1299435841  3.8266818265
H   9.7138038113 -4.6639435841  11.4746818265
H   12.9678038113 -3.5239435841  8.8526818265
H   11.2258038113 -2.7379435841  7.1496818265
H   11.9468038113 -5.1939435841  11.7086818265
H   7.8018038113 -4.4739435841  10.7886818265
H   7.4648038113 -2.8379435841  7.9446818265
H   8.9618038113 -3.8889435841  6.0306818265
H   9.4138038113 -3.9349435841  3.8816818265
H   9.0808038113 -5.0569435841  1.6296818265
H   5.3078038113 -2.7609435841  5.0336818265
H   5.8778038113 -5.6279435841  0.2596818265
H   3.5718038113 -4.3019435841  2.4996818265
H   4.3178038113 -4.1899435841  0.9646818265
H   3.4188038113 -6.3039435841  0.7846818265
H   3.2598038113 -9.1509435841  2.8096818265
H   4.6928038113 -9.1209435841  1.7506818265
H   2.9798038113 -8.5619435841  1.2356818265
H   5.9158038113 -7.6019435841  3.9616818265
H   4.2878038113 -7.5969435841  4.5796818265
H   4.9358038113 -6.1099435841  4.2306818265
84
Scanning combination 178/256: [2.0000, 1.8000]  Energy = -385.8235183950
O   11.1233000000 -4.8002000000  5.0341000000
O   11.3873000000 -0.2652000000  3.3291000000
O   18.1143000000 -4.2382000000 -2.5629000000
O   15.0523000000 -3.1142000000  0.9841000000
C   13.0053000000 -3.3232000000  2.3291000000
C   12.6993000000 -1.9792000000  2.4491000000
C   12.3973000000 -4.3072000000  3.1831000000
C   11.6323000000 -1.5992000000  3.2951000000
C   11.4783000000 -3.8632000000  4.1231000000
C   11.0613000000 -2.4802000000  4.2331000000
C   10.1223000000 -1.9712000000  5.2561000000
C   10.5373000000 -1.3232000000  6.3251000000
C   9.8643000000 -1.0622000000  7.5921000000
C   8.6825000000 -1.0450000000  7.8959000000
C   10.8123000000 -0.2992000000  8.5731000000
C   14.6833000000 -4.8512000000 -0.4449000000
C   15.5183000000 -3.8012000000 -0.0889000000
C   16.6953000000 -3.5982000000 -0.8399000000
C   16.9703000000 -4.4882000000 -1.8899000000
C   16.1523000000 -5.5962000000 -2.2009000000
C   14.9513000000 -5.7522000000 -1.5279000000
C   13.6583000000 -4.8752000000  0.4711000000
C   13.8893000000 -3.7772000000  1.2511000000
H   13.1623000000 -1.2452000000  1.7971000000
H   12.5583000000 -5.3772000000  3.0881000000
H   11.7383000000 -5.5442000000  4.9131000000
H   11.8513000000  0.1658000000  2.5901000000
H   9.4643000000 -1.3292000000  4.6731000000
H   11.4933000000 -0.8182000000  6.2071000000
H   7.9073000000 -0.9712000000  7.1161000000
H   8.2313000000 -0.9072000000  8.8131000000
H   11.1183000000  0.6778000000  8.1811000000
H   11.7213000000 -0.7962000000  8.9311000000
H   10.3263000000 -0.0742000000  9.5301000000
H   17.3553000000 -2.7642000000 -0.6209000000
H   16.3753000000 -6.3042000000 -2.9929000000
H   14.4873000000 -6.7332000000 -1.5779000000
H   12.8783000000 -5.6272000000  0.4831000000
H   18.2613000000 -4.9422000000 -3.2189000000
C   10.0519283773 -4.3052379681  10.5421839364
O   12.3829283773 -4.6572379681  11.0301839364
C   11.4099283773 -4.2352379681  10.1841839364
O   7.8289283773 -3.7892379681  10.0701839364
C   11.8679283773 -3.5632379681  9.0041839364
O   6.5809283773 -1.8332379681  5.8701839364
C   10.8889283773 -3.0842379681  8.1471839364
O   4.8779283773 -3.0692379681  4.3031839364
C   9.5019283773 -3.1942379681  8.4141839364
O   6.7919283773 -5.3492379681  0.4831839364
C   9.1059283773 -3.7722379681  9.6331839364
C   8.3297283773 -2.7884379681  7.6204839364
C   8.6689283773 -2.7542379681  6.2631839364
C   7.4439283773 -2.5692379681  5.4851839364
C   7.2779283773 -3.3502379681  4.1761839364
C   8.4019283773 -3.8792379681  3.4841839364
C   5.9699283773 -3.4932379681  3.6061839364
C   8.2279283773 -4.6392379681  2.3151839364
C   5.8059283773 -4.2502379681  2.4131839364
C   6.9659283773 -4.6772379681  1.7271839364
C   4.4099283773 -4.5792379681  1.9961839364
C   4.0249283773 -6.0252379681  1.7071839364
C   4.2029283773 -7.1242379681  2.5121839364
C   3.7349283773 -8.5012379681  2.0611839364
C   4.9079283773 -7.0312379681  3.8831839364
H   9.6869283773 -4.5652379681  11.5311839364
H   12.9409283773 -3.4252379681  8.9091839364
H   11.1989283773 -2.6392379681  7.2061839364
H   11.9199283773 -5.0952379681  11.7651839364
H   7.7749283773 -4.3752379681  10.8451839364
H   7.4379283773 -2.7392379681  8.0011839364
H   8.9349283773 -3.7902379681  6.0871839364
H   9.3869283773 -3.8362379681  3.9381839364
H   9.0539283773 -4.9582379681  1.6861839364
H   5.2809283773 -2.6622379681  5.0901839364
H   5.8509283773 -5.5292379681  0.3161839364
H   3.5449283773 -4.2032379681  2.5561839364
H   4.2909283773 -4.0912379681  1.0211839364
H   3.3919283773 -6.2052379681  0.8411839364
H   3.2329283773 -9.0522379681  2.8661839364
H   4.6659283773 -9.0222379681  1.8071839364
H   2.9529283773 -8.4632379681  1.2921839364
H   5.8889283773 -7.5032379681  4.0181839364
H   4.2609283773 -7.4982379681  4.6361839364
H   4.9089283773 -6.0112379681  4.2871839364
84
Scanning combination 179/256: [2.0000, 1.7000]  Energy = -385.7827428576
O   11.1233000000 -4.8002000000  5.0341000000
O   11.3873000000 -0.2652000000  3.3291000000
O   18.1143000000 -4.2382000000 -2.5629000000
O   15.0523000000 -3.1142000000  0.9841000000
C   13.0053000000 -3.3232000000  2.3291000000
C   12.6993000000 -1.9792000000  2.4491000000
C   12.3973000000 -4.3072000000  3.1831000000
C   11.6323000000 -1.5992000000  3.2951000000
C   11.4783000000 -3.8632000000  4.1231000000
C   11.0613000000 -2.4802000000  4.2331000000
C   10.1223000000 -1.9712000000  5.2561000000
C   10.5373000000 -1.3232000000  6.3251000000
C   9.8643000000 -1.0622000000  7.5921000000
C   8.6825000000 -1.0450000000  7.8959000000
C   10.8123000000 -0.2992000000  8.5731000000
C   14.6833000000 -4.8512000000 -0.4449000000
C   15.5183000000 -3.8012000000 -0.0889000000
C   16.6953000000 -3.5982000000 -0.8399000000
C   16.9703000000 -4.4882000000 -1.8899000000
C   16.1523000000 -5.5962000000 -2.2009000000
C   14.9513000000 -5.7522000000 -1.5279000000
C   13.6583000000 -4.8752000000  0.4711000000
C   13.8893000000 -3.7772000000  1.2511000000
H   13.1623000000 -1.2452000000  1.7971000000
H   12.5583000000 -5.3772000000  3.0881000000
H   11.7383000000 -5.5442000000  4.9131000000
H   11.8513000000  0.1658000000  2.5901000000
H   9.4643000000 -1.3292000000  4.6731000000
H   11.4933000000 -0.8182000000  6.2071000000
H   7.9073000000 -0.9712000000  7.1161000000
H   8.2313000000 -0.9072000000  8.8131000000
H   11.1183000000  0.6778000000  8.1811000000
H   11.7213000000 -0.7962000000  8.9311000000
H   10.3263000000 -0.0742000000  9.5301000000
H   17.3553000000 -2.7642000000 -0.6209000000
H   16.3753000000 -6.3042000000 -2.9929000000
H   14.4873000000 -6.7332000000 -1.5779000000
H   12.8783000000 -5.6272000000  0.4831000000
H   18.2613000000 -4.9422000000 -3.2189000000
C   10.0310391946 -4.2050425471  10.5939572076
O   12.3620391946 -4.5570425471  11.0819572076
C   11.3890391946 -4.1350425471  10.2359572076
O   7.8080391946 -3.6890425471  10.1219572076
C   11.8470391946 -3.4630425471  9.0559572076
O   6.5600391946 -1.7330425471  5.9219572076
C   10.8680391946 -2.9840425471  8.1989572076
O   4.8570391946 -2.9690425471  4.3549572076
C   9.4810391946 -3.0940425471  8.4659572076
O   6.7710391946 -5.2490425471  0.5349572076
C   9.0850391946 -3.6720425471  9.6849572076
C   8.3088391946 -2.6882425471  7.6722572076
C   8.6480391946 -2.6540425471  6.3149572076
C   7.4230391946 -2.4690425471  5.5369572076
C   7.2570391946 -3.2500425471  4.2279572076
C   8.3810391946 -3.7790425471  3.5359572076
C   5.9490391946 -3.3930425471  3.6579572076
C   8.2070391946 -4.5390425471  2.3669572076
C   5.7850391946 -4.1500425471  2.4649572076
C   6.9450391946 -4.5770425471  1.7789572076
C   4.3890391946 -4.4790425471  2.0479572076
C   4.0040391946 -5.9250425471  1.7589572076
C   4.1820391946 -7.0240425471  2.5639572076
C   3.7140391946 -8.4010425471  2.1129572076
C   4.8870391946 -6.9310425471  3.9349572076
H   9.6660391946 -4.4650425471  11.5829572076
H   12.9200391946 -3.3250425471  8.9609572076
H   11.1780391946 -2.5390425471  7.2579572076
H   11.8990391946 -4.9950425471  11.8169572076
H   7.7540391946 -4.2750425471  10.8969572076
H   7.4170391946 -2.6390425471  8.0529572076
H   8.9140391946 -3.6900425471  6.1389572076
H   9.3660391946 -3.7360425471  3.9899572076
H   9.0330391946 -4.8580425471  1.7379572076
H   5.2600391946 -2.5620425471  5.1419572076
H   5.8300391946 -5.4290425471  0.3679572076
H   3.5240391946 -4.1030425471  2.6079572076
H   4.2700391946 -3.9910425471  1.0729572076
H   3.3710391946 -6.1050425471  0.8929572076
H   3.2120391946 -8.9520425471  2.9179572076
H   4.6450391946 -8.9220425471  1.8589572076
H   2.9320391946 -8.3630425471  1.3439572076
H   5.8680391946 -7.4030425471  4.0699572076
H   4.2400391946 -7.3980425471  4.6879572076
H   4.8880391946 -5.9110425471  4.3389572076
84
Scanning combination 180/256: [2.0000, 1.6000]  Energy = -385.7302945848
O   11.1233000000 -4.8002000000  5.0341000000
O   11.3873000000 -0.2652000000  3.3291000000
O   18.1143000000 -4.2382000000 -2.5629000000
O   15.0523000000 -3.1142000000  0.9841000000
C   13.0053000000 -3.3232000000  2.3291000000
C   12.6993000000 -1.9792000000  2.4491000000
C   12.3973000000 -4.3072000000  3.1831000000
C   11.6323000000 -1.5992000000  3.2951000000
C   11.4783000000 -3.8632000000  4.1231000000
C   11.0613000000 -2.4802000000  4.2331000000
C   10.1223000000 -1.9712000000  5.2561000000
C   10.5373000000 -1.3232000000  6.3251000000
C   9.8643000000 -1.0622000000  7.5921000000
C   8.6825000000 -1.0450000000  7.8959000000
C   10.8123000000 -0.2992000000  8.5731000000
C   14.6833000000 -4.8512000000 -0.4449000000
C   15.5183000000 -3.8012000000 -0.0889000000
C   16.6953000000 -3.5982000000 -0.8399000000
C   16.9703000000 -4.4882000000 -1.8899000000
C   16.1523000000 -5.5962000000 -2.2009000000
C   14.9513000000 -5.7522000000 -1.5279000000
C   13.6583000000 -4.8752000000  0.4711000000
C   13.8893000000 -3.7772000000  1.2511000000
H   13.1623000000 -1.2452000000  1.7971000000
H   12.5583000000 -5.3772000000  3.0881000000
H   11.7383000000 -5.5442000000  4.9131000000
H   11.8513000000  0.1658000000  2.5901000000
H   9.4643000000 -1.3292000000  4.6731000000
H   11.4933000000 -0.8182000000  6.2071000000
H   7.9073000000 -0.9712000000  7.1161000000
H   8.2313000000 -0.9072000000  8.8131000000
H   11.1183000000  0.6778000000  8.1811000000
H   11.7213000000 -0.7962000000  8.9311000000
H   10.3263000000 -0.0742000000  9.5301000000
H   17.3553000000 -2.7642000000 -0.6209000000
H   16.3753000000 -6.3042000000 -2.9929000000
H   14.4873000000 -6.7332000000 -1.5779000000
H   12.8783000000 -5.6272000000  0.4831000000
H   18.2613000000 -4.9422000000 -3.2189000000
C   10.0158130130 -4.1037233737  10.6411614091
O   12.3468130130 -4.4557233737  11.1291614091
C   11.3738130130 -4.0337233737  10.2831614091
O   7.7928130130 -3.5877233737  10.1691614091
C   11.8318130130 -3.3617233737  9.1031614091
O   6.5448130130 -1.6317233737  5.9691614091
C   10.8528130130 -2.8827233737  8.2461614091
O   4.8418130130 -2.8677233737  4.4021614091
C   9.4658130130 -2.9927233737  8.5131614091
O   6.7558130130 -5.1477233737  0.5821614091
C   9.0698130130 -3.5707233737  9.7321614091
C   8.2936130130 -2.5869233737  7.7194614091
C   8.6328130130 -2.5527233737  6.3621614091
C   7.4078130130 -2.3677233737  5.5841614091
C   7.2418130130 -3.1487233737  4.2751614091
C   8.3658130130 -3.6777233737  3.5831614091
C   5.9338130130 -3.2917233737  3.7051614091
C   8.1918130130 -4.4377233737  2.4141614091
C   5.7698130130 -4.0487233737  2.5121614091
C   6.9298130130 -4.4757233737  1.8261614091
C   4.3738130130 -4.3777233737  2.0951614091
C   3.9888130130 -5.8237233737  1.8061614091
C   4.1668130130 -6.9227233737  2.6111614091
C   3.6988130130 -8.2997233737  2.1601614091
C   4.8718130130 -6.8297233737  3.9821614091
H   9.6508130130 -4.3637233737  11.6301614091
H   12.9048130130 -3.2237233737  9.0081614091
H   11.1628130130 -2.4377233737  7.3051614091
H   11.8838130130 -4.8937233737  11.8641614091
H   7.7388130130 -4.1737233737  10.9441614091
H   7.4018130130 -2.5377233737  8.1001614091
H   8.8988130130 -3.5887233737  6.1861614091
H   9.3508130130 -3.6347233737  4.0371614091
H   9.0178130130 -4.7567233737  1.7851614091
H   5.2448130130 -2.4607233737  5.1891614091
H   5.8148130130 -5.3277233737  0.4151614091
H   3.5088130130 -4.0017233737  2.6551614091
H   4.2548130130 -3.8897233737  1.1201614091
H   3.3558130130 -6.0037233737  0.9401614091
H   3.1968130130 -8.8507233737  2.9651614091
H   4.6298130130 -8.8207233737  1.9061614091
H   2.9168130130 -8.2617233737  1.3911614091
H   5.8528130130 -7.3017233737  4.1171614091
H   4.2248130130 -7.2967233737  4.7351614091
H   4.8728130130 -5.8097233737  4.3861614091
84
Scanning combination 181/256: [2.0000, 1.5000]  Energy = -385.6600836512
O   11.1233000000 -4.8002000000  5.0341000000
O   11.3873000000 -0.2652000000  3.3291000000
O   18.1143000000 -4.2382000000 -2.5629000000
O   15.0523000000 -3.1142000000  0.9841000000
C   13.0053000000 -3.3232000000  2.3291000000
C   12.6993000000 -1.9792000000  2.4491000000
C   12.3973000000 -4.3072000000  3.1831000000
C   11.6323000000 -1.5992000000  3.2951000000
C   11.4783000000 -3.8632000000  4.1231000000
C   11.0613000000 -2.4802000000  4.2331000000
C   10.1223000000 -1.9712000000  5.2561000000
C   10.5373000000 -1.3232000000  6.3251000000
C   9.8643000000 -1.0622000000  7.5921000000
C   8.6825000000 -1.0450000000  7.8959000000
C   10.8123000000 -0.2992000000  8.5731000000
C   14.6833000000 -4.8512000000 -0.4449000000
C   15.5183000000 -3.8012000000 -0.0889000000
C   16.6953000000 -3.5982000000 -0.8399000000
C   16.9703000000 -4.4882000000 -1.8899000000
C   16.1523000000 -5.5962000000 -2.2009000000
C   14.9513000000 -5.7522000000 -1.5279000000
C   13.6583000000 -4.8752000000  0.4711000000
C   13.8893000000 -3.7772000000  1.2511000000
H   13.1623000000 -1.2452000000  1.7971000000
H   12.5583000000 -5.3772000000  3.0881000000
H   11.7383000000 -5.5442000000  4.9131000000
H   11.8513000000  0.1658000000  2.5901000000
H   9.4643000000 -1.3292000000  4.6731000000
H   11.4933000000 -0.8182000000  6.2071000000
H   7.9073000000 -0.9712000000  7.1161000000
H   8.2313000000 -0.9072000000  8.8131000000
H   11.1183000000  0.6778000000  8.1811000000
H   11.7213000000 -0.7962000000  8.9311000000
H   10.3263000000 -0.0742000000  9.5301000000
H   17.3553000000 -2.7642000000 -0.6209000000
H   16.3753000000 -6.3042000000 -2.9929000000
H   14.4873000000 -6.7332000000 -1.5779000000
H   12.8783000000 -5.6272000000  0.4831000000
H   18.2613000000 -4.9422000000 -3.2189000000
C   10.0059719172 -4.0016077341  10.6839296958
O   12.3369719172 -4.3536077341  11.1719296958
C   11.3639719172 -3.9316077341  10.3259296958
O   7.7829719172 -3.4856077341  10.2119296958
C   11.8219719172 -3.2596077341  9.1459296958
O   6.5349719172 -1.5296077341  6.0119296958
C   10.8429719172 -2.7806077341  8.2889296958
O   4.8319719172 -2.7656077341  4.4449296958
C   9.4559719172 -2.8906077341  8.5559296958
O   6.7459719172 -5.0456077341  0.6249296958
C   9.0599719172 -3.4686077341  9.7749296958
C   8.2837719172 -2.4848077341  7.7622296958
C   8.6229719172 -2.4506077341  6.4049296958
C   7.3979719172 -2.2656077341  5.6269296958
C   7.2319719172 -3.0466077341  4.3179296958
C   8.3559719172 -3.5756077341  3.6259296958
C   5.9239719172 -3.1896077341  3.7479296958
C   8.1819719172 -4.3356077341  2.4569296958
C   5.7599719172 -3.9466077341  2.5549296958
C   6.9199719172 -4.3736077341  1.8689296958
C   4.3639719172 -4.2756077341  2.1379296958
C   3.9789719172 -5.7216077341  1.8489296958
C   4.1569719172 -6.8206077341  2.6539296958
C   3.6889719172 -8.1976077341  2.2029296958
C   4.8619719172 -6.7276077341  4.0249296958
H   9.6409719172 -4.2616077341  11.6729296958
H   12.8949719172 -3.1216077341  9.0509296958
H   11.1529719172 -2.3356077341  7.3479296958
H   11.8739719172 -4.7916077341  11.9069296958
H   7.7289719172 -4.0716077341  10.9869296958
H   7.3919719172 -2.4356077341  8.1429296958
H   8.8889719172 -3.4866077341  6.2289296958
H   9.3409719172 -3.5326077341  4.0799296958
H   9.0079719172 -4.6546077341  1.8279296958
H   5.2349719172 -2.3586077341  5.2319296958
H   5.8049719172 -5.2256077341  0.4579296958
H   3.4989719172 -3.8996077341  2.6979296958
H   4.2449719172 -3.7876077341  1.1629296958
H   3.3459719172 -5.9016077341  0.9829296958
H   3.1869719172 -8.7486077341  3.0079296958
H   4.6199719172 -8.7186077341  1.9489296958
H   2.9069719172 -8.1596077341  1.4339296958
H   5.8429719172 -7.1996077341  4.1599296958
H   4.2149719172 -7.1946077341  4.7779296958
H   4.8629719172 -5.7076077341  4.4289296958
84
Scanning combination 182/256: [1.9000, 2.9000]  Energy = -385.9050360914
O   11.1233000000 -4.8002000000  5.0341000000
O   11.3873000000 -0.2652000000  3.3291000000
O   18.1143000000 -4.2382000000 -2.5629000000
O   15.0523000000 -3.1142000000  0.9841000000
C   13.0053000000 -3.3232000000  2.3291000000
C   12.6993000000 -1.9792000000  2.4491000000
C   12.3973000000 -4.3072000000  3.1831000000
C   11.6323000000 -1.5992000000  3.2951000000
C   11.4783000000 -3.8632000000  4.1231000000
C   11.0613000000 -2.4802000000  4.2331000000
C   10.1223000000 -1.9712000000  5.2561000000
C   10.5373000000 -1.3232000000  6.3251000000
C   9.8643000000 -1.0622000000  7.5921000000
C   8.6825000000 -1.0450000000  7.8959000000
C   10.8123000000 -0.2992000000  8.5731000000
C   14.6833000000 -4.8512000000 -0.4449000000
C   15.5183000000 -3.8012000000 -0.0889000000
C   16.6953000000 -3.5982000000 -0.8399000000
C   16.9703000000 -4.4882000000 -1.8899000000
C   16.1523000000 -5.5962000000 -2.2009000000
C   14.9513000000 -5.7522000000 -1.5279000000
C   13.6583000000 -4.8752000000  0.4711000000
C   13.8893000000 -3.7772000000  1.2511000000
H   13.1623000000 -1.2452000000  1.7971000000
H   12.5583000000 -5.3772000000  3.0881000000
H   11.7383000000 -5.5442000000  4.9131000000
H   11.8513000000  0.1658000000  2.5901000000
H   9.4643000000 -1.3292000000  4.6731000000
H   11.4933000000 -0.8182000000  6.2071000000
H   7.9073000000 -0.9712000000  7.1161000000
H   8.2313000000 -0.9072000000  8.8131000000
H   11.1183000000  0.6778000000  8.1811000000
H   11.7213000000 -0.7962000000  8.9311000000
H   10.3263000000 -0.0742000000  9.5301000000
H   17.3553000000 -2.7642000000 -0.6209000000
H   16.3753000000 -6.3042000000 -2.9929000000
H   14.4873000000 -6.7332000000 -1.5779000000
H   12.8783000000 -5.6272000000  0.4831000000
H   18.2613000000 -4.9422000000 -3.2189000000
C   10.6751383033 -5.2205415396  9.6916516752
O   13.0061383033 -5.5725415396  10.1796516752
C   12.0331383033 -5.1505415396  9.3336516752
O   8.4521383033 -4.7045415396  9.2196516752
C   12.4911383033 -4.4785415396  8.1536516752
O   7.2041383033 -2.7485415396  5.0196516752
C   11.5121383033 -3.9995415396  7.2966516752
O   5.5011383033 -3.9845415396  3.4526516752
C   10.1251383033 -4.1095415396  7.5636516752
O   7.4151383033 -6.2645415396 -0.3673483248
C   9.7291383033 -4.6875415396  8.7826516752
C   8.9529383033 -3.7037415396  6.7699516752
C   9.2921383033 -3.6695415396  5.4126516752
C   8.0671383033 -3.4845415396  4.6346516752
C   7.9011383033 -4.2655415396  3.3256516752
C   9.0251383033 -4.7945415396  2.6336516752
C   6.5931383033 -4.4085415396  2.7556516752
C   8.8511383033 -5.5545415396  1.4646516752
C   6.4291383033 -5.1655415396  1.5626516752
C   7.5891383033 -5.5925415396  0.8766516752
C   5.0331383033 -5.4945415396  1.1456516752
C   4.6481383033 -6.9405415396  0.8566516752
C   4.8261383033 -8.0395415396  1.6616516752
C   4.3581383033 -9.4165415396  1.2106516752
C   5.5311383033 -7.9465415396  3.0326516752
H   10.3101383033 -5.4805415396  10.6806516752
H   13.5641383033 -4.3405415396  8.0586516752
H   11.8221383033 -3.5545415396  6.3556516752
H   12.5431383033 -6.0105415396  10.9146516752
H   8.3981383033 -5.2905415396  9.9946516752
H   8.0611383033 -3.6545415396  7.1506516752
H   9.5581383033 -4.7055415396  5.2366516752
H   10.0101383033 -4.7515415396  3.0876516752
H   9.6771383033 -5.8735415396  0.8356516752
H   5.9041383033 -3.5775415396  4.2396516752
H   6.4741383033 -6.4445415396 -0.5343483248
H   4.1681383033 -5.1185415396  1.7056516752
H   4.9141383033 -5.0065415396  0.1706516752
H   4.0151383033 -7.1205415396 -0.0093483248
H   3.8561383033 -9.9675415396  2.0156516752
H   5.2891383033 -9.9375415396  0.9566516752
H   3.5761383033 -9.3785415396  0.4416516752
H   6.5121383033 -8.4185415396  3.1676516752
H   4.8841383033 -8.4135415396  3.7856516752
H   5.5321383033 -6.9265415396  3.4366516752
84
Scanning combination 183/256: [1.9000, 2.8000]  Energy = -385.9137953516
O   11.1233000000 -4.8002000000  5.0341000000
O   11.3873000000 -0.2652000000  3.3291000000
O   18.1143000000 -4.2382000000 -2.5629000000
O   15.0523000000 -3.1142000000  0.9841000000
C   13.0053000000 -3.3232000000  2.3291000000
C   12.6993000000 -1.9792000000  2.4491000000
C   12.3973000000 -4.3072000000  3.1831000000
C   11.6323000000 -1.5992000000  3.2951000000
C   11.4783000000 -3.8632000000  4.1231000000
C   11.0613000000 -2.4802000000  4.2331000000
C   10.1223000000 -1.9712000000  5.2561000000
C   10.5373000000 -1.3232000000  6.3251000000
C   9.8643000000 -1.0622000000  7.5921000000
C   8.6825000000 -1.0450000000  7.8959000000
C   10.8123000000 -0.2992000000  8.5731000000
C   14.6833000000 -4.8512000000 -0.4449000000
C   15.5183000000 -3.8012000000 -0.0889000000
C   16.6953000000 -3.5982000000 -0.8399000000
C   16.9703000000 -4.4882000000 -1.8899000000
C   16.1523000000 -5.5962000000 -2.2009000000
C   14.9513000000 -5.7522000000 -1.5279000000
C   13.6583000000 -4.8752000000  0.4711000000
C   13.8893000000 -3.7772000000  1.2511000000
H   13.1623000000 -1.2452000000  1.7971000000
H   12.5583000000 -5.3772000000  3.0881000000
H   11.7383000000 -5.5442000000  4.9131000000
H   11.8513000000  0.1658000000  2.5901000000
H   9.4643000000 -1.3292000000  4.6731000000
H   11.4933000000 -0.8182000000  6.2071000000
H   7.9073000000 -0.9712000000  7.1161000000
H   8.2313000000 -0.9072000000  8.8131000000
H   11.1183000000  0.6778000000  8.1811000000
H   11.7213000000 -0.7962000000  8.9311000000
H   10.3263000000 -0.0742000000  9.5301000000
H   17.3553000000 -2.7642000000 -0.6209000000
H   16.3753000000 -6.3042000000 -2.9929000000
H   14.4873000000 -6.7332000000 -1.5779000000
H   12.8783000000 -5.6272000000  0.4831000000
H   18.2613000000 -4.9422000000 -3.2189000000
C   10.6642502294 -5.1295043127  9.7316266525
O   12.9952502294 -5.4815043127  10.2196266525
C   12.0222502294 -5.0595043127  9.3736266525
O   8.4412502294 -4.6135043127  9.2596266525
C   12.4802502294 -4.3875043127  8.1936266525
O   7.1932502294 -2.6575043127  5.0596266525
C   11.5012502294 -3.9085043127  7.3366266525
O   5.4902502294 -3.8935043127  3.4926266525
C   10.1142502294 -4.0185043127  7.6036266525
O   7.4042502294 -6.1735043127 -0.3273733475
C   9.7182502294 -4.5965043127  8.8226266525
C   8.9420502294 -3.6127043127  6.8099266525
C   9.2812502294 -3.5785043127  5.4526266525
C   8.0562502294 -3.3935043127  4.6746266525
C   7.8902502294 -4.1745043127  3.3656266525
C   9.0142502294 -4.7035043127  2.6736266525
C   6.5822502294 -4.3175043127  2.7956266525
C   8.8402502294 -5.4635043127  1.5046266525
C   6.4182502294 -5.0745043127  1.6026266525
C   7.5782502294 -5.5015043127  0.9166266525
C   5.0222502294 -5.4035043127  1.1856266525
C   4.6372502294 -6.8495043127  0.8966266525
C   4.8152502294 -7.9485043127  1.7016266525
C   4.3472502294 -9.3255043127  1.2506266525
C   5.5202502294 -7.8555043127  3.0726266525
H   10.2992502294 -5.3895043127  10.7206266525
H   13.5532502294 -4.2495043127  8.0986266525
H   11.8112502294 -3.4635043127  6.3956266525
H   12.5322502294 -5.9195043127  10.9546266525
H   8.3872502294 -5.1995043127  10.0346266525
H   8.0502502294 -3.5635043127  7.1906266525
H   9.5472502294 -4.6145043127  5.2766266525
H   9.9992502294 -4.6605043127  3.1276266525
H   9.6662502294 -5.7825043127  0.8756266525
H   5.8932502294 -3.4865043127  4.2796266525
H   6.4632502294 -6.3535043127 -0.4943733475
H   4.1572502294 -5.0275043127  1.7456266525
H   4.9032502294 -4.9155043127  0.2106266525
H   4.0042502294 -7.0295043127  0.0306266525
H   3.8452502294 -9.8765043127  2.0556266525
H   5.2782502294 -9.8465043127  0.9966266525
H   3.5652502294 -9.2875043127  0.4816266525
H   6.5012502294 -8.3275043127  3.2076266525
H   4.8732502294 -8.3225043127  3.8256266525
H   5.5212502294 -6.8355043127  3.4766266525
84
Scanning combination 184/256: [1.9000, 2.7000]  Energy = -385.9273816343
O   11.1233000000 -4.8002000000  5.0341000000
O   11.3873000000 -0.2652000000  3.3291000000
O   18.1143000000 -4.2382000000 -2.5629000000
O   15.0523000000 -3.1142000000  0.9841000000
C   13.0053000000 -3.3232000000  2.3291000000
C   12.6993000000 -1.9792000000  2.4491000000
C   12.3973000000 -4.3072000000  3.1831000000
C   11.6323000000 -1.5992000000  3.2951000000
C   11.4783000000 -3.8632000000  4.1231000000
C   11.0613000000 -2.4802000000  4.2331000000
C   10.1223000000 -1.9712000000  5.2561000000
C   10.5373000000 -1.3232000000  6.3251000000
C   9.8643000000 -1.0622000000  7.5921000000
C   8.6825000000 -1.0450000000  7.8959000000
C   10.8123000000 -0.2992000000  8.5731000000
C   14.6833000000 -4.8512000000 -0.4449000000
C   15.5183000000 -3.8012000000 -0.0889000000
C   16.6953000000 -3.5982000000 -0.8399000000
C   16.9703000000 -4.4882000000 -1.8899000000
C   16.1523000000 -5.5962000000 -2.2009000000
C   14.9513000000 -5.7522000000 -1.5279000000
C   13.6583000000 -4.8752000000  0.4711000000
C   13.8893000000 -3.7772000000  1.2511000000
H   13.1623000000 -1.2452000000  1.7971000000
H   12.5583000000 -5.3772000000  3.0881000000
H   11.7383000000 -5.5442000000  4.9131000000
H   11.8513000000  0.1658000000  2.5901000000
H   9.4643000000 -1.3292000000  4.6731000000
H   11.4933000000 -0.8182000000  6.2071000000
H   7.9073000000 -0.9712000000  7.1161000000
H   8.2313000000 -0.9072000000  8.8131000000
H   11.1183000000  0.6778000000  8.1811000000
H   11.7213000000 -0.7962000000  8.9311000000
H   10.3263000000 -0.0742000000  9.5301000000
H   17.3553000000 -2.7642000000 -0.6209000000
H   16.3753000000 -6.3042000000 -2.9929000000
H   14.4873000000 -6.7332000000 -1.5779000000
H   12.8783000000 -5.6272000000  0.4831000000
H   18.2613000000 -4.9422000000 -3.2189000000
C   10.6173034111 -5.0528967870  9.7982603862
O   12.9483034111 -5.4048967870  10.2862603862
C   11.9753034111 -4.9828967870  9.4402603862
O   8.3943034111 -4.5368967870  9.3262603862
C   12.4333034111 -4.3108967870  8.2602603862
O   7.1463034111 -2.5808967870  5.1262603862
C   11.4543034111 -3.8318967870  7.4032603862
O   5.4433034111 -3.8168967870  3.5592603862
C   10.0673034111 -3.9418967870  7.6702603862
O   7.3573034111 -6.0968967870 -0.2607396138
C   9.6713034111 -4.5198967870  8.8892603862
C   8.8951034111 -3.5360967870  6.8765603862
C   9.2343034111 -3.5018967870  5.5192603862
C   8.0093034111 -3.3168967870  4.7412603862
C   7.8433034111 -4.0978967870  3.4322603862
C   8.9673034111 -4.6268967870  2.7402603862
C   6.5353034111 -4.2408967870  2.8622603862
C   8.7933034111 -5.3868967870  1.5712603862
C   6.3713034111 -4.9978967870  1.6692603862
C   7.5313034111 -5.4248967870  0.9832603862
C   4.9753034111 -5.3268967870  1.2522603862
C   4.5903034111 -6.7728967870  0.9632603862
C   4.7683034111 -7.8718967870  1.7682603862
C   4.3003034111 -9.2488967870  1.3172603862
C   5.4733034111 -7.7788967870  3.1392603862
H   10.2523034111 -5.3128967870  10.7872603862
H   13.5063034111 -4.1728967870  8.1652603862
H   11.7643034111 -3.3868967870  6.4622603862
H   12.4853034111 -5.8428967870  11.0212603862
H   8.3403034111 -5.1228967870  10.1012603862
H   8.0033034111 -3.4868967870  7.2572603862
H   9.5003034111 -4.5378967870  5.3432603862
H   9.9523034111 -4.5838967870  3.1942603862
H   9.6193034111 -5.7058967870  0.9422603862
H   5.8463034111 -3.4098967870  4.3462603862
H   6.4163034111 -6.2768967870 -0.4277396138
H   4.1103034111 -4.9508967870  1.8122603862
H   4.8563034111 -4.8388967870  0.2772603862
H   3.9573034111 -6.9528967870  0.0972603862
H   3.7983034111 -9.7998967870  2.1222603862
H   5.2313034111 -9.7698967870  1.0632603862
H   3.5183034111 -9.2108967870  0.5482603862
H   6.4543034111 -8.2508967870  3.2742603862
H   4.8263034111 -8.2458967870  3.8922603862
H   5.4743034111 -6.7588967870  3.5432603862
84
Scanning combination 185/256: [1.9000, 2.6000]  Energy = -385.9383386370
O   11.1233000000 -4.8002000000  5.0341000000
O   11.3873000000 -0.2652000000  3.3291000000
O   18.1143000000 -4.2382000000 -2.5629000000
O   15.0523000000 -3.1142000000  0.9841000000
C   13.0053000000 -3.3232000000  2.3291000000
C   12.6993000000 -1.9792000000  2.4491000000
C   12.3973000000 -4.3072000000  3.1831000000
C   11.6323000000 -1.5992000000  3.2951000000
C   11.4783000000 -3.8632000000  4.1231000000
C   11.0613000000 -2.4802000000  4.2331000000
C   10.1223000000 -1.9712000000  5.2561000000
C   10.5373000000 -1.3232000000  6.3251000000
C   9.8643000000 -1.0622000000  7.5921000000
C   8.6825000000 -1.0450000000  7.8959000000
C   10.8123000000 -0.2992000000  8.5731000000
C   14.6833000000 -4.8512000000 -0.4449000000
C   15.5183000000 -3.8012000000 -0.0889000000
C   16.6953000000 -3.5982000000 -0.8399000000
C   16.9703000000 -4.4882000000 -1.8899000000
C   16.1523000000 -5.5962000000 -2.2009000000
C   14.9513000000 -5.7522000000 -1.5279000000
C   13.6583000000 -4.8752000000  0.4711000000
C   13.8893000000 -3.7772000000  1.2511000000
H   13.1623000000 -1.2452000000  1.7971000000
H   12.5583000000 -5.3772000000  3.0881000000
H   11.7383000000 -5.5442000000  4.9131000000
H   11.8513000000  0.1658000000  2.5901000000
H   9.4643000000 -1.3292000000  4.6731000000
H   11.4933000000 -0.8182000000  6.2071000000
H   7.9073000000 -0.9712000000  7.1161000000
H   8.2313000000 -0.9072000000  8.8131000000
H   11.1183000000  0.6778000000  8.1811000000
H   11.7213000000 -0.7962000000  8.9311000000
H   10.3263000000 -0.0742000000  9.5301000000
H   17.3553000000 -2.7642000000 -0.6209000000
H   16.3753000000 -6.3042000000 -2.9929000000
H   14.4873000000 -6.7332000000 -1.5779000000
H   12.8783000000 -5.6272000000  0.4831000000
H   18.2613000000 -4.9422000000 -3.2189000000
C   10.5521242347 -4.9819216562  9.8789303480
O   12.8831242347 -5.3339216562  10.3669303480
C   11.9101242347 -4.9119216562  9.5209303480
O   8.3291242347 -4.4659216562  9.4069303480
C   12.3681242347 -4.2399216562  8.3409303480
O   7.0811242347 -2.5099216562  5.2069303480
C   11.3891242347 -3.7609216562  7.4839303480
O   5.3781242347 -3.7459216562  3.6399303480
C   10.0021242347 -3.8709216562  7.7509303480
O   7.2921242347 -6.0259216562 -0.1800696520
C   9.6061242347 -4.4489216562  8.9699303480
C   8.8299242347 -3.4651216562  6.9572303480
C   9.1691242347 -3.4309216562  5.5999303480
C   7.9441242347 -3.2459216562  4.8219303480
C   7.7781242347 -4.0269216562  3.5129303480
C   8.9021242347 -4.5559216562  2.8209303480
C   6.4701242347 -4.1699216562  2.9429303480
C   8.7281242347 -5.3159216562  1.6519303480
C   6.3061242347 -4.9269216562  1.7499303480
C   7.4661242347 -5.3539216562  1.0639303480
C   4.9101242347 -5.2559216562  1.3329303480
C   4.5251242347 -6.7019216562  1.0439303480
C   4.7031242347 -7.8009216562  1.8489303480
C   4.2351242347 -9.1779216562  1.3979303480
C   5.4081242347 -7.7079216562  3.2199303480
H   10.1871242347 -5.2419216562  10.8679303480
H   13.4411242347 -4.1019216562  8.2459303480
H   11.6991242347 -3.3159216562  6.5429303480
H   12.4201242347 -5.7719216562  11.1019303480
H   8.2751242347 -5.0519216562  10.1819303480
H   7.9381242347 -3.4159216562  7.3379303480
H   9.4351242347 -4.4669216562  5.4239303480
H   9.8871242347 -4.5129216562  3.2749303480
H   9.5541242347 -5.6349216562  1.0229303480
H   5.7811242347 -3.3389216562  4.4269303480
H   6.3511242347 -6.2059216562 -0.3470696520
H   4.0451242347 -4.8799216562  1.8929303480
H   4.7911242347 -4.7679216562  0.3579303480
H   3.8921242347 -6.8819216562  0.1779303480
H   3.7331242347 -9.7289216562  2.2029303480
H   5.1661242347 -9.6989216562  1.1439303480
H   3.4531242347 -9.1399216562  0.6289303480
H   6.3891242347 -8.1799216562  3.3549303480
H   4.7611242347 -8.1749216562  3.9729303480
H   5.4091242347 -6.6879216562  3.6239303480
84
Scanning combination 186/256: [1.9000, 2.5000]  Energy = -385.9431239363
O   11.1233000000 -4.8002000000  5.0341000000
O   11.3873000000 -0.2652000000  3.3291000000
O   18.1143000000 -4.2382000000 -2.5629000000
O   15.0523000000 -3.1142000000  0.9841000000
C   13.0053000000 -3.3232000000  2.3291000000
C   12.6993000000 -1.9792000000  2.4491000000
C   12.3973000000 -4.3072000000  3.1831000000
C   11.6323000000 -1.5992000000  3.2951000000
C   11.4783000000 -3.8632000000  4.1231000000
C   11.0613000000 -2.4802000000  4.2331000000
C   10.1223000000 -1.9712000000  5.2561000000
C   10.5373000000 -1.3232000000  6.3251000000
C   9.8643000000 -1.0622000000  7.5921000000
C   8.6825000000 -1.0450000000  7.8959000000
C   10.8123000000 -0.2992000000  8.5731000000
C   14.6833000000 -4.8512000000 -0.4449000000
C   15.5183000000 -3.8012000000 -0.0889000000
C   16.6953000000 -3.5982000000 -0.8399000000
C   16.9703000000 -4.4882000000 -1.8899000000
C   16.1523000000 -5.5962000000 -2.2009000000
C   14.9513000000 -5.7522000000 -1.5279000000
C   13.6583000000 -4.8752000000  0.4711000000
C   13.8893000000 -3.7772000000  1.2511000000
H   13.1623000000 -1.2452000000  1.7971000000
H   12.5583000000 -5.3772000000  3.0881000000
H   11.7383000000 -5.5442000000  4.9131000000
H   11.8513000000  0.1658000000  2.5901000000
H   9.4643000000 -1.3292000000  4.6731000000
H   11.4933000000 -0.8182000000  6.2071000000
H   7.9073000000 -0.9712000000  7.1161000000
H   8.2313000000 -0.9072000000  8.8131000000
H   11.1183000000  0.6778000000  8.1811000000
H   11.7213000000 -0.7962000000  8.9311000000
H   10.3263000000 -0.0742000000  9.5301000000
H   17.3553000000 -2.7642000000 -0.6209000000
H   16.3753000000 -6.3042000000 -2.9929000000
H   14.4873000000 -6.7332000000 -1.5779000000
H   12.8783000000 -5.6272000000  0.4831000000
H   18.2613000000 -4.9422000000 -3.2189000000
C   10.4805341803 -4.9107570577  9.9652619449
O   12.8115341803 -5.2627570577  10.4532619449
C   11.8385341803 -4.8407570577  9.6072619449
O   8.2575341803 -4.3947570577  9.4932619449
C   12.2965341803 -4.1687570577  8.4272619449
O   7.0095341803 -2.4387570577  5.2932619449
C   11.3175341803 -3.6897570577  7.5702619449
O   5.3065341803 -3.6747570577  3.7262619449
C   9.9305341803 -3.7997570577  7.8372619449
O   7.2205341803 -5.9547570577 -0.0937380551
C   9.5345341803 -4.3777570577  9.0562619449
C   8.7583341803 -3.3939570577  7.0435619449
C   9.0975341803 -3.3597570577  5.6862619449
C   7.8725341803 -3.1747570577  4.9082619449
C   7.7065341803 -3.9557570577  3.5992619449
C   8.8305341803 -4.4847570577  2.9072619449
C   6.3985341803 -4.0987570577  3.0292619449
C   8.6565341803 -5.2447570577  1.7382619449
C   6.2345341803 -4.8557570577  1.8362619449
C   7.3945341803 -5.2827570577  1.1502619449
C   4.8385341803 -5.1847570577  1.4192619449
C   4.4535341803 -6.6307570577  1.1302619449
C   4.6315341803 -7.7297570577  1.9352619449
C   4.1635341803 -9.1067570577  1.4842619449
C   5.3365341803 -7.6367570577  3.3062619449
H   10.1155341803 -5.1707570577  10.9542619449
H   13.3695341803 -4.0307570577  8.3322619449
H   11.6275341803 -3.2447570577  6.6292619449
H   12.3485341803 -5.7007570577  11.1882619449
H   8.2035341803 -4.9807570577  10.2682619449
H   7.8665341803 -3.3447570577  7.4242619449
H   9.3635341803 -4.3957570577  5.5102619449
H   9.8155341803 -4.4417570577  3.3612619449
H   9.4825341803 -5.5637570577  1.1092619449
H   5.7095341803 -3.2677570577  4.5132619449
H   6.2795341803 -6.1347570577 -0.2607380551
H   3.9735341803 -4.8087570577  1.9792619449
H   4.7195341803 -4.6967570577  0.4442619449
H   3.8205341803 -6.8107570577  0.2642619449
H   3.6615341803 -9.6577570577  2.2892619449
H   5.0945341803 -9.6277570577  1.2302619449
H   3.3815341803 -9.0687570577  0.7152619449
H   6.3175341803 -8.1087570577  3.4412619449
H   4.6895341803 -8.1037570577  4.0592619449
H   5.3375341803 -6.6167570577  3.7102619449
84
Scanning combination 187/256: [1.9000, 2.4000]  Energy = -385.9414645430
O   11.1233000000 -4.8002000000  5.0341000000
O   11.3873000000 -0.2652000000  3.3291000000
O   18.1143000000 -4.2382000000 -2.5629000000
O   15.0523000000 -3.1142000000  0.9841000000
C   13.0053000000 -3.3232000000  2.3291000000
C   12.6993000000 -1.9792000000  2.4491000000
C   12.3973000000 -4.3072000000  3.1831000000
C   11.6323000000 -1.5992000000  3.2951000000
C   11.4783000000 -3.8632000000  4.1231000000
C   11.0613000000 -2.4802000000  4.2331000000
C   10.1223000000 -1.9712000000  5.2561000000
C   10.5373000000 -1.3232000000  6.3251000000
C   9.8643000000 -1.0622000000  7.5921000000
C   8.6825000000 -1.0450000000  7.8959000000
C   10.8123000000 -0.2992000000  8.5731000000
C   14.6833000000 -4.8512000000 -0.4449000000
C   15.5183000000 -3.8012000000 -0.0889000000
C   16.6953000000 -3.5982000000 -0.8399000000
C   16.9703000000 -4.4882000000 -1.8899000000
C   16.1523000000 -5.5962000000 -2.2009000000
C   14.9513000000 -5.7522000000 -1.5279000000
C   13.6583000000 -4.8752000000  0.4711000000
C   13.8893000000 -3.7772000000  1.2511000000
H   13.1623000000 -1.2452000000  1.7971000000
H   12.5583000000 -5.3772000000  3.0881000000
H   11.7383000000 -5.5442000000  4.9131000000
H   11.8513000000  0.1658000000  2.5901000000
H   9.4643000000 -1.3292000000  4.6731000000
H   11.4933000000 -0.8182000000  6.2071000000
H   7.9073000000 -0.9712000000  7.1161000000
H   8.2313000000 -0.9072000000  8.8131000000
H   11.1183000000  0.6778000000  8.1811000000
H   11.7213000000 -0.7962000000  8.9311000000
H   10.3263000000 -0.0742000000  9.5301000000
H   17.3553000000 -2.7642000000 -0.6209000000
H   16.3753000000 -6.3042000000 -2.9929000000
H   14.4873000000 -6.7332000000 -1.5779000000
H   12.8783000000 -5.6272000000  0.4831000000
H   18.2613000000 -4.9422000000 -3.2189000000
C   10.4101342427 -4.8362579752  10.0516702251
O   12.7411342427 -5.1882579752  10.5396702251
C   11.7681342427 -4.7662579752  9.6936702251
O   8.1871342427 -4.3202579752  9.5796702251
C   12.2261342427 -4.0942579752  8.5136702251
O   6.9391342427 -2.3642579752  5.3796702251
C   11.2471342427 -3.6152579752  7.6566702251
O   5.2361342427 -3.6002579752  3.8126702251
C   9.8601342427 -3.7252579752  7.9236702251
O   7.1501342427 -5.8802579752 -0.0073297749
C   9.4641342427 -4.3032579752  9.1426702251
C   8.6879342427 -3.3194579752  7.1299702251
C   9.0271342427 -3.2852579752  5.7726702251
C   7.8021342427 -3.1002579752  4.9946702251
C   7.6361342427 -3.8812579752  3.6856702251
C   8.7601342427 -4.4102579752  2.9936702251
C   6.3281342427 -4.0242579752  3.1156702251
C   8.5861342427 -5.1702579752  1.8246702251
C   6.1641342427 -4.7812579752  1.9226702251
C   7.3241342427 -5.2082579752  1.2366702251
C   4.7681342427 -5.1102579752  1.5056702251
C   4.3831342427 -6.5562579752  1.2166702251
C   4.5611342427 -7.6552579752  2.0216702251
C   4.0931342427 -9.0322579752  1.5706702251
C   5.2661342427 -7.5622579752  3.3926702251
H   10.0451342427 -5.0962579752  11.0406702251
H   13.2991342427 -3.9562579752  8.4186702251
H   11.5571342427 -3.1702579752  6.7156702251
H   12.2781342427 -5.6262579752  11.2746702251
H   8.1331342427 -4.9062579752  10.3546702251
H   7.7961342427 -3.2702579752  7.5106702251
H   9.2931342427 -4.3212579752  5.5966702251
H   9.7451342427 -4.3672579752  3.4476702251
H   9.4121342427 -5.4892579752  1.1956702251
H   5.6391342427 -3.1932579752  4.5996702251
H   6.2091342427 -6.0602579752 -0.1743297749
H   3.9031342427 -4.7342579752  2.0656702251
H   4.6491342427 -4.6222579752  0.5306702251
H   3.7501342427 -6.7362579752  0.3506702251
H   3.5911342427 -9.5832579752  2.3756702251
H   5.0241342427 -9.5532579752  1.3166702251
H   3.3111342427 -8.9942579752  0.8016702251
H   6.2471342427 -8.0342579752  3.5276702251
H   4.6191342427 -8.0292579752  4.1456702251
H   5.2671342427 -6.5422579752  3.7966702251
84
Scanning combination 188/256: [1.9000, 2.3000]  Energy = -385.9339290853
O   11.1233000000 -4.8002000000  5.0341000000
O   11.3873000000 -0.2652000000  3.3291000000
O   18.1143000000 -4.2382000000 -2.5629000000
O   15.0523000000 -3.1142000000  0.9841000000
C   13.0053000000 -3.3232000000  2.3291000000
C   12.6993000000 -1.9792000000  2.4491000000
C   12.3973000000 -4.3072000000  3.1831000000
C   11.6323000000 -1.5992000000  3.2951000000
C   11.4783000000 -3.8632000000  4.1231000000
C   11.0613000000 -2.4802000000  4.2331000000
C   10.1223000000 -1.9712000000  5.2561000000
C   10.5373000000 -1.3232000000  6.3251000000
C   9.8643000000 -1.0622000000  7.5921000000
C   8.6825000000 -1.0450000000  7.8959000000
C   10.8123000000 -0.2992000000  8.5731000000
C   14.6833000000 -4.8512000000 -0.4449000000
C   15.5183000000 -3.8012000000 -0.0889000000
C   16.6953000000 -3.5982000000 -0.8399000000
C   16.9703000000 -4.4882000000 -1.8899000000
C   16.1523000000 -5.5962000000 -2.2009000000
C   14.9513000000 -5.7522000000 -1.5279000000
C   13.6583000000 -4.8752000000  0.4711000000
C   13.8893000000 -3.7772000000  1.2511000000
H   13.1623000000 -1.2452000000  1.7971000000
H   12.5583000000 -5.3772000000  3.0881000000
H   11.7383000000 -5.5442000000  4.9131000000
H   11.8513000000  0.1658000000  2.5901000000
H   9.4643000000 -1.3292000000  4.6731000000
H   11.4933000000 -0.8182000000  6.2071000000
H   7.9073000000 -0.9712000000  7.1161000000
H   8.2313000000 -0.9072000000  8.8131000000
H   11.1183000000  0.6778000000  8.1811000000
H   11.7213000000 -0.7962000000  8.9311000000
H   10.3263000000 -0.0742000000  9.5301000000
H   17.3553000000 -2.7642000000 -0.6209000000
H   16.3753000000 -6.3042000000 -2.9929000000
H   14.4873000000 -6.7332000000 -1.5779000000
H   12.8783000000 -5.6272000000  0.4831000000
H   18.2613000000 -4.9422000000 -3.2189000000
C   10.3451823929 -4.7572759698  10.1348213073
O   12.6761823929 -5.1092759698  10.6228213073
C   11.7031823929 -4.6872759698  9.7768213073
O   8.1221823929 -4.2412759698  9.6628213073
C   12.1611823929 -4.0152759698  8.5968213073
O   6.8741823929 -2.2852759698  5.4628213073
C   11.1821823929 -3.5362759698  7.7398213073
O   5.1711823929 -3.5212759698  3.8958213073
C   9.7951823929 -3.6462759698  8.0068213073
O   7.0851823929 -5.8012759698  0.0758213073
C   9.3991823929 -4.2242759698  9.2258213073
C   8.6229823929 -3.2404759698  7.2131213073
C   8.9621823929 -3.2062759698  5.8558213073
C   7.7371823929 -3.0212759698  5.0778213073
C   7.5711823929 -3.8022759698  3.7688213073
C   8.6951823929 -4.3312759698  3.0768213073
C   6.2631823929 -3.9452759698  3.1988213073
C   8.5211823929 -5.0912759698  1.9078213073
C   6.0991823929 -4.7022759698  2.0058213073
C   7.2591823929 -5.1292759698  1.3198213073
C   4.7031823929 -5.0312759698  1.5888213073
C   4.3181823929 -6.4772759698  1.2998213073
C   4.4961823929 -7.5762759698  2.1048213073
C   4.0281823929 -8.9532759698  1.6538213073
C   5.2011823929 -7.4832759698  3.4758213073
H   9.9801823929 -5.0172759698  11.1238213073
H   13.2341823929 -3.8772759698  8.5018213073
H   11.4921823929 -3.0912759698  6.7988213073
H   12.2131823929 -5.5472759698  11.3578213073
H   8.0681823929 -4.8272759698  10.4378213073
H   7.7311823929 -3.1912759698  7.5938213073
H   9.2281823929 -4.2422759698  5.6798213073
H   9.6801823929 -4.2882759698  3.5308213073
H   9.3471823929 -5.4102759698  1.2788213073
H   5.5741823929 -3.1142759698  4.6828213073
H   6.1441823929 -5.9812759698 -0.0911786927
H   3.8381823929 -4.6552759698  2.1488213073
H   4.5841823929 -4.5432759698  0.6138213073
H   3.6851823929 -6.6572759698  0.4338213073
H   3.5261823929 -9.5042759698  2.4588213073
H   4.9591823929 -9.4742759698  1.3998213073
H   3.2461823929 -8.9152759698  0.8848213073
H   6.1821823929 -7.9552759698  3.6108213073
H   4.5541823929 -7.9502759698  4.2288213073
H   5.2021823929 -6.4632759698  3.8798213073
84
Scanning combination 189/256: [1.9000, 2.2000]  Energy = -385.9214378592
O   11.1233000000 -4.8002000000  5.0341000000
O   11.3873000000 -0.2652000000  3.3291000000
O   18.1143000000 -4.2382000000 -2.5629000000
O   15.0523000000 -3.1142000000  0.9841000000
C   13.0053000000 -3.3232000000  2.3291000000
C   12.6993000000 -1.9792000000  2.4491000000
C   12.3973000000 -4.3072000000  3.1831000000
C   11.6323000000 -1.5992000000  3.2951000000
C   11.4783000000 -3.8632000000  4.1231000000
C   11.0613000000 -2.4802000000  4.2331000000
C   10.1223000000 -1.9712000000  5.2561000000
C   10.5373000000 -1.3232000000  6.3251000000
C   9.8643000000 -1.0622000000  7.5921000000
C   8.6825000000 -1.0450000000  7.8959000000
C   10.8123000000 -0.2992000000  8.5731000000
C   14.6833000000 -4.8512000000 -0.4449000000
C   15.5183000000 -3.8012000000 -0.0889000000
C   16.6953000000 -3.5982000000 -0.8399000000
C   16.9703000000 -4.4882000000 -1.8899000000
C   16.1523000000 -5.5962000000 -2.2009000000
C   14.9513000000 -5.7522000000 -1.5279000000
C   13.6583000000 -4.8752000000  0.4711000000
C   13.8893000000 -3.7772000000  1.2511000000
H   13.1623000000 -1.2452000000  1.7971000000
H   12.5583000000 -5.3772000000  3.0881000000
H   11.7383000000 -5.5442000000  4.9131000000
H   11.8513000000  0.1658000000  2.5901000000
H   9.4643000000 -1.3292000000  4.6731000000
H   11.4933000000 -0.8182000000  6.2071000000
H   7.9073000000 -0.9712000000  7.1161000000
H   8.2313000000 -0.9072000000  8.8131000000
H   11.1183000000  0.6778000000  8.1811000000
H   11.7213000000 -0.7962000000  8.9311000000
H   10.3263000000 -0.0742000000  9.5301000000
H   17.3553000000 -2.7642000000 -0.6209000000
H   16.3753000000 -6.3042000000 -2.9929000000
H   14.4873000000 -6.7332000000 -1.5779000000
H   12.8783000000 -5.6272000000  0.4831000000
H   18.2613000000 -4.9422000000 -3.2189000000
C   10.2875291993 -4.6738347555  10.2130912674
O   12.6185291993 -5.0258347555  10.7010912674
C   11.6455291993 -4.6038347555  9.8550912674
O   8.0645291993 -4.1578347555  9.7410912674
C   12.1035291993 -3.9318347555  8.6750912674
O   6.8165291993 -2.2018347555  5.5410912674
C   11.1245291993 -3.4528347555  7.8180912674
O   5.1135291993 -3.4378347555  3.9740912674
C   9.7375291993 -3.5628347555  8.0850912674
O   7.0275291993 -5.7178347555  0.1540912674
C   9.3415291993 -4.1408347555  9.3040912674
C   8.5653291993 -3.1570347555  7.2913912674
C   8.9045291993 -3.1228347555  5.9340912674
C   7.6795291993 -2.9378347555  5.1560912674
C   7.5135291993 -3.7188347555  3.8470912674
C   8.6375291993 -4.2478347555  3.1550912674
C   6.2055291993 -3.8618347555  3.2770912674
C   8.4635291993 -5.0078347555  1.9860912674
C   6.0415291993 -4.6188347555  2.0840912674
C   7.2015291993 -5.0458347555  1.3980912674
C   4.6455291993 -4.9478347555  1.6670912674
C   4.2605291993 -6.3938347555  1.3780912674
C   4.4385291993 -7.4928347555  2.1830912674
C   3.9705291993 -8.8698347555  1.7320912674
C   5.1435291993 -7.3998347555  3.5540912674
H   9.9225291993 -4.9338347555  11.2020912674
H   13.1765291993 -3.7938347555  8.5800912674
H   11.4345291993 -3.0078347555  6.8770912674
H   12.1555291993 -5.4638347555  11.4360912674
H   8.0105291993 -4.7438347555  10.5160912674
H   7.6735291993 -3.1078347555  7.6720912674
H   9.1705291993 -4.1588347555  5.7580912674
H   9.6225291993 -4.2048347555  3.6090912674
H   9.2895291993 -5.3268347555  1.3570912674
H   5.5165291993 -3.0308347555  4.7610912674
H   6.0865291993 -5.8978347555 -0.0129087326
H   3.7805291993 -4.5718347555  2.2270912674
H   4.5265291993 -4.4598347555  0.6920912674
H   3.6275291993 -6.5738347555  0.5120912674
H   3.4685291993 -9.4208347555  2.5370912674
H   4.9015291993 -9.3908347555  1.4780912674
H   3.1885291993 -8.8318347555  0.9630912674
H   6.1245291993 -7.8718347555  3.6890912674
H   4.4965291993 -7.8668347555  4.3070912674
H   5.1445291993 -6.3798347555  3.9580912674
84
Scanning combination 190/256: [1.9000, 2.1000]  Energy = -385.9043918844
O   11.1233000000 -4.8002000000  5.0341000000
O   11.3873000000 -0.2652000000  3.3291000000
O   18.1143000000 -4.2382000000 -2.5629000000
O   15.0523000000 -3.1142000000  0.9841000000
C   13.0053000000 -3.3232000000  2.3291000000
C   12.6993000000 -1.9792000000  2.4491000000
C   12.3973000000 -4.3072000000  3.1831000000
C   11.6323000000 -1.5992000000  3.2951000000
C   11.4783000000 -3.8632000000  4.1231000000
C   11.0613000000 -2.4802000000  4.2331000000
C   10.1223000000 -1.9712000000  5.2561000000
C   10.5373000000 -1.3232000000  6.3251000000
C   9.8643000000 -1.0622000000  7.5921000000
C   8.6825000000 -1.0450000000  7.8959000000
C   10.8123000000 -0.2992000000  8.5731000000
C   14.6833000000 -4.8512000000 -0.4449000000
C   15.5183000000 -3.8012000000 -0.0889000000
C   16.6953000000 -3.5982000000 -0.8399000000
C   16.9703000000 -4.4882000000 -1.8899000000
C   16.1523000000 -5.5962000000 -2.2009000000
C   14.9513000000 -5.7522000000 -1.5279000000
C   13.6583000000 -4.8752000000  0.4711000000
C   13.8893000000 -3.7772000000  1.2511000000
H   13.1623000000 -1.2452000000  1.7971000000
H   12.5583000000 -5.3772000000  3.0881000000
H   11.7383000000 -5.5442000000  4.9131000000
H   11.8513000000  0.1658000000  2.5901000000
H   9.4643000000 -1.3292000000  4.6731000000
H   11.4933000000 -0.8182000000  6.2071000000
H   7.9073000000 -0.9712000000  7.1161000000
H   8.2313000000 -0.9072000000  8.8131000000
H   11.1183000000  0.6778000000  8.1811000000
H   11.7213000000 -0.7962000000  8.9311000000
H   10.3263000000 -0.0742000000  9.5301000000
H   17.3553000000 -2.7642000000 -0.6209000000
H   16.3753000000 -6.3042000000 -2.9929000000
H   14.4873000000 -6.7332000000 -1.5779000000
H   12.8783000000 -5.6272000000  0.4831000000
H   18.2613000000 -4.9422000000 -3.2189000000
C   10.2375913348 -4.5864649882  10.2859386578
O   12.5685913348 -4.9384649882  10.7739386578
C   11.5955913348 -4.5164649882  9.9279386578
O   8.0145913348 -4.0704649882  9.8139386578
C   12.0535913348 -3.8444649882  8.7479386578
O   6.7665913348 -2.1144649882  5.6139386578
C   11.0745913348 -3.3654649882  7.8909386578
O   5.0635913348 -3.3504649882  4.0469386578
C   9.6875913348 -3.4754649882  8.1579386578
O   6.9775913348 -5.6304649882  0.2269386578
C   9.2915913348 -4.0534649882  9.3769386578
C   8.5153913348 -3.0696649882  7.3642386578
C   8.8545913348 -3.0354649882  6.0069386578
C   7.6295913348 -2.8504649882  5.2289386578
C   7.4635913348 -3.6314649882  3.9199386578
C   8.5875913348 -4.1604649882  3.2279386578
C   6.1555913348 -3.7744649882  3.3499386578
C   8.4135913348 -4.9204649882  2.0589386578
C   5.9915913348 -4.5314649882  2.1569386578
C   7.1515913348 -4.9584649882  1.4709386578
C   4.5955913348 -4.8604649882  1.7399386578
C   4.2105913348 -6.3064649882  1.4509386578
C   4.3885913348 -7.4054649882  2.2559386578
C   3.9205913348 -8.7824649882  1.8049386578
C   5.0935913348 -7.3124649882  3.6269386578
H   9.8725913348 -4.8464649882  11.2749386578
H   13.1265913348 -3.7064649882  8.6529386578
H   11.3845913348 -2.9204649882  6.9499386578
H   12.1055913348 -5.3764649882  11.5089386578
H   7.9605913348 -4.6564649882  10.5889386578
H   7.6235913348 -3.0204649882  7.7449386578
H   9.1205913348 -4.0714649882  5.8309386578
H   9.5725913348 -4.1174649882  3.6819386578
H   9.2395913348 -5.2394649882  1.4299386578
H   5.4665913348 -2.9434649882  4.8339386578
H   6.0365913348 -5.8104649882  0.0599386578
H   3.7305913348 -4.4844649882  2.2999386578
H   4.4765913348 -4.3724649882  0.7649386578
H   3.5775913348 -6.4864649882  0.5849386578
H   3.4185913348 -9.3334649882  2.6099386578
H   4.8515913348 -9.3034649882  1.5509386578
H   3.1385913348 -8.7444649882  1.0359386578
H   6.0745913348 -7.7844649882  3.7619386578
H   4.4465913348 -7.7794649882  4.3799386578
H   5.0945913348 -6.2924649882  4.0309386578
84
Scanning combination 191/256: [1.9000, 2.0000]  Energy = -385.8824828859
O   11.1233000000 -4.8002000000  5.0341000000
O   11.3873000000 -0.2652000000  3.3291000000
O   18.1143000000 -4.2382000000 -2.5629000000
O   15.0523000000 -3.1142000000  0.9841000000
C   13.0053000000 -3.3232000000  2.3291000000
C   12.6993000000 -1.9792000000  2.4491000000
C   12.3973000000 -4.3072000000  3.1831000000
C   11.6323000000 -1.5992000000  3.2951000000
C   11.4783000000 -3.8632000000  4.1231000000
C   11.0613000000 -2.4802000000  4.2331000000
C   10.1223000000 -1.9712000000  5.2561000000
C   10.5373000000 -1.3232000000  6.3251000000
C   9.8643000000 -1.0622000000  7.5921000000
C   8.6825000000 -1.0450000000  7.8959000000
C   10.8123000000 -0.2992000000  8.5731000000
C   14.6833000000 -4.8512000000 -0.4449000000
C   15.5183000000 -3.8012000000 -0.0889000000
C   16.6953000000 -3.5982000000 -0.8399000000
C   16.9703000000 -4.4882000000 -1.8899000000
C   16.1523000000 -5.5962000000 -2.2009000000
C   14.9513000000 -5.7522000000 -1.5279000000
C   13.6583000000 -4.8752000000  0.4711000000
C   13.8893000000 -3.7772000000  1.2511000000
H   13.1623000000 -1.2452000000  1.7971000000
H   12.5583000000 -5.3772000000  3.0881000000
H   11.7383000000 -5.5442000000  4.9131000000
H   11.8513000000  0.1658000000  2.5901000000
H   9.4643000000 -1.3292000000  4.6731000000
H   11.4933000000 -0.8182000000  6.2071000000
H   7.9073000000 -0.9712000000  7.1161000000
H   8.2313000000 -0.9072000000  8.8131000000
H   11.1183000000  0.6778000000  8.1811000000
H   11.7213000000 -0.7962000000  8.9311000000
H   10.3263000000 -0.0742000000  9.5301000000
H   17.3553000000 -2.7642000000 -0.6209000000
H   16.3753000000 -6.3042000000 -2.9929000000
H   14.4873000000 -6.7332000000 -1.5779000000
H   12.8783000000 -5.6272000000  0.4831000000
H   18.2613000000 -4.9422000000 -3.2189000000
C   10.1951151565 -4.4958181138  10.3533669523
O   12.5261151565 -4.8478181138  10.8413669523
C   11.5531151565 -4.4258181138  9.9953669523
O   7.9721151565 -3.9798181138  9.8813669523
C   12.0111151565 -3.7538181138  8.8153669523
O   6.7241151565 -2.0238181138  5.6813669523
C   11.0321151565 -3.2748181138  7.9583669523
O   5.0211151565 -3.2598181138  4.1143669523
C   9.6451151565 -3.3848181138  8.2253669523
O   6.9351151565 -5.5398181138  0.2943669523
C   9.2491151565 -3.9628181138  9.4443669523
C   8.4729151565 -2.9790181138  7.4316669523
C   8.8121151565 -2.9448181138  6.0743669523
C   7.5871151565 -2.7598181138  5.2963669523
C   7.4211151565 -3.5408181138  3.9873669523
C   8.5451151565 -4.0698181138  3.2953669523
C   6.1131151565 -3.6838181138  3.4173669523
C   8.3711151565 -4.8298181138  2.1263669523
C   5.9491151565 -4.4408181138  2.2243669523
C   7.1091151565 -4.8678181138  1.5383669523
C   4.5531151565 -4.7698181138  1.8073669523
C   4.1681151565 -6.2158181138  1.5183669523
C   4.3461151565 -7.3148181138  2.3233669523
C   3.8781151565 -8.6918181138  1.8723669523
C   5.0511151565 -7.2218181138  3.6943669523
H   9.8301151565 -4.7558181138  11.3423669523
H   13.0841151565 -3.6158181138  8.7203669523
H   11.3421151565 -2.8298181138  7.0173669523
H   12.0631151565 -5.2858181138  11.5763669523
H   7.9181151565 -4.5658181138  10.6563669523
H   7.5811151565 -2.9298181138  7.8123669523
H   9.0781151565 -3.9808181138  5.8983669523
H   9.5301151565 -4.0268181138  3.7493669523
H   9.1971151565 -5.1488181138  1.4973669523
H   5.4241151565 -2.8528181138  4.9013669523
H   5.9941151565 -5.7198181138  0.1273669523
H   3.6881151565 -4.3938181138  2.3673669523
H   4.4341151565 -4.2818181138  0.8323669523
H   3.5351151565 -6.3958181138  0.6523669523
H   3.3761151565 -9.2428181138  2.6773669523
H   4.8091151565 -9.2128181138  1.6183669523
H   3.0961151565 -8.6538181138  1.1033669523
H   6.0321151565 -7.6938181138  3.8293669523
H   4.4041151565 -7.6888181138  4.4473669523
H   5.0521151565 -6.2018181138  4.0983669523
84
Scanning combination 192/256: [1.9000, 1.9000]  Energy = -385.8558806177
O   11.1233000000 -4.8002000000  5.0341000000
O   11.3873000000 -0.2652000000  3.3291000000
O   18.1143000000 -4.2382000000 -2.5629000000
O   15.0523000000 -3.1142000000  0.9841000000
C   13.0053000000 -3.3232000000  2.3291000000
C   12.6993000000 -1.9792000000  2.4491000000
C   12.3973000000 -4.3072000000  3.1831000000
C   11.6323000000 -1.5992000000  3.2951000000
C   11.4783000000 -3.8632000000  4.1231000000
C   11.0613000000 -2.4802000000  4.2331000000
C   10.1223000000 -1.9712000000  5.2561000000
C   10.5373000000 -1.3232000000  6.3251000000
C   9.8643000000 -1.0622000000  7.5921000000
C   8.6825000000 -1.0450000000  7.8959000000
C   10.8123000000 -0.2992000000  8.5731000000
C   14.6833000000 -4.8512000000 -0.4449000000
C   15.5183000000 -3.8012000000 -0.0889000000
C   16.6953000000 -3.5982000000 -0.8399000000
C   16.9703000000 -4.4882000000 -1.8899000000
C   16.1523000000 -5.5962000000 -2.2009000000
C   14.9513000000 -5.7522000000 -1.5279000000
C   13.6583000000 -4.8752000000  0.4711000000
C   13.8893000000 -3.7772000000  1.2511000000
H   13.1623000000 -1.2452000000  1.7971000000
H   12.5583000000 -5.3772000000  3.0881000000
H   11.7383000000 -5.5442000000  4.9131000000
H   11.8513000000  0.1658000000  2.5901000000
H   9.4643000000 -1.3292000000  4.6731000000
H   11.4933000000 -0.8182000000  6.2071000000
H   7.9073000000 -0.9712000000  7.1161000000
H   8.2313000000 -0.9072000000  8.8131000000
H   11.1183000000  0.6778000000  8.1811000000
H   11.7213000000 -0.7962000000  8.9311000000
H   10.3263000000 -0.0742000000  9.5301000000
H   17.3553000000 -2.7642000000 -0.6209000000
H   16.3753000000 -6.3042000000 -2.9929000000
H   14.4873000000 -6.7332000000 -1.5779000000
H   12.8783000000 -5.6272000000  0.4831000000
H   18.2613000000 -4.9422000000 -3.2189000000
C   10.1596319118 -4.4025046154  10.4155811757
O   12.4906319118 -4.7545046154  10.9035811757
C   11.5176319118 -4.3325046154  10.0575811757
O   7.9366319118 -3.8865046154  9.9435811757
C   11.9756319118 -3.6605046154  8.8775811757
O   6.6886319118 -1.9305046154  5.7435811757
C   10.9966319118 -3.1815046154  8.0205811757
O   4.9856319118 -3.1665046154  4.1765811757
C   9.6096319118 -3.2915046154  8.2875811757
O   6.8996319118 -5.4465046154  0.3565811757
C   9.2136319118 -3.8695046154  9.5065811757
C   8.4374319118 -2.8857046154  7.4938811757
C   8.7766319118 -2.8515046154  6.1365811757
C   7.5516319118 -2.6665046154  5.3585811757
C   7.3856319118 -3.4475046154  4.0495811757
C   8.5096319118 -3.9765046154  3.3575811757
C   6.0776319118 -3.5905046154  3.4795811757
C   8.3356319118 -4.7365046154  2.1885811757
C   5.9136319118 -4.3475046154  2.2865811757
C   7.0736319118 -4.7745046154  1.6005811757
C   4.5176319118 -4.6765046154  1.8695811757
C   4.1326319118 -6.1225046154  1.5805811757
C   4.3106319118 -7.2215046154  2.3855811757
C   3.8426319118 -8.5985046154  1.9345811757
C   5.0156319118 -7.1285046154  3.7565811757
H   9.7946319118 -4.6625046154  11.4045811757
H   13.0486319118 -3.5225046154  8.7825811757
H   11.3066319118 -2.7365046154  7.0795811757
H   12.0276319118 -5.1925046154  11.6385811757
H   7.8826319118 -4.4725046154  10.7185811757
H   7.5456319118 -2.8365046154  7.8745811757
H   9.0426319118 -3.8875046154  5.9605811757
H   9.4946319118 -3.9335046154  3.8115811757
H   9.1616319118 -5.0555046154  1.5595811757
H   5.3886319118 -2.7595046154  4.9635811757
H   5.9586319118 -5.6265046154  0.1895811757
H   3.6526319118 -4.3005046154  2.4295811757
H   4.3986319118 -4.1885046154  0.8945811757
H   3.4996319118 -6.3025046154  0.7145811757
H   3.3406319118 -9.1495046154  2.7395811757
H   4.7736319118 -9.1195046154  1.6805811757
H   3.0606319118 -8.5605046154  1.1655811757
H   5.9966319118 -7.6005046154  3.8915811757
H   4.3686319118 -7.5955046154  4.5095811757
H   5.0166319118 -6.1085046154  4.1605811757
84
Scanning combination 193/256: [1.9000, 1.8000]  Energy = -385.8230036493
O   11.1233000000 -4.8002000000  5.0341000000
O   11.3873000000 -0.2652000000  3.3291000000
O   18.1143000000 -4.2382000000 -2.5629000000
O   15.0523000000 -3.1142000000  0.9841000000
C   13.0053000000 -3.3232000000  2.3291000000
C   12.6993000000 -1.9792000000  2.4491000000
C   12.3973000000 -4.3072000000  3.1831000000
C   11.6323000000 -1.5992000000  3.2951000000
C   11.4783000000 -3.8632000000  4.1231000000
C   11.0613000000 -2.4802000000  4.2331000000
C   10.1223000000 -1.9712000000  5.2561000000
C   10.5373000000 -1.3232000000  6.3251000000
C   9.8643000000 -1.0622000000  7.5921000000
C   8.6825000000 -1.0450000000  7.8959000000
C   10.8123000000 -0.2992000000  8.5731000000
C   14.6833000000 -4.8512000000 -0.4449000000
C   15.5183000000 -3.8012000000 -0.0889000000
C   16.6953000000 -3.5982000000 -0.8399000000
C   16.9703000000 -4.4882000000 -1.8899000000
C   16.1523000000 -5.5962000000 -2.2009000000
C   14.9513000000 -5.7522000000 -1.5279000000
C   13.6583000000 -4.8752000000  0.4711000000
C   13.8893000000 -3.7772000000  1.2511000000
H   13.1623000000 -1.2452000000  1.7971000000
H   12.5583000000 -5.3772000000  3.0881000000
H   11.7383000000 -5.5442000000  4.9131000000
H   11.8513000000  0.1658000000  2.5901000000
H   9.4643000000 -1.3292000000  4.6731000000
H   11.4933000000 -0.8182000000  6.2071000000
H   7.9073000000 -0.9712000000  7.1161000000
H   8.2313000000 -0.9072000000  8.8131000000
H   11.1183000000  0.6778000000  8.1811000000
H   11.7213000000 -0.7962000000  8.9311000000
H   10.3263000000 -0.0742000000  9.5301000000
H   17.3553000000 -2.7642000000 -0.6209000000
H   16.3753000000 -6.3042000000 -2.9929000000
H   14.4873000000 -6.7332000000 -1.5779000000
H   12.8783000000 -5.6272000000  0.4831000000
H   18.2613000000 -4.9422000000 -3.2189000000
C   10.1306649987 -4.3070534710  10.4728204843
O   12.4616649987 -4.6590534710  10.9608204843
C   11.4886649987 -4.2370534710  10.1148204843
O   7.9076649987 -3.7910534710  10.0008204843
C   11.9466649987 -3.5650534710  8.9348204843
O   6.6596649987 -1.8350534710  5.8008204843
C   10.9676649987 -3.0860534710  8.0778204843
O   4.9566649987 -3.0710534710  4.2338204843
C   9.5806649987 -3.1960534710  8.3448204843
O   6.8706649987 -5.3510534710  0.4138204843
C   9.1846649987 -3.7740534710  9.5638204843
C   8.4084649987 -2.7902534710  7.5511204843
C   8.7476649987 -2.7560534710  6.1938204843
C   7.5226649987 -2.5710534710  5.4158204843
C   7.3566649987 -3.3520534710  4.1068204843
C   8.4806649987 -3.8810534710  3.4148204843
C   6.0486649987 -3.4950534710  3.5368204843
C   8.3066649987 -4.6410534710  2.2458204843
C   5.8846649987 -4.2520534710  2.3438204843
C   7.0446649987 -4.6790534710  1.6578204843
C   4.4886649987 -4.5810534710  1.9268204843
C   4.1036649987 -6.0270534710  1.6378204843
C   4.2816649987 -7.1260534710  2.4428204843
C   3.8136649987 -8.5030534710  1.9918204843
C   4.9866649987 -7.0330534710  3.8138204843
H   9.7656649987 -4.5670534710  11.4618204843
H   13.0196649987 -3.4270534710  8.8398204843
H   11.2776649987 -2.6410534710  7.1368204843
H   11.9986649987 -5.0970534710  11.6958204843
H   7.8536649987 -4.3770534710  10.7758204843
H   7.5166649987 -2.7410534710  7.9318204843
H   9.0136649987 -3.7920534710  6.0178204843
H   9.4656649987 -3.8380534710  3.8688204843
H   9.1326649987 -4.9600534710  1.6168204843
H   5.3596649987 -2.6640534710  5.0208204843
H   5.9296649987 -5.5310534710  0.2468204843
H   3.6236649987 -4.2050534710  2.4868204843
H   4.3696649987 -4.0930534710  0.9518204843
H   3.4706649987 -6.2070534710  0.7718204843
H   3.3116649987 -9.0540534710  2.7968204843
H   4.7446649987 -9.0240534710  1.7378204843
H   3.0316649987 -8.4650534710  1.2228204843
H   5.9676649987 -7.5050534710  3.9488204843
H   4.3396649987 -7.5000534710  4.5668204843
H   4.9876649987 -6.0130534710  4.2178204843
84
Scanning combination 194/256: [1.9000, 1.7000]  Energy = -385.7825082537
O   11.1233000000 -4.8002000000  5.0341000000
O   11.3873000000 -0.2652000000  3.3291000000
O   18.1143000000 -4.2382000000 -2.5629000000
O   15.0523000000 -3.1142000000  0.9841000000
C   13.0053000000 -3.3232000000  2.3291000000
C   12.6993000000 -1.9792000000  2.4491000000
C   12.3973000000 -4.3072000000  3.1831000000
C   11.6323000000 -1.5992000000  3.2951000000
C   11.4783000000 -3.8632000000  4.1231000000
C   11.0613000000 -2.4802000000  4.2331000000
C   10.1223000000 -1.9712000000  5.2561000000
C   10.5373000000 -1.3232000000  6.3251000000
C   9.8643000000 -1.0622000000  7.5921000000
C   8.6825000000 -1.0450000000  7.8959000000
C   10.8123000000 -0.2992000000  8.5731000000
C   14.6833000000 -4.8512000000 -0.4449000000
C   15.5183000000 -3.8012000000 -0.0889000000
C   16.6953000000 -3.5982000000 -0.8399000000
C   16.9703000000 -4.4882000000 -1.8899000000
C   16.1523000000 -5.5962000000 -2.2009000000
C   14.9513000000 -5.7522000000 -1.5279000000
C   13.6583000000 -4.8752000000  0.4711000000
C   13.8893000000 -3.7772000000  1.2511000000
H   13.1623000000 -1.2452000000  1.7971000000
H   12.5583000000 -5.3772000000  3.0881000000
H   11.7383000000 -5.5442000000  4.9131000000
H   11.8513000000  0.1658000000  2.5901000000
H   9.4643000000 -1.3292000000  4.6731000000
H   11.4933000000 -0.8182000000  6.2071000000
H   7.9073000000 -0.9712000000  7.1161000000
H   8.2313000000 -0.9072000000  8.8131000000
H   11.1183000000  0.6778000000  8.1811000000
H   11.7213000000 -0.7962000000  8.9311000000
H   10.3263000000 -0.0742000000  9.5301000000
H   17.3553000000 -2.7642000000 -0.6209000000
H   16.3753000000 -6.3042000000 -2.9929000000
H   14.4873000000 -6.7332000000 -1.5779000000
H   12.8783000000 -5.6272000000  0.4831000000
H   18.2613000000 -4.9422000000 -3.2189000000
C   10.1077960788 -4.2099178579  10.5252985241
O   12.4387960788 -4.5619178579  11.0132985241
C   11.4657960788 -4.1399178579  10.1672985241
O   7.8847960788 -3.6939178579  10.0532985241
C   11.9237960788 -3.4679178579  8.9872985241
O   6.6367960788 -1.7379178579  5.8532985241
C   10.9447960788 -2.9889178579  8.1302985241
O   4.9337960788 -2.9739178579  4.2862985241
C   9.5577960788 -3.0989178579  8.3972985241
O   6.8477960788 -5.2539178579  0.4662985241
C   9.1617960788 -3.6769178579  9.6162985241
C   8.3855960788 -2.6931178579  7.6035985241
C   8.7247960788 -2.6589178579  6.2462985241
C   7.4997960788 -2.4739178579  5.4682985241
C   7.3337960788 -3.2549178579  4.1592985241
C   8.4577960788 -3.7839178579  3.4672985241
C   6.0257960788 -3.3979178579  3.5892985241
C   8.2837960788 -4.5439178579  2.2982985241
C   5.8617960788 -4.1549178579  2.3962985241
C   7.0217960788 -4.5819178579  1.7102985241
C   4.4657960788 -4.4839178579  1.9792985241
C   4.0807960788 -5.9299178579  1.6902985241
C   4.2587960788 -7.0289178579  2.4952985241
C   3.7907960788 -8.4059178579  2.0442985241
C   4.9637960788 -6.9359178579  3.8662985241
H   9.7427960788 -4.4699178579  11.5142985241
H   12.9967960788 -3.3299178579  8.8922985241
H   11.2547960788 -2.5439178579  7.1892985241
H   11.9757960788 -4.9999178579  11.7482985241
H   7.8307960788 -4.2799178579  10.8282985241
H   7.4937960788 -2.6439178579  7.9842985241
H   8.9907960788 -3.6949178579  6.0702985241
H   9.4427960788 -3.7409178579  3.9212985241
H   9.1097960788 -4.8629178579  1.6692985241
H   5.3367960788 -2.5669178579  5.0732985241
H   5.9067960788 -5.4339178579  0.2992985241
H   3.6007960788 -4.1079178579  2.5392985241
H   4.3467960788 -3.9959178579  1.0042985241
H   3.4477960788 -6.1099178579  0.8242985241
H   3.2887960788 -8.9569178579  2.8492985241
H   4.7217960788 -8.9269178579  1.7902985241
H   3.0087960788 -8.3679178579  1.2752985241
H   5.9447960788 -7.4079178579  4.0012985241
H   4.3167960788 -7.4029178579  4.6192985241
H   4.9647960788 -5.9159178579  4.2702985241
84
Scanning combination 195/256: [1.9000, 1.6000]  Energy = -385.7299772497
O   11.1233000000 -4.8002000000  5.0341000000
O   11.3873000000 -0.2652000000  3.3291000000
O   18.1143000000 -4.2382000000 -2.5629000000
O   15.0523000000 -3.1142000000  0.9841000000
C   13.0053000000 -3.3232000000  2.3291000000
C   12.6993000000 -1.9792000000  2.4491000000
C   12.3973000000 -4.3072000000  3.1831000000
C   11.6323000000 -1.5992000000  3.2951000000
C   11.4783000000 -3.8632000000  4.1231000000
C   11.0613000000 -2.4802000000  4.2331000000
C   10.1223000000 -1.9712000000  5.2561000000
C   10.5373000000 -1.3232000000  6.3251000000
C   9.8643000000 -1.0622000000  7.5921000000
C   8.6825000000 -1.0450000000  7.8959000000
C   10.8123000000 -0.2992000000  8.5731000000
C   14.6833000000 -4.8512000000 -0.4449000000
C   15.5183000000 -3.8012000000 -0.0889000000
C   16.6953000000 -3.5982000000 -0.8399000000
C   16.9703000000 -4.4882000000 -1.8899000000
C   16.1523000000 -5.5962000000 -2.2009000000
C   14.9513000000 -5.7522000000 -1.5279000000
C   13.6583000000 -4.8752000000  0.4711000000
C   13.8893000000 -3.7772000000  1.2511000000
H   13.1623000000 -1.2452000000  1.7971000000
H   12.5583000000 -5.3772000000  3.0881000000
H   11.7383000000 -5.5442000000  4.9131000000
H   11.8513000000  0.1658000000  2.5901000000
H   9.4643000000 -1.3292000000  4.6731000000
H   11.4933000000 -0.8182000000  6.2071000000
H   7.9073000000 -0.9712000000  7.1161000000
H   8.2313000000 -0.9072000000  8.8131000000
H   11.1183000000  0.6778000000  8.1811000000
H   11.7213000000 -0.7962000000  8.9311000000
H   10.3263000000 -0.0742000000  9.5301000000
H   17.3553000000 -2.7642000000 -0.6209000000
H   16.3753000000 -6.3042000000 -2.9929000000
H   14.4873000000 -6.7332000000 -1.5779000000
H   12.8783000000 -5.6272000000  0.4831000000
H   18.2613000000 -4.9422000000 -3.2189000000
C   10.0906712116 -4.1114910571  10.5731927518
O   12.4216712116 -4.4634910571  11.0611927518
C   11.4486712116 -4.0414910571  10.2151927518
O   7.8676712116 -3.5954910571  10.1011927518
C   11.9066712116 -3.3694910571  9.0351927518
O   6.6196712116 -1.6394910571  5.9011927518
C   10.9276712116 -2.8904910571  8.1781927518
O   4.9166712116 -2.8754910571  4.3341927518
C   9.5406712116 -3.0004910571  8.4451927518
O   6.8306712116 -5.1554910571  0.5141927518
C   9.1446712116 -3.5784910571  9.6641927518
C   8.3684712116 -2.5946910571  7.6514927518
C   8.7076712116 -2.5604910571  6.2941927518
C   7.4826712116 -2.3754910571  5.5161927518
C   7.3166712116 -3.1564910571  4.2071927518
C   8.4406712116 -3.6854910571  3.5151927518
C   6.0086712116 -3.2994910571  3.6371927518
C   8.2666712116 -4.4454910571  2.3461927518
C   5.8446712116 -4.0564910571  2.4441927518
C   7.0046712116 -4.4834910571  1.7581927518
C   4.4486712116 -4.3854910571  2.0271927518
C   4.0636712116 -5.8314910571  1.7381927518
C   4.2416712116 -6.9304910571  2.5431927518
C   3.7736712116 -8.3074910571  2.0921927518
C   4.9466712116 -6.8374910571  3.9141927518
H   9.7256712116 -4.3714910571  11.5621927518
H   12.9796712116 -3.2314910571  8.9401927518
H   11.2376712116 -2.4454910571  7.2371927518
H   11.9586712116 -4.9014910571  11.7961927518
H   7.8136712116 -4.1814910571  10.8761927518
H   7.4766712116 -2.5454910571  8.0321927518
H   8.9736712116 -3.5964910571  6.1181927518
H   9.4256712116 -3.6424910571  3.9691927518
H   9.0926712116 -4.7644910571  1.7171927518
H   5.3196712116 -2.4684910571  5.1211927518
H   5.8896712116 -5.3354910571  0.3471927518
H   3.5836712116 -4.0094910571  2.5871927518
H   4.3296712116 -3.8974910571  1.0521927518
H   3.4306712116 -6.0114910571  0.8721927518
H   3.2716712116 -8.8584910571  2.8971927518
H   4.7046712116 -8.8284910571  1.8381927518
H   2.9916712116 -8.2694910571  1.3231927518
H   5.9276712116 -7.3094910571  4.0491927518
H   4.2996712116 -7.3044910571  4.6671927518
H   4.9476712116 -5.8174910571  4.3181927518
84
Scanning combination 196/256: [1.9000, 1.5000]  Energy = -385.6603728529
O   11.1233000000 -4.8002000000  5.0341000000
O   11.3873000000 -0.2652000000  3.3291000000
O   18.1143000000 -4.2382000000 -2.5629000000
O   15.0523000000 -3.1142000000  0.9841000000
C   13.0053000000 -3.3232000000  2.3291000000
C   12.6993000000 -1.9792000000  2.4491000000
C   12.3973000000 -4.3072000000  3.1831000000
C   11.6323000000 -1.5992000000  3.2951000000
C   11.4783000000 -3.8632000000  4.1231000000
C   11.0613000000 -2.4802000000  4.2331000000
C   10.1223000000 -1.9712000000  5.2561000000
C   10.5373000000 -1.3232000000  6.3251000000
C   9.8643000000 -1.0622000000  7.5921000000
C   8.6825000000 -1.0450000000  7.8959000000
C   10.8123000000 -0.2992000000  8.5731000000
C   14.6833000000 -4.8512000000 -0.4449000000
C   15.5183000000 -3.8012000000 -0.0889000000
C   16.6953000000 -3.5982000000 -0.8399000000
C   16.9703000000 -4.4882000000 -1.8899000000
C   16.1523000000 -5.5962000000 -2.2009000000
C   14.9513000000 -5.7522000000 -1.5279000000
C   13.6583000000 -4.8752000000  0.4711000000
C   13.8893000000 -3.7772000000  1.2511000000
H   13.1623000000 -1.2452000000  1.7971000000
H   12.5583000000 -5.3772000000  3.0881000000
H   11.7383000000 -5.5442000000  4.9131000000
H   11.8513000000  0.1658000000  2.5901000000
H   9.4643000000 -1.3292000000  4.6731000000
H   11.4933000000 -0.8182000000  6.2071000000
H   7.9073000000 -0.9712000000  7.1161000000
H   8.2313000000 -0.9072000000  8.8131000000
H   11.1183000000  0.6778000000  8.1811000000
H   11.7213000000 -0.7962000000  8.9311000000
H   10.3263000000 -0.0742000000  9.5301000000
H   17.3553000000 -2.7642000000 -0.6209000000
H   16.3753000000 -6.3042000000 -2.9929000000
H   14.4873000000 -6.7332000000 -1.5779000000
H   12.8783000000 -5.6272000000  0.4831000000
H   18.2613000000 -4.9422000000 -3.2189000000
C   10.0789894112 -4.0121205635  10.6166497052
O   12.4099894112 -4.3641205635  11.1046497052
C   11.4369894112 -3.9421205635  10.2586497052
O   7.8559894112 -3.4961205635  10.1446497052
C   11.8949894112 -3.2701205635  9.0786497052
O   6.6079894112 -1.5401205635  5.9446497052
C   10.9159894112 -2.7911205635  8.2216497052
O   4.9049894112 -2.7761205635  4.3776497052
C   9.5289894112 -2.9011205635  8.4886497052
O   6.8189894112 -5.0561205635  0.5576497052
C   9.1329894112 -3.4791205635  9.7076497052
C   8.3567894112 -2.4953205635  7.6949497052
C   8.6959894112 -2.4611205635  6.3376497052
C   7.4709894112 -2.2761205635  5.5596497052
C   7.3049894112 -3.0571205635  4.2506497052
C   8.4289894112 -3.5861205635  3.5586497052
C   5.9969894112 -3.2001205635  3.6806497052
C   8.2549894112 -4.3461205635  2.3896497052
C   5.8329894112 -3.9571205635  2.4876497052
C   6.9929894112 -4.3841205635  1.8016497052
C   4.4369894112 -4.2861205635  2.0706497052
C   4.0519894112 -5.7321205635  1.7816497052
C   4.2299894112 -6.8311205635  2.5866497052
C   3.7619894112 -8.2081205635  2.1356497052
C   4.9349894112 -6.7381205635  3.9576497052
H   9.7139894112 -4.2721205635  11.6056497052
H   12.9679894112 -3.1321205635  8.9836497052
H   11.2259894112 -2.3461205635  7.2806497052
H   11.9469894112 -4.8021205635  11.8396497052
H   7.8019894112 -4.0821205635  10.9196497052
H   7.4649894112 -2.4461205635  8.0756497052
H   8.9619894112 -3.4971205635  6.1616497052
H   9.4139894112 -3.5431205635  4.0126497052
H   9.0809894112 -4.6651205635  1.7606497052
H   5.3079894112 -2.3691205635  5.1646497052
H   5.8779894112 -5.2361205635  0.3906497052
H   3.5719894112 -3.9101205635  2.6306497052
H   4.3179894112 -3.7981205635  1.0956497052
H   3.4189894112 -5.9121205635  0.9156497052
H   3.2599894112 -8.7591205635  2.9406497052
H   4.6929894112 -8.7291205635  1.8816497052
H   2.9799894112 -8.1701205635  1.3666497052
H   5.9159894112 -7.2101205635  4.0926497052
H   4.2879894112 -7.2051205635  4.7106497052
H   4.9359894112 -5.7181205635  4.3616497052
84
Scanning combination 197/256: [1.8000, 2.9000]  Energy = -385.8683143850
O   11.1233000000 -4.8002000000  5.0341000000
O   11.3873000000 -0.2652000000  3.3291000000
O   18.1143000000 -4.2382000000 -2.5629000000
O   15.0523000000 -3.1142000000  0.9841000000
C   13.0053000000 -3.3232000000  2.3291000000
C   12.6993000000 -1.9792000000  2.4491000000
C   12.3973000000 -4.3072000000  3.1831000000
C   11.6323000000 -1.5992000000  3.2951000000
C   11.4783000000 -3.8632000000  4.1231000000
C   11.0613000000 -2.4802000000  4.2331000000
C   10.1223000000 -1.9712000000  5.2561000000
C   10.5373000000 -1.3232000000  6.3251000000
C   9.8643000000 -1.0622000000  7.5921000000
C   8.6825000000 -1.0450000000  7.8959000000
C   10.8123000000 -0.2992000000  8.5731000000
C   14.6833000000 -4.8512000000 -0.4449000000
C   15.5183000000 -3.8012000000 -0.0889000000
C   16.6953000000 -3.5982000000 -0.8399000000
C   16.9703000000 -4.4882000000 -1.8899000000
C   16.1523000000 -5.5962000000 -2.2009000000
C   14.9513000000 -5.7522000000 -1.5279000000
C   13.6583000000 -4.8752000000  0.4711000000
C   13.8893000000 -3.7772000000  1.2511000000
H   13.1623000000 -1.2452000000  1.7971000000
H   12.5583000000 -5.3772000000  3.0881000000
H   11.7383000000 -5.5442000000  4.9131000000
H   11.8513000000  0.1658000000  2.5901000000
H   9.4643000000 -1.3292000000  4.6731000000
H   11.4933000000 -0.8182000000  6.2071000000
H   7.9073000000 -0.9712000000  7.1161000000
H   8.2313000000 -0.9072000000  8.8131000000
H   11.1183000000  0.6778000000  8.1811000000
H   11.7213000000 -0.7962000000  8.9311000000
H   10.3263000000 -0.0742000000  9.5301000000
H   17.3553000000 -2.7642000000 -0.6209000000
H   16.3753000000 -6.3042000000 -2.9929000000
H   14.4873000000 -6.7332000000 -1.5779000000
H   12.8783000000 -5.6272000000  0.4831000000
H   18.2613000000 -4.9422000000 -3.2189000000
C   10.7887304286 -5.1699675412  9.6093840478
O   13.1197304286 -5.5219675412  10.0973840478
C   12.1467304286 -5.0999675412  9.2513840478
O   8.5657304286 -4.6539675412  9.1373840478
C   12.6047304286 -4.4279675412  8.0713840478
O   7.3177304286 -2.6979675412  4.9373840478
C   11.6257304286 -3.9489675412  7.2143840478
O   5.6147304286 -3.9339675412  3.3703840478
C   10.2387304286 -4.0589675412  7.4813840478
O   7.5287304286 -6.2139675412 -0.4496159522
C   9.8427304286 -4.6369675412  8.7003840478
C   9.0665304286 -3.6531675412  6.6876840478
C   9.4057304286 -3.6189675412  5.3303840478
C   8.1807304286 -3.4339675412  4.5523840478
C   8.0147304286 -4.2149675412  3.2433840478
C   9.1387304286 -4.7439675412  2.5513840478
C   6.7067304286 -4.3579675412  2.6733840478
C   8.9647304286 -5.5039675412  1.3823840478
C   6.5427304286 -5.1149675412  1.4803840478
C   7.7027304286 -5.5419675412  0.7943840478
C   5.1467304286 -5.4439675412  1.0633840478
C   4.7617304286 -6.8899675412  0.7743840478
C   4.9397304286 -7.9889675412  1.5793840478
C   4.4717304286 -9.3659675412  1.1283840478
C   5.6447304286 -7.8959675412  2.9503840478
H   10.4237304286 -5.4299675412  10.5983840478
H   13.6777304286 -4.2899675412  7.9763840478
H   11.9357304286 -3.5039675412  6.2733840478
H   12.6567304286 -5.9599675412  10.8323840478
H   8.5117304286 -5.2399675412  9.9123840478
H   8.1747304286 -3.6039675412  7.0683840478
H   9.6717304286 -4.6549675412  5.1543840478
H   10.1237304286 -4.7009675412  3.0053840478
H   9.7907304286 -5.8229675412  0.7533840478
H   6.0177304286 -3.5269675412  4.1573840478
H   6.5877304286 -6.3939675412 -0.6166159522
H   4.2817304286 -5.0679675412  1.6233840478
H   5.0277304286 -4.9559675412  0.0883840478
H   4.1287304286 -7.0699675412 -0.0916159522
H   3.9697304286 -9.9169675412  1.9333840478
H   5.4027304286 -9.8869675412  0.8743840478
H   3.6897304286 -9.3279675412  0.3593840478
H   6.6257304286 -8.3679675412  3.0853840478
H   4.9977304286 -8.3629675412  3.7033840478
H   5.6457304286 -6.8759675412  3.3543840478
84
Scanning combination 198/256: [1.8000, 2.8000]  Energy = -385.8803683516
O   11.1233000000 -4.8002000000  5.0341000000
O   11.3873000000 -0.2652000000  3.3291000000
O   18.1143000000 -4.2382000000 -2.5629000000
O   15.0523000000 -3.1142000000  0.9841000000
C   13.0053000000 -3.3232000000  2.3291000000
C   12.6993000000 -1.9792000000  2.4491000000
C   12.3973000000 -4.3072000000  3.1831000000
C   11.6323000000 -1.5992000000  3.2951000000
C   11.4783000000 -3.8632000000  4.1231000000
C   11.0613000000 -2.4802000000  4.2331000000
C   10.1223000000 -1.9712000000  5.2561000000
C   10.5373000000 -1.3232000000  6.3251000000
C   9.8643000000 -1.0622000000  7.5921000000
C   8.6825000000 -1.0450000000  7.8959000000
C   10.8123000000 -0.2992000000  8.5731000000
C   14.6833000000 -4.8512000000 -0.4449000000
C   15.5183000000 -3.8012000000 -0.0889000000
C   16.6953000000 -3.5982000000 -0.8399000000
C   16.9703000000 -4.4882000000 -1.8899000000
C   16.1523000000 -5.5962000000 -2.2009000000
C   14.9513000000 -5.7522000000 -1.5279000000
C   13.6583000000 -4.8752000000  0.4711000000
C   13.8893000000 -3.7772000000  1.2511000000
H   13.1623000000 -1.2452000000  1.7971000000
H   12.5583000000 -5.3772000000  3.0881000000
H   11.7383000000 -5.5442000000  4.9131000000
H   11.8513000000  0.1658000000  2.5901000000
H   9.4643000000 -1.3292000000  4.6731000000
H   11.4933000000 -0.8182000000  6.2071000000
H   7.9073000000 -0.9712000000  7.1161000000
H   8.2313000000 -0.9072000000  8.8131000000
H   11.1183000000  0.6778000000  8.1811000000
H   11.7213000000 -0.7962000000  8.9311000000
H   10.3263000000 -0.0742000000  9.5301000000
H   17.3553000000 -2.7642000000 -0.6209000000
H   16.3753000000 -6.3042000000 -2.9929000000
H   14.4873000000 -6.7332000000 -1.5779000000
H   12.8783000000 -5.6272000000  0.4831000000
H   18.2613000000 -4.9422000000 -3.2189000000
C   10.7746827737 -5.0804140688  9.6516215309
O   13.1056827737 -5.4324140688  10.1396215309
C   12.1326827737 -5.0104140688  9.2936215309
O   8.5516827737 -4.5644140688  9.1796215309
C   12.5906827737 -4.3384140688  8.1136215309
O   7.3036827737 -2.6084140688  4.9796215309
C   11.6116827737 -3.8594140688  7.2566215309
O   5.6006827737 -3.8444140688  3.4126215309
C   10.2246827737 -3.9694140688  7.5236215309
O   7.5146827737 -6.1244140688 -0.4073784691
C   9.8286827737 -4.5474140688  8.7426215309
C   9.0524827737 -3.5636140688  6.7299215309
C   9.3916827737 -3.5294140688  5.3726215309
C   8.1666827737 -3.3444140688  4.5946215309
C   8.0006827737 -4.1254140688  3.2856215309
C   9.1246827737 -4.6544140688  2.5936215309
C   6.6926827737 -4.2684140688  2.7156215309
C   8.9506827737 -5.4144140688  1.4246215309
C   6.5286827737 -5.0254140688  1.5226215309
C   7.6886827737 -5.4524140688  0.8366215309
C   5.1326827737 -5.3544140688  1.1056215309
C   4.7476827737 -6.8004140688  0.8166215309
C   4.9256827737 -7.8994140688  1.6216215309
C   4.4576827737 -9.2764140688  1.1706215309
C   5.6306827737 -7.8064140688  2.9926215309
H   10.4096827737 -5.3404140688  10.6406215309
H   13.6636827737 -4.2004140688  8.0186215309
H   11.9216827737 -3.4144140688  6.3156215309
H   12.6426827737 -5.8704140688  10.8746215309
H   8.4976827737 -5.1504140688  9.9546215309
H   8.1606827737 -3.5144140688  7.1106215309
H   9.6576827737 -4.5654140688  5.1966215309
H   10.1096827737 -4.6114140688  3.0476215309
H   9.7766827737 -5.7334140688  0.7956215309
H   6.0036827737 -3.4374140688  4.1996215309
H   6.5736827737 -6.3044140688 -0.5743784691
H   4.2676827737 -4.9784140688  1.6656215309
H   5.0136827737 -4.8664140688  0.1306215309
H   4.1146827737 -6.9804140688 -0.0493784691
H   3.9556827737 -9.8274140688  1.9756215309
H   5.3886827737 -9.7974140688  0.9166215309
H   3.6756827737 -9.2384140688  0.4016215309
H   6.6116827737 -8.2784140688  3.1276215309
H   4.9836827737 -8.2734140688  3.7456215309
H   5.6316827737 -6.7864140688  3.3966215309
84
Scanning combination 199/256: [1.8000, 2.7000]  Energy = -385.8997169729
O   11.1233000000 -4.8002000000  5.0341000000
O   11.3873000000 -0.2652000000  3.3291000000
O   18.1143000000 -4.2382000000 -2.5629000000
O   15.0523000000 -3.1142000000  0.9841000000
C   13.0053000000 -3.3232000000  2.3291000000
C   12.6993000000 -1.9792000000  2.4491000000
C   12.3973000000 -4.3072000000  3.1831000000
C   11.6323000000 -1.5992000000  3.2951000000
C   11.4783000000 -3.8632000000  4.1231000000
C   11.0613000000 -2.4802000000  4.2331000000
C   10.1223000000 -1.9712000000  5.2561000000
C   10.5373000000 -1.3232000000  6.3251000000
C   9.8643000000 -1.0622000000  7.5921000000
C   8.6825000000 -1.0450000000  7.8959000000
C   10.8123000000 -0.2992000000  8.5731000000
C   14.6833000000 -4.8512000000 -0.4449000000
C   15.5183000000 -3.8012000000 -0.0889000000
C   16.6953000000 -3.5982000000 -0.8399000000
C   16.9703000000 -4.4882000000 -1.8899000000
C   16.1523000000 -5.5962000000 -2.2009000000
C   14.9513000000 -5.7522000000 -1.5279000000
C   13.6583000000 -4.8752000000  0.4711000000
C   13.8893000000 -3.7772000000  1.2511000000
H   13.1623000000 -1.2452000000  1.7971000000
H   12.5583000000 -5.3772000000  3.0881000000
H   11.7383000000 -5.5442000000  4.9131000000
H   11.8513000000  0.1658000000  2.5901000000
H   9.4643000000 -1.3292000000  4.6731000000
H   11.4933000000 -0.8182000000  6.2071000000
H   7.9073000000 -0.9712000000  7.1161000000
H   8.2313000000 -0.9072000000  8.8131000000
H   11.1183000000  0.6778000000  8.1811000000
H   11.7213000000 -0.7962000000  8.9311000000
H   10.3263000000 -0.0742000000  9.5301000000
H   17.3553000000 -2.7642000000 -0.6209000000
H   16.3753000000 -6.3042000000 -2.9929000000
H   14.4873000000 -6.7332000000 -1.5779000000
H   12.8783000000 -5.6272000000  0.4831000000
H   18.2613000000 -4.9422000000 -3.2189000000
C   10.7244919949 -5.0076867013  9.7197894583
O   13.0554919949 -5.3596867013  10.2077894583
C   12.0824919949 -4.9376867013  9.3617894583
O   8.5014919949 -4.4916867013  9.2477894583
C   12.5404919949 -4.2656867013  8.1817894583
O   7.2534919949 -2.5356867013  5.0477894583
C   11.5614919949 -3.7866867013  7.3247894583
O   5.5504919949 -3.7716867013  3.4807894583
C   10.1744919949 -3.8966867013  7.5917894583
O   7.4644919949 -6.0516867013 -0.3392105417
C   9.7784919949 -4.4746867013  8.8107894583
C   9.0022919949 -3.4908867013  6.7980894583
C   9.3414919949 -3.4566867013  5.4407894583
C   8.1164919949 -3.2716867013  4.6627894583
C   7.9504919949 -4.0526867013  3.3537894583
C   9.0744919949 -4.5816867013  2.6617894583
C   6.6424919949 -4.1956867013  2.7837894583
C   8.9004919949 -5.3416867013  1.4927894583
C   6.4784919949 -4.9526867013  1.5907894583
C   7.6384919949 -5.3796867013  0.9047894583
C   5.0824919949 -5.2816867013  1.1737894583
C   4.6974919949 -6.7276867013  0.8847894583
C   4.8754919949 -7.8266867013  1.6897894583
C   4.4074919949 -9.2036867013  1.2387894583
C   5.5804919949 -7.7336867013  3.0607894583
H   10.3594919949 -5.2676867013  10.7087894583
H   13.6134919949 -4.1276867013  8.0867894583
H   11.8714919949 -3.3416867013  6.3837894583
H   12.5924919949 -5.7976867013  10.9427894583
H   8.4474919949 -5.0776867013  10.0227894583
H   8.1104919949 -3.4416867013  7.1787894583
H   9.6074919949 -4.4926867013  5.2647894583
H   10.0594919949 -4.5386867013  3.1157894583
H   9.7264919949 -5.6606867013  0.8637894583
H   5.9534919949 -3.3646867013  4.2677894583
H   6.5234919949 -6.2316867013 -0.5062105417
H   4.2174919949 -4.9056867013  1.7337894583
H   4.9634919949 -4.7936867013  0.1987894583
H   4.0644919949 -6.9076867013  0.0187894583
H   3.9054919949 -9.7546867013  2.0437894583
H   5.3384919949 -9.7246867013  0.9847894583
H   3.6254919949 -9.1656867013  0.4697894583
H   6.5614919949 -8.2056867013  3.1957894583
H   4.9334919949 -8.2006867013  3.8137894583
H   5.5814919949 -6.7136867013  3.4647894583
84
Scanning combination 200/256: [1.8000, 2.6000]  Energy = -385.9171880480
O   11.1233000000 -4.8002000000  5.0341000000
O   11.3873000000 -0.2652000000  3.3291000000
O   18.1143000000 -4.2382000000 -2.5629000000
O   15.0523000000 -3.1142000000  0.9841000000
C   13.0053000000 -3.3232000000  2.3291000000
C   12.6993000000 -1.9792000000  2.4491000000
C   12.3973000000 -4.3072000000  3.1831000000
C   11.6323000000 -1.5992000000  3.2951000000
C   11.4783000000 -3.8632000000  4.1231000000
C   11.0613000000 -2.4802000000  4.2331000000
C   10.1223000000 -1.9712000000  5.2561000000
C   10.5373000000 -1.3232000000  6.3251000000
C   9.8643000000 -1.0622000000  7.5921000000
C   8.6825000000 -1.0450000000  7.8959000000
C   10.8123000000 -0.2992000000  8.5731000000
C   14.6833000000 -4.8512000000 -0.4449000000
C   15.5183000000 -3.8012000000 -0.0889000000
C   16.6953000000 -3.5982000000 -0.8399000000
C   16.9703000000 -4.4882000000 -1.8899000000
C   16.1523000000 -5.5962000000 -2.2009000000
C   14.9513000000 -5.7522000000 -1.5279000000
C   13.6583000000 -4.8752000000  0.4711000000
C   13.8893000000 -3.7772000000  1.2511000000
H   13.1623000000 -1.2452000000  1.7971000000
H   12.5583000000 -5.3772000000  3.0881000000
H   11.7383000000 -5.5442000000  4.9131000000
H   11.8513000000  0.1658000000  2.5901000000
H   9.4643000000 -1.3292000000  4.6731000000
H   11.4933000000 -0.8182000000  6.2071000000
H   7.9073000000 -0.9712000000  7.1161000000
H   8.2313000000 -0.9072000000  8.8131000000
H   11.1183000000  0.6778000000  8.1811000000
H   11.7213000000 -0.7962000000  8.9311000000
H   10.3263000000 -0.0742000000  9.5301000000
H   17.3553000000 -2.7642000000 -0.6209000000
H   16.3753000000 -6.3042000000 -2.9929000000
H   14.4873000000 -6.7332000000 -1.5779000000
H   12.8783000000 -5.6272000000  0.4831000000
H   18.2613000000 -4.9422000000 -3.2189000000
C   10.6555453020 -4.9420115897  9.8019756235
O   12.9865453020 -5.2940115897  10.2899756235
C   12.0135453020 -4.8720115897  9.4439756235
O   8.4325453020 -4.4260115897  9.3299756235
C   12.4715453020 -4.2000115897  8.2639756235
O   7.1845453020 -2.4700115897  5.1299756235
C   11.4925453020 -3.7210115897  7.4069756235
O   5.4815453020 -3.7060115897  3.5629756235
C   10.1055453020 -3.8310115897  7.6739756235
O   7.3955453020 -5.9860115897 -0.2570243765
C   9.7095453020 -4.4090115897  8.8929756235
C   8.9333453020 -3.4252115897  6.8802756235
C   9.2725453020 -3.3910115897  5.5229756235
C   8.0475453020 -3.2060115897  4.7449756235
C   7.8815453020 -3.9870115897  3.4359756235
C   9.0055453020 -4.5160115897  2.7439756235
C   6.5735453020 -4.1300115897  2.8659756235
C   8.8315453020 -5.2760115897  1.5749756235
C   6.4095453020 -4.8870115897  1.6729756235
C   7.5695453020 -5.3140115897  0.9869756235
C   5.0135453020 -5.2160115897  1.2559756235
C   4.6285453020 -6.6620115897  0.9669756235
C   4.8065453020 -7.7610115897  1.7719756235
C   4.3385453020 -9.1380115897  1.3209756235
C   5.5115453020 -7.6680115897  3.1429756235
H   10.2905453020 -5.2020115897  10.7909756235
H   13.5445453020 -4.0620115897  8.1689756235
H   11.8025453020 -3.2760115897  6.4659756235
H   12.5235453020 -5.7320115897  11.0249756235
H   8.3785453020 -5.0120115897  10.1049756235
H   8.0415453020 -3.3760115897  7.2609756235
H   9.5385453020 -4.4270115897  5.3469756235
H   9.9905453020 -4.4730115897  3.1979756235
H   9.6575453020 -5.5950115897  0.9459756235
H   5.8845453020 -3.2990115897  4.3499756235
H   6.4545453020 -6.1660115897 -0.4240243765
H   4.1485453020 -4.8400115897  1.8159756235
H   4.8945453020 -4.7280115897  0.2809756235
H   3.9955453020 -6.8420115897  0.1009756235
H   3.8365453020 -9.6890115897  2.1259756235
H   5.2695453020 -9.6590115897  1.0669756235
H   3.5565453020 -9.1000115897  0.5519756235
H   6.4925453020 -8.1400115897  3.2779756235
H   4.8645453020 -8.1350115897  3.8959756235
H   5.5125453020 -6.6480115897  3.5469756235
84
Scanning combination 201/256: [1.8000, 2.5000]  Energy = -385.9282456633
O   11.1233000000 -4.8002000000  5.0341000000
O   11.3873000000 -0.2652000000  3.3291000000
O   18.1143000000 -4.2382000000 -2.5629000000
O   15.0523000000 -3.1142000000  0.9841000000
C   13.0053000000 -3.3232000000  2.3291000000
C   12.6993000000 -1.9792000000  2.4491000000
C   12.3973000000 -4.3072000000  3.1831000000
C   11.6323000000 -1.5992000000  3.2951000000
C   11.4783000000 -3.8632000000  4.1231000000
C   11.0613000000 -2.4802000000  4.2331000000
C   10.1223000000 -1.9712000000  5.2561000000
C   10.5373000000 -1.3232000000  6.3251000000
C   9.8643000000 -1.0622000000  7.5921000000
C   8.6825000000 -1.0450000000  7.8959000000
C   10.8123000000 -0.2992000000  8.5731000000
C   14.6833000000 -4.8512000000 -0.4449000000
C   15.5183000000 -3.8012000000 -0.0889000000
C   16.6953000000 -3.5982000000 -0.8399000000
C   16.9703000000 -4.4882000000 -1.8899000000
C   16.1523000000 -5.5962000000 -2.2009000000
C   14.9513000000 -5.7522000000 -1.5279000000
C   13.6583000000 -4.8752000000  0.4711000000
C   13.8893000000 -3.7772000000  1.2511000000
H   13.1623000000 -1.2452000000  1.7971000000
H   12.5583000000 -5.3772000000  3.0881000000
H   11.7383000000 -5.5442000000  4.9131000000
H   11.8513000000  0.1658000000  2.5901000000
H   9.4643000000 -1.3292000000  4.6731000000
H   11.4933000000 -0.8182000000  6.2071000000
H   7.9073000000 -0.9712000000  7.1161000000
H   8.2313000000 -0.9072000000  8.8131000000
H   11.1183000000  0.6778000000  8.1811000000
H   11.7213000000 -0.7962000000  8.9311000000
H   10.3263000000 -0.0742000000  9.5301000000
H   17.3553000000 -2.7642000000 -0.6209000000
H   16.3753000000 -6.3042000000 -2.9929000000
H   14.4873000000 -6.7332000000 -1.5779000000
H   12.8783000000 -5.6272000000  0.4831000000
H   18.2613000000 -4.9422000000 -3.2189000000
C   10.5798001021 -4.8766854261  9.8899817271
O   12.9108001021 -5.2286854261  10.3779817271
C   11.9378001021 -4.8066854261  9.5319817271
O   8.3568001021 -4.3606854261  9.4179817271
C   12.3958001021 -4.1346854261  8.3519817271
O   7.1088001021 -2.4046854261  5.2179817271
C   11.4168001021 -3.6556854261  7.4949817271
O   5.4058001021 -3.6406854261  3.6509817271
C   10.0298001021 -3.7656854261  7.7619817271
O   7.3198001021 -5.9206854261 -0.1690182729
C   9.6338001021 -4.3436854261  8.9809817271
C   8.8576001021 -3.3598854261  6.9682817271
C   9.1968001021 -3.3256854261  5.6109817271
C   7.9718001021 -3.1406854261  4.8329817271
C   7.8058001021 -3.9216854261  3.5239817271
C   8.9298001021 -4.4506854261  2.8319817271
C   6.4978001021 -4.0646854261  2.9539817271
C   8.7558001021 -5.2106854261  1.6629817271
C   6.3338001021 -4.8216854261  1.7609817271
C   7.4938001021 -5.2486854261  1.0749817271
C   4.9378001021 -5.1506854261  1.3439817271
C   4.5528001021 -6.5966854261  1.0549817271
C   4.7308001021 -7.6956854261  1.8599817271
C   4.2628001021 -9.0726854261  1.4089817271
C   5.4358001021 -7.6026854261  3.2309817271
H   10.2148001021 -5.1366854261  10.8789817271
H   13.4688001021 -3.9966854261  8.2569817271
H   11.7268001021 -3.2106854261  6.5539817271
H   12.4478001021 -5.6666854261  11.1129817271
H   8.3028001021 -4.9466854261  10.1929817271
H   7.9658001021 -3.3106854261  7.3489817271
H   9.4628001021 -4.3616854261  5.4349817271
H   9.9148001021 -4.4076854261  3.2859817271
H   9.5818001021 -5.5296854261  1.0339817271
H   5.8088001021 -3.2336854261  4.4379817271
H   6.3788001021 -6.1006854261 -0.3360182729
H   4.0728001021 -4.7746854261  1.9039817271
H   4.8188001021 -4.6626854261  0.3689817271
H   3.9198001021 -6.7766854261  0.1889817271
H   3.7608001021 -9.6236854261  2.2139817271
H   5.1938001021 -9.5936854261  1.1549817271
H   3.4808001021 -9.0346854261  0.6399817271
H   6.4168001021 -8.0746854261  3.3659817271
H   4.7888001021 -8.0696854261  3.9839817271
H   5.4368001021 -6.5826854261  3.6349817271
84
Scanning combination 202/256: [1.8000, 2.4000]  Energy = -385.9313963648
O   11.1233000000 -4.8002000000  5.0341000000
O   11.3873000000 -0.2652000000  3.3291000000
O   18.1143000000 -4.2382000000 -2.5629000000
O   15.0523000000 -3.1142000000  0.9841000000
C   13.0053000000 -3.3232000000  2.3291000000
C   12.6993000000 -1.9792000000  2.4491000000
C   12.3973000000 -4.3072000000  3.1831000000
C   11.6323000000 -1.5992000000  3.2951000000
C   11.4783000000 -3.8632000000  4.1231000000
C   11.0613000000 -2.4802000000  4.2331000000
C   10.1223000000 -1.9712000000  5.2561000000
C   10.5373000000 -1.3232000000  6.3251000000
C   9.8643000000 -1.0622000000  7.5921000000
C   8.6825000000 -1.0450000000  7.8959000000
C   10.8123000000 -0.2992000000  8.5731000000
C   14.6833000000 -4.8512000000 -0.4449000000
C   15.5183000000 -3.8012000000 -0.0889000000
C   16.6953000000 -3.5982000000 -0.8399000000
C   16.9703000000 -4.4882000000 -1.8899000000
C   16.1523000000 -5.5962000000 -2.2009000000
C   14.9513000000 -5.7522000000 -1.5279000000
C   13.6583000000 -4.8752000000  0.4711000000
C   13.8893000000 -3.7772000000  1.2511000000
H   13.1623000000 -1.2452000000  1.7971000000
H   12.5583000000 -5.3772000000  3.0881000000
H   11.7383000000 -5.5442000000  4.9131000000
H   11.8513000000  0.1658000000  2.5901000000
H   9.4643000000 -1.3292000000  4.6731000000
H   11.4933000000 -0.8182000000  6.2071000000
H   7.9073000000 -0.9712000000  7.1161000000
H   8.2313000000 -0.9072000000  8.8131000000
H   11.1183000000  0.6778000000  8.1811000000
H   11.7213000000 -0.7962000000  8.9311000000
H   10.3263000000 -0.0742000000  9.5301000000
H   17.3553000000 -2.7642000000 -0.6209000000
H   16.3753000000 -6.3042000000 -2.9929000000
H   14.4873000000 -6.7332000000 -1.5779000000
H   12.8783000000 -5.6272000000  0.4831000000
H   18.2613000000 -4.9422000000 -3.2189000000
C   10.5052670231 -4.8078952744  9.9780886396
O   12.8362670231 -5.1598952744  10.4660886396
C   11.8632670231 -4.7378952744  9.6200886396
O   8.2822670231 -4.2918952744  9.5060886396
C   12.3212670231 -4.0658952744  8.4400886396
O   7.0342670231 -2.3358952744  5.3060886396
C   11.3422670231 -3.5868952744  7.5830886396
O   5.3312670231 -3.5718952744  3.7390886396
C   9.9552670231 -3.6968952744  7.8500886396
O   7.2452670231 -5.8518952744 -0.0809113604
C   9.5592670231 -4.2748952744  9.0690886396
C   8.7830670231 -3.2910952744  7.0563886396
C   9.1222670231 -3.2568952744  5.6990886396
C   7.8972670231 -3.0718952744  4.9210886396
C   7.7312670231 -3.8528952744  3.6120886396
C   8.8552670231 -4.3818952744  2.9200886396
C   6.4232670231 -3.9958952744  3.0420886396
C   8.6812670231 -5.1418952744  1.7510886396
C   6.2592670231 -4.7528952744  1.8490886396
C   7.4192670231 -5.1798952744  1.1630886396
C   4.8632670231 -5.0818952744  1.4320886396
C   4.4782670231 -6.5278952744  1.1430886396
C   4.6562670231 -7.6268952744  1.9480886396
C   4.1882670231 -9.0038952744  1.4970886396
C   5.3612670231 -7.5338952744  3.3190886396
H   10.1402670231 -5.0678952744  10.9670886396
H   13.3942670231 -3.9278952744  8.3450886396
H   11.6522670231 -3.1418952744  6.6420886396
H   12.3732670231 -5.5978952744  11.2010886396
H   8.2282670231 -4.8778952744  10.2810886396
H   7.8912670231 -3.2418952744  7.4370886396
H   9.3882670231 -4.2928952744  5.5230886396
H   9.8402670231 -4.3388952744  3.3740886396
H   9.5072670231 -5.4608952744  1.1220886396
H   5.7342670231 -3.1648952744  4.5260886396
H   6.3042670231 -6.0318952744 -0.2479113604
H   3.9982670231 -4.7058952744  1.9920886396
H   4.7442670231 -4.5938952744  0.4570886396
H   3.8452670231 -6.7078952744  0.2770886396
H   3.6862670231 -9.5548952744  2.3020886396
H   5.1192670231 -9.5248952744  1.2430886396
H   3.4062670231 -8.9658952744  0.7280886396
H   6.3422670231 -8.0058952744  3.4540886396
H   4.7142670231 -8.0008952744  4.0720886396
H   5.3622670231 -6.5138952744  3.7230886396
84
Scanning combination 203/256: [1.8000, 2.3000]  Energy = -385.9274121519
O   11.1233000000 -4.8002000000  5.0341000000
O   11.3873000000 -0.2652000000  3.3291000000
O   18.1143000000 -4.2382000000 -2.5629000000
O   15.0523000000 -3.1142000000  0.9841000000
C   13.0053000000 -3.3232000000  2.3291000000
C   12.6993000000 -1.9792000000  2.4491000000
C   12.3973000000 -4.3072000000  3.1831000000
C   11.6323000000 -1.5992000000  3.2951000000
C   11.4783000000 -3.8632000000  4.1231000000
C   11.0613000000 -2.4802000000  4.2331000000
C   10.1223000000 -1.9712000000  5.2561000000
C   10.5373000000 -1.3232000000  6.3251000000
C   9.8643000000 -1.0622000000  7.5921000000
C   8.6825000000 -1.0450000000  7.8959000000
C   10.8123000000 -0.2992000000  8.5731000000
C   14.6833000000 -4.8512000000 -0.4449000000
C   15.5183000000 -3.8012000000 -0.0889000000
C   16.6953000000 -3.5982000000 -0.8399000000
C   16.9703000000 -4.4882000000 -1.8899000000
C   16.1523000000 -5.5962000000 -2.2009000000
C   14.9513000000 -5.7522000000 -1.5279000000
C   13.6583000000 -4.8752000000  0.4711000000
C   13.8893000000 -3.7772000000  1.2511000000
H   13.1623000000 -1.2452000000  1.7971000000
H   12.5583000000 -5.3772000000  3.0881000000
H   11.7383000000 -5.5442000000  4.9131000000
H   11.8513000000  0.1658000000  2.5901000000
H   9.4643000000 -1.3292000000  4.6731000000
H   11.4933000000 -0.8182000000  6.2071000000
H   7.9073000000 -0.9712000000  7.1161000000
H   8.2313000000 -0.9072000000  8.8131000000
H   11.1183000000  0.6778000000  8.1811000000
H   11.7213000000 -0.7962000000  8.9311000000
H   10.3263000000 -0.0742000000  9.5301000000
H   17.3553000000 -2.7642000000 -0.6209000000
H   16.3753000000 -6.3042000000 -2.9929000000
H   14.4873000000 -6.7332000000 -1.5779000000
H   12.8783000000 -5.6272000000  0.4831000000
H   18.2613000000 -4.9422000000 -3.2189000000
C   10.4365514379 -4.7341422060  10.0627764124
O   12.7675514379 -5.0861422060  10.5507764124
C   11.7945514379 -4.6641422060  9.7047764124
O   8.2135514379 -4.2181422060  9.5907764124
C   12.2525514379 -3.9921422060  8.5247764124
O   6.9655514379 -2.2621422060  5.3907764124
C   11.2735514379 -3.5131422060  7.6677764124
O   5.2625514379 -3.4981422060  3.8237764124
C   9.8865514379 -3.6231422060  7.9347764124
O   7.1765514379 -5.7781422060  0.0037764124
C   9.4905514379 -4.2011422060  9.1537764124
C   8.7143514379 -3.2173422060  7.1410764124
C   9.0535514379 -3.1831422060  5.7837764124
C   7.8285514379 -2.9981422060  5.0057764124
C   7.6625514379 -3.7791422060  3.6967764124
C   8.7865514379 -4.3081422060  3.0047764124
C   6.3545514379 -3.9221422060  3.1267764124
C   8.6125514379 -5.0681422060  1.8357764124
C   6.1905514379 -4.6791422060  1.9337764124
C   7.3505514379 -5.1061422060  1.2477764124
C   4.7945514379 -5.0081422060  1.5167764124
C   4.4095514379 -6.4541422060  1.2277764124
C   4.5875514379 -7.5531422060  2.0327764124
C   4.1195514379 -8.9301422060  1.5817764124
C   5.2925514379 -7.4601422060  3.4037764124
H   10.0715514379 -4.9941422060  11.0517764124
H   13.3255514379 -3.8541422060  8.4297764124
H   11.5835514379 -3.0681422060  6.7267764124
H   12.3045514379 -5.5241422060  11.2857764124
H   8.1595514379 -4.8041422060  10.3657764124
H   7.8225514379 -3.1681422060  7.5217764124
H   9.3195514379 -4.2191422060  5.6077764124
H   9.7715514379 -4.2651422060  3.4587764124
H   9.4385514379 -5.3871422060  1.2067764124
H   5.6655514379 -3.0911422060  4.6107764124
H   6.2355514379 -5.9581422060 -0.1632235876
H   3.9295514379 -4.6321422060  2.0767764124
H   4.6755514379 -4.5201422060  0.5417764124
H   3.7765514379 -6.6341422060  0.3617764124
H   3.6175514379 -9.4811422060  2.3867764124
H   5.0505514379 -9.4511422060  1.3277764124
H   3.3375514379 -8.8921422060  0.8127764124
H   6.2735514379 -7.9321422060  3.5387764124
H   4.6455514379 -7.9271422060  4.1567764124
H   5.2935514379 -6.4401422060  3.8077764124
84
Scanning combination 204/256: [1.8000, 2.2000]  Energy = -385.9167629477
O   11.1233000000 -4.8002000000  5.0341000000
O   11.3873000000 -0.2652000000  3.3291000000
O   18.1143000000 -4.2382000000 -2.5629000000
O   15.0523000000 -3.1142000000  0.9841000000
C   13.0053000000 -3.3232000000  2.3291000000
C   12.6993000000 -1.9792000000  2.4491000000
C   12.3973000000 -4.3072000000  3.1831000000
C   11.6323000000 -1.5992000000  3.2951000000
C   11.4783000000 -3.8632000000  4.1231000000
C   11.0613000000 -2.4802000000  4.2331000000
C   10.1223000000 -1.9712000000  5.2561000000
C   10.5373000000 -1.3232000000  6.3251000000
C   9.8643000000 -1.0622000000  7.5921000000
C   8.6825000000 -1.0450000000  7.8959000000
C   10.8123000000 -0.2992000000  8.5731000000
C   14.6833000000 -4.8512000000 -0.4449000000
C   15.5183000000 -3.8012000000 -0.0889000000
C   16.6953000000 -3.5982000000 -0.8399000000
C   16.9703000000 -4.4882000000 -1.8899000000
C   16.1523000000 -5.5962000000 -2.2009000000
C   14.9513000000 -5.7522000000 -1.5279000000
C   13.6583000000 -4.8752000000  0.4711000000
C   13.8893000000 -3.7772000000  1.2511000000
H   13.1623000000 -1.2452000000  1.7971000000
H   12.5583000000 -5.3772000000  3.0881000000
H   11.7383000000 -5.5442000000  4.9131000000
H   11.8513000000  0.1658000000  2.5901000000
H   9.4643000000 -1.3292000000  4.6731000000
H   11.4933000000 -0.8182000000  6.2071000000
H   7.9073000000 -0.9712000000  7.1161000000
H   8.2313000000 -0.9072000000  8.8131000000
H   11.1183000000  0.6778000000  8.1811000000
H   11.7213000000 -0.7962000000  8.9311000000
H   10.3263000000 -0.0742000000  9.5301000000
H   17.3553000000 -2.7642000000 -0.6209000000
H   16.3753000000 -6.3042000000 -2.9929000000
H   14.4873000000 -6.7332000000 -1.5779000000
H   12.8783000000 -5.6272000000  0.4831000000
H   18.2613000000 -4.9422000000 -3.2189000000
C   10.3756387566 -4.6553659704  10.1423314722
O   12.7066387566 -5.0073659704  10.6303314722
C   11.7336387566 -4.5853659704  9.7843314722
O   8.1526387566 -4.1393659704  9.6703314722
C   12.1916387566 -3.9133659704  8.6043314722
O   6.9046387566 -2.1833659704  5.4703314722
C   11.2126387566 -3.4343659704  7.7473314722
O   5.2016387566 -3.4193659704  3.9033314722
C   9.8256387566 -3.5443659704  8.0143314722
O   7.1156387566 -5.6993659704  0.0833314722
C   9.4296387566 -4.1223659704  9.2333314722
C   8.6534387566 -3.1385659704  7.2206314722
C   8.9926387566 -3.1043659704  5.8633314722
C   7.7676387566 -2.9193659704  5.0853314722
C   7.6016387566 -3.7003659704  3.7763314722
C   8.7256387566 -4.2293659704  3.0843314722
C   6.2936387566 -3.8433659704  3.2063314722
C   8.5516387566 -4.9893659704  1.9153314722
C   6.1296387566 -4.6003659704  2.0133314722
C   7.2896387566 -5.0273659704  1.3273314722
C   4.7336387566 -4.9293659704  1.5963314722
C   4.3486387566 -6.3753659704  1.3073314722
C   4.5266387566 -7.4743659704  2.1123314722
C   4.0586387566 -8.8513659704  1.6613314722
C   5.2316387566 -7.3813659704  3.4833314722
H   10.0106387566 -4.9153659704  11.1313314722
H   13.2646387566 -3.7753659704  8.5093314722
H   11.5226387566 -2.9893659704  6.8063314722
H   12.2436387566 -5.4453659704  11.3653314722
H   8.0986387566 -4.7253659704  10.4453314722
H   7.7616387566 -3.0893659704  7.6013314722
H   9.2586387566 -4.1403659704  5.6873314722
H   9.7106387566 -4.1863659704  3.5383314722
H   9.3776387566 -5.3083659704  1.2863314722
H   5.6046387566 -3.0123659704  4.6903314722
H   6.1746387566 -5.8793659704 -0.0836685278
H   3.8686387566 -4.5533659704  2.1563314722
H   4.6146387566 -4.4413659704  0.6213314722
H   3.7156387566 -6.5553659704  0.4413314722
H   3.5566387566 -9.4023659704  2.4663314722
H   4.9896387566 -9.3723659704  1.4073314722
H   3.2766387566 -8.8133659704  0.8923314722
H   6.2126387566 -7.8533659704  3.6183314722
H   4.5846387566 -7.8483659704  4.2363314722
H   5.2326387566 -6.3613659704  3.8873314722
84
Scanning combination 205/256: [1.8000, 2.1000]  Energy = -385.9005719419
O   11.1233000000 -4.8002000000  5.0341000000
O   11.3873000000 -0.2652000000  3.3291000000
O   18.1143000000 -4.2382000000 -2.5629000000
O   15.0523000000 -3.1142000000  0.9841000000
C   13.0053000000 -3.3232000000  2.3291000000
C   12.6993000000 -1.9792000000  2.4491000000
C   12.3973000000 -4.3072000000  3.1831000000
C   11.6323000000 -1.5992000000  3.2951000000
C   11.4783000000 -3.8632000000  4.1231000000
C   11.0613000000 -2.4802000000  4.2331000000
C   10.1223000000 -1.9712000000  5.2561000000
C   10.5373000000 -1.3232000000  6.3251000000
C   9.8643000000 -1.0622000000  7.5921000000
C   8.6825000000 -1.0450000000  7.8959000000
C   10.8123000000 -0.2992000000  8.5731000000
C   14.6833000000 -4.8512000000 -0.4449000000
C   15.5183000000 -3.8012000000 -0.0889000000
C   16.6953000000 -3.5982000000 -0.8399000000
C   16.9703000000 -4.4882000000 -1.8899000000
C   16.1523000000 -5.5962000000 -2.2009000000
C   14.9513000000 -5.7522000000 -1.5279000000
C   13.6583000000 -4.8752000000  0.4711000000
C   13.8893000000 -3.7772000000  1.2511000000
H   13.1623000000 -1.2452000000  1.7971000000
H   12.5583000000 -5.3772000000  3.0881000000
H   11.7383000000 -5.5442000000  4.9131000000
H   11.8513000000  0.1658000000  2.5901000000
H   9.4643000000 -1.3292000000  4.6731000000
H   11.4933000000 -0.8182000000  6.2071000000
H   7.9073000000 -0.9712000000  7.1161000000
H   8.2313000000 -0.9072000000  8.8131000000
H   11.1183000000  0.6778000000  8.1811000000
H   11.7213000000 -0.7962000000  8.9311000000
H   10.3263000000 -0.0742000000  9.5301000000
H   17.3553000000 -2.7642000000 -0.6209000000
H   16.3753000000 -6.3042000000 -2.9929000000
H   14.4873000000 -6.7332000000 -1.5779000000
H   12.8783000000 -5.6272000000  0.4831000000
H   18.2613000000 -4.9422000000 -3.2189000000
C   10.3229090302 -4.5721524097  10.2162258823
O   12.6539090302 -4.9241524097  10.7042258823
C   11.6809090302 -4.5021524097  9.8582258823
O   8.0999090302 -4.0561524097  9.7442258823
C   12.1389090302 -3.8301524097  8.6782258823
O   6.8519090302 -2.1001524097  5.5442258823
C   11.1599090302 -3.3511524097  7.8212258823
O   5.1489090302 -3.3361524097  3.9772258823
C   9.7729090302 -3.4611524097  8.0882258823
O   7.0629090302 -5.6161524097  0.1572258823
C   9.3769090302 -4.0391524097  9.3072258823
C   8.6007090302 -3.0553524097  7.2945258823
C   8.9399090302 -3.0211524097  5.9372258823
C   7.7149090302 -2.8361524097  5.1592258823
C   7.5489090302 -3.6171524097  3.8502258823
C   8.6729090302 -4.1461524097  3.1582258823
C   6.2409090302 -3.7601524097  3.2802258823
C   8.4989090302 -4.9061524097  1.9892258823
C   6.0769090302 -4.5171524097  2.0872258823
C   7.2369090302 -4.9441524097  1.4012258823
C   4.6809090302 -4.8461524097  1.6702258823
C   4.2959090302 -6.2921524097  1.3812258823
C   4.4739090302 -7.3911524097  2.1862258823
C   4.0059090302 -8.7681524097  1.7352258823
C   5.1789090302 -7.2981524097  3.5572258823
H   9.9579090302 -4.8321524097  11.2052258823
H   13.2119090302 -3.6921524097  8.5832258823
H   11.4699090302 -2.9061524097  6.8802258823
H   12.1909090302 -5.3621524097  11.4392258823
H   8.0459090302 -4.6421524097  10.5192258823
H   7.7089090302 -3.0061524097  7.6752258823
H   9.2059090302 -4.0571524097  5.7612258823
H   9.6579090302 -4.1031524097  3.6122258823
H   9.3249090302 -5.2251524097  1.3602258823
H   5.5519090302 -2.9291524097  4.7642258823
H   6.1219090302 -5.7961524097 -0.0097741177
H   3.8159090302 -4.4701524097  2.2302258823
H   4.5619090302 -4.3581524097  0.6952258823
H   3.6629090302 -6.4721524097  0.5152258823
H   3.5039090302 -9.3191524097  2.5402258823
H   4.9369090302 -9.2891524097  1.4812258823
H   3.2239090302 -8.7301524097  0.9662258823
H   6.1599090302 -7.7701524097  3.6922258823
H   4.5319090302 -7.7651524097  4.3102258823
H   5.1799090302 -6.2781524097  3.9612258823
84
Scanning combination 206/256: [1.8000, 2.0000]  Energy = -385.8794180151
O   11.1233000000 -4.8002000000  5.0341000000
O   11.3873000000 -0.2652000000  3.3291000000
O   18.1143000000 -4.2382000000 -2.5629000000
O   15.0523000000 -3.1142000000  0.9841000000
C   13.0053000000 -3.3232000000  2.3291000000
C   12.6993000000 -1.9792000000  2.4491000000
C   12.3973000000 -4.3072000000  3.1831000000
C   11.6323000000 -1.5992000000  3.2951000000
C   11.4783000000 -3.8632000000  4.1231000000
C   11.0613000000 -2.4802000000  4.2331000000
C   10.1223000000 -1.9712000000  5.2561000000
C   10.5373000000 -1.3232000000  6.3251000000
C   9.8643000000 -1.0622000000  7.5921000000
C   8.6825000000 -1.0450000000  7.8959000000
C   10.8123000000 -0.2992000000  8.5731000000
C   14.6833000000 -4.8512000000 -0.4449000000
C   15.5183000000 -3.8012000000 -0.0889000000
C   16.6953000000 -3.5982000000 -0.8399000000
C   16.9703000000 -4.4882000000 -1.8899000000
C   16.1523000000 -5.5962000000 -2.2009000000
C   14.9513000000 -5.7522000000 -1.5279000000
C   13.6583000000 -4.8752000000  0.4711000000
C   13.8893000000 -3.7772000000  1.2511000000
H   13.1623000000 -1.2452000000  1.7971000000
H   12.5583000000 -5.3772000000  3.0881000000
H   11.7383000000 -5.5442000000  4.9131000000
H   11.8513000000  0.1658000000  2.5901000000
H   9.4643000000 -1.3292000000  4.6731000000
H   11.4933000000 -0.8182000000  6.2071000000
H   7.9073000000 -0.9712000000  7.1161000000
H   8.2313000000 -0.9072000000  8.8131000000
H   11.1183000000  0.6778000000  8.1811000000
H   11.7213000000 -0.7962000000  8.9311000000
H   10.3263000000 -0.0742000000  9.5301000000
H   17.3553000000 -2.7642000000 -0.6209000000
H   16.3753000000 -6.3042000000 -2.9929000000
H   14.4873000000 -6.7332000000 -1.5779000000
H   12.8783000000 -5.6272000000  0.4831000000
H   18.2613000000 -4.9422000000 -3.2189000000
C   10.2780039810 -4.4852453069  10.2845235854
O   12.6090039810 -4.8372453069  10.7725235854
C   11.6360039810 -4.4152453069  9.9265235854
O   8.0550039810 -3.9692453069  9.8125235854
C   12.0940039810 -3.7432453069  8.7465235854
O   6.8070039810 -2.0132453069  5.6125235854
C   11.1150039810 -3.2642453069  7.8895235854
O   5.1040039810 -3.2492453069  4.0455235854
C   9.7280039810 -3.3742453069  8.1565235854
O   7.0180039810 -5.5292453069  0.2255235854
C   9.3320039810 -3.9522453069  9.3755235854
C   8.5558039810 -2.9684453069  7.3628235854
C   8.8950039810 -2.9342453069  6.0055235854
C   7.6700039810 -2.7492453069  5.2275235854
C   7.5040039810 -3.5302453069  3.9185235854
C   8.6280039810 -4.0592453069  3.2265235854
C   6.1960039810 -3.6732453069  3.3485235854
C   8.4540039810 -4.8192453069  2.0575235854
C   6.0320039810 -4.4302453069  2.1555235854
C   7.1920039810 -4.8572453069  1.4695235854
C   4.6360039810 -4.7592453069  1.7385235854
C   4.2510039810 -6.2052453069  1.4495235854
C   4.4290039810 -7.3042453069  2.2545235854
C   3.9610039810 -8.6812453069  1.8035235854
C   5.1340039810 -7.2112453069  3.6255235854
H   9.9130039810 -4.7452453069  11.2735235854
H   13.1670039810 -3.6052453069  8.6515235854
H   11.4250039810 -2.8192453069  6.9485235854
H   12.1460039810 -5.2752453069  11.5075235854
H   8.0010039810 -4.5552453069  10.5875235854
H   7.6640039810 -2.9192453069  7.7435235854
H   9.1610039810 -3.9702453069  5.8295235854
H   9.6130039810 -4.0162453069  3.6805235854
H   9.2800039810 -5.1382453069  1.4285235854
H   5.5070039810 -2.8422453069  4.8325235854
H   6.0770039810 -5.7092453069  0.0585235854
H   3.7710039810 -4.3832453069  2.2985235854
H   4.5170039810 -4.2712453069  0.7635235854
H   3.6180039810 -6.3852453069  0.5835235854
H   3.4590039810 -9.2322453069  2.6085235854
H   4.8920039810 -9.2022453069  1.5495235854
H   3.1790039810 -8.6432453069  1.0345235854
H   6.1150039810 -7.6832453069  3.7605235854
H   4.4870039810 -7.6782453069  4.3785235854
H   5.1350039810 -6.1912453069  4.0295235854
84
Scanning combination 207/256: [1.8000, 1.9000]  Energy = -385.8530489202
O   11.1233000000 -4.8002000000  5.0341000000
O   11.3873000000 -0.2652000000  3.3291000000
O   18.1143000000 -4.2382000000 -2.5629000000
O   15.0523000000 -3.1142000000  0.9841000000
C   13.0053000000 -3.3232000000  2.3291000000
C   12.6993000000 -1.9792000000  2.4491000000
C   12.3973000000 -4.3072000000  3.1831000000
C   11.6323000000 -1.5992000000  3.2951000000
C   11.4783000000 -3.8632000000  4.1231000000
C   11.0613000000 -2.4802000000  4.2331000000
C   10.1223000000 -1.9712000000  5.2561000000
C   10.5373000000 -1.3232000000  6.3251000000
C   9.8643000000 -1.0622000000  7.5921000000
C   8.6825000000 -1.0450000000  7.8959000000
C   10.8123000000 -0.2992000000  8.5731000000
C   14.6833000000 -4.8512000000 -0.4449000000
C   15.5183000000 -3.8012000000 -0.0889000000
C   16.6953000000 -3.5982000000 -0.8399000000
C   16.9703000000 -4.4882000000 -1.8899000000
C   16.1523000000 -5.5962000000 -2.2009000000
C   14.9513000000 -5.7522000000 -1.5279000000
C   13.6583000000 -4.8752000000  0.4711000000
C   13.8893000000 -3.7772000000  1.2511000000
H   13.1623000000 -1.2452000000  1.7971000000
H   12.5583000000 -5.3772000000  3.0881000000
H   11.7383000000 -5.5442000000  4.9131000000
H   11.8513000000  0.1658000000  2.5901000000
H   9.4643000000 -1.3292000000  4.6731000000
H   11.4933000000 -0.8182000000  6.2071000000
H   7.9073000000 -0.9712000000  7.1161000000
H   8.2313000000 -0.9072000000  8.8131000000
H   11.1183000000  0.6778000000  8.1811000000
H   11.7213000000 -0.7962000000  8.9311000000
H   10.3263000000 -0.0742000000  9.5301000000
H   17.3553000000 -2.7642000000 -0.6209000000
H   16.3753000000 -6.3042000000 -2.9929000000
H   14.4873000000 -6.7332000000 -1.5779000000
H   12.8783000000 -5.6272000000  0.4831000000
H   18.2613000000 -4.9422000000 -3.2189000000
C   10.2403535167 -4.3953371353  10.3474906608
O   12.5713535167 -4.7473371353  10.8354906608
C   11.5983535167 -4.3253371353  9.9894906608
O   8.0173535167 -3.8793371353  9.8754906608
C   12.0563535167 -3.6533371353  8.8094906608
O   6.7693535167 -1.9233371353  5.6754906608
C   11.0773535167 -3.1743371353  7.9524906608
O   5.0663535167 -3.1593371353  4.1084906608
C   9.6903535167 -3.2843371353  8.2194906608
O   6.9803535167 -5.4393371353  0.2884906608
C   9.2943535167 -3.8623371353  9.4384906608
C   8.5181535167 -2.8785371353  7.4257906608
C   8.8573535167 -2.8443371353  6.0684906608
C   7.6323535167 -2.6593371353  5.2904906608
C   7.4663535167 -3.4403371353  3.9814906608
C   8.5903535167 -3.9693371353  3.2894906608
C   6.1583535167 -3.5833371353  3.4114906608
C   8.4163535167 -4.7293371353  2.1204906608
C   5.9943535167 -4.3403371353  2.2184906608
C   7.1543535167 -4.7673371353  1.5324906608
C   4.5983535167 -4.6693371353  1.8014906608
C   4.2133535167 -6.1153371353  1.5124906608
C   4.3913535167 -7.2143371353  2.3174906608
C   3.9233535167 -8.5913371353  1.8664906608
C   5.0963535167 -7.1213371353  3.6884906608
H   9.8753535167 -4.6553371353  11.3364906608
H   13.1293535167 -3.5153371353  8.7144906608
H   11.3873535167 -2.7293371353  7.0114906608
H   12.1083535167 -5.1853371353  11.5704906608
H   7.9633535167 -4.4653371353  10.6504906608
H   7.6263535167 -2.8293371353  7.8064906608
H   9.1233535167 -3.8803371353  5.8924906608
H   9.5753535167 -3.9263371353  3.7434906608
H   9.2423535167 -5.0483371353  1.4914906608
H   5.4693535167 -2.7523371353  4.8954906608
H   6.0393535167 -5.6193371353  0.1214906608
H   3.7333535167 -4.2933371353  2.3614906608
H   4.4793535167 -4.1813371353  0.8264906608
H   3.5803535167 -6.2953371353  0.6464906608
H   3.4213535167 -9.1423371353  2.6714906608
H   4.8543535167 -9.1123371353  1.6124906608
H   3.1413535167 -8.5533371353  1.0974906608
H   6.0773535167 -7.5933371353  3.8234906608
H   4.4493535167 -7.5883371353  4.4414906608
H   5.0973535167 -6.1013371353  4.0924906608
84
Scanning combination 208/256: [1.8000, 1.8000]  Energy = -385.8202475306
O   11.1233000000 -4.8002000000  5.0341000000
O   11.3873000000 -0.2652000000  3.3291000000
O   18.1143000000 -4.2382000000 -2.5629000000
O   15.0523000000 -3.1142000000  0.9841000000
C   13.0053000000 -3.3232000000  2.3291000000
C   12.6993000000 -1.9792000000  2.4491000000
C   12.3973000000 -4.3072000000  3.1831000000
C   11.6323000000 -1.5992000000  3.2951000000
C   11.4783000000 -3.8632000000  4.1231000000
C   11.0613000000 -2.4802000000  4.2331000000
C   10.1223000000 -1.9712000000  5.2561000000
C   10.5373000000 -1.3232000000  6.3251000000
C   9.8643000000 -1.0622000000  7.5921000000
C   8.6825000000 -1.0450000000  7.8959000000
C   10.8123000000 -0.2992000000  8.5731000000
C   14.6833000000 -4.8512000000 -0.4449000000
C   15.5183000000 -3.8012000000 -0.0889000000
C   16.6953000000 -3.5982000000 -0.8399000000
C   16.9703000000 -4.4882000000 -1.8899000000
C   16.1523000000 -5.5962000000 -2.2009000000
C   14.9513000000 -5.7522000000 -1.5279000000
C   13.6583000000 -4.8752000000  0.4711000000
C   13.8893000000 -3.7772000000  1.2511000000
H   13.1623000000 -1.2452000000  1.7971000000
H   12.5583000000 -5.3772000000  3.0881000000
H   11.7383000000 -5.5442000000  4.9131000000
H   11.8513000000  0.1658000000  2.5901000000
H   9.4643000000 -1.3292000000  4.6731000000
H   11.4933000000 -0.8182000000  6.2071000000
H   7.9073000000 -0.9712000000  7.1161000000
H   8.2313000000 -0.9072000000  8.8131000000
H   11.1183000000  0.6778000000  8.1811000000
H   11.7213000000 -0.7962000000  8.9311000000
H   10.3263000000 -0.0742000000  9.5301000000
H   17.3553000000 -2.7642000000 -0.6209000000
H   16.3753000000 -6.3042000000 -2.9929000000
H   14.4873000000 -6.7332000000 -1.5779000000
H   12.8783000000 -5.6272000000  0.4831000000
H   18.2613000000 -4.9422000000 -3.2189000000
C   10.2094070207 -4.3030174864  10.4054106118
O   12.5404070207 -4.6550174864  10.8934106118
C   11.5674070207 -4.2330174864  10.0474106118
O   7.9864070207 -3.7870174864  9.9334106118
C   12.0254070207 -3.5610174864  8.8674106118
O   6.7384070207 -1.8310174864  5.7334106118
C   11.0464070207 -3.0820174864  8.0104106118
O   5.0354070207 -3.0670174864  4.1664106118
C   9.6594070207 -3.1920174864  8.2774106118
O   6.9494070207 -5.3470174864  0.3464106118
C   9.2634070207 -3.7700174864  9.4964106118
C   8.4872070207 -2.7862174864  7.4837106118
C   8.8264070207 -2.7520174864  6.1264106118
C   7.6014070207 -2.5670174864  5.3484106118
C   7.4354070207 -3.3480174864  4.0394106118
C   8.5594070207 -3.8770174864  3.3474106118
C   6.1274070207 -3.4910174864  3.4694106118
C   8.3854070207 -4.6370174864  2.1784106118
C   5.9634070207 -4.2480174864  2.2764106118
C   7.1234070207 -4.6750174864  1.5904106118
C   4.5674070207 -4.5770174864  1.8594106118
C   4.1824070207 -6.0230174864  1.5704106118
C   4.3604070207 -7.1220174864  2.3754106118
C   3.8924070207 -8.4990174864  1.9244106118
C   5.0654070207 -7.0290174864  3.7464106118
H   9.8444070207 -4.5630174864  11.3944106118
H   13.0984070207 -3.4230174864  8.7724106118
H   11.3564070207 -2.6370174864  7.0694106118
H   12.0774070207 -5.0930174864  11.6284106118
H   7.9324070207 -4.3730174864  10.7084106118
H   7.5954070207 -2.7370174864  7.8644106118
H   9.0924070207 -3.7880174864  5.9504106118
H   9.5444070207 -3.8340174864  3.8014106118
H   9.2114070207 -4.9560174864  1.5494106118
H   5.4384070207 -2.6600174864  4.9534106118
H   6.0084070207 -5.5270174864  0.1794106118
H   3.7024070207 -4.2010174864  2.4194106118
H   4.4484070207 -4.0890174864  0.8844106118
H   3.5494070207 -6.2030174864  0.7044106118
H   3.3904070207 -9.0500174864  2.7294106118
H   4.8234070207 -9.0200174864  1.6704106118
H   3.1104070207 -8.4610174864  1.1554106118
H   6.0464070207 -7.5010174864  3.8814106118
H   4.4184070207 -7.4960174864  4.4994106118
H   5.0664070207 -6.0090174864  4.1504106118
84
Scanning combination 209/256: [1.8000, 1.7000]  Energy = -385.7795521017
O   11.1233000000 -4.8002000000  5.0341000000
O   11.3873000000 -0.2652000000  3.3291000000
O   18.1143000000 -4.2382000000 -2.5629000000
O   15.0523000000 -3.1142000000  0.9841000000
C   13.0053000000 -3.3232000000  2.3291000000
C   12.6993000000 -1.9792000000  2.4491000000
C   12.3973000000 -4.3072000000  3.1831000000
C   11.6323000000 -1.5992000000  3.2951000000
C   11.4783000000 -3.8632000000  4.1231000000
C   11.0613000000 -2.4802000000  4.2331000000
C   10.1223000000 -1.9712000000  5.2561000000
C   10.5373000000 -1.3232000000  6.3251000000
C   9.8643000000 -1.0622000000  7.5921000000
C   8.6825000000 -1.0450000000  7.8959000000
C   10.8123000000 -0.2992000000  8.5731000000
C   14.6833000000 -4.8512000000 -0.4449000000
C   15.5183000000 -3.8012000000 -0.0889000000
C   16.6953000000 -3.5982000000 -0.8399000000
C   16.9703000000 -4.4882000000 -1.8899000000
C   16.1523000000 -5.5962000000 -2.2009000000
C   14.9513000000 -5.7522000000 -1.5279000000
C   13.6583000000 -4.8752000000  0.4711000000
C   13.8893000000 -3.7772000000  1.2511000000
H   13.1623000000 -1.2452000000  1.7971000000
H   12.5583000000 -5.3772000000  3.0881000000
H   11.7383000000 -5.5442000000  4.9131000000
H   11.8513000000  0.1658000000  2.5901000000
H   9.4643000000 -1.3292000000  4.6731000000
H   11.4933000000 -0.8182000000  6.2071000000
H   7.9073000000 -0.9712000000  7.1161000000
H   8.2313000000 -0.9072000000  8.8131000000
H   11.1183000000  0.6778000000  8.1811000000
H   11.7213000000 -0.7962000000  8.9311000000
H   10.3263000000 -0.0742000000  9.5301000000
H   17.3553000000 -2.7642000000 -0.6209000000
H   16.3753000000 -6.3042000000 -2.9929000000
H   14.4873000000 -6.7332000000 -1.5779000000
H   12.8783000000 -5.6272000000  0.4831000000
H   18.2613000000 -4.9422000000 -3.2189000000
C   10.1846974208 -4.2087817665  10.4585255081
O   12.5156974208 -4.5607817665  10.9465255081
C   11.5426974208 -4.1387817665  10.1005255081
O   7.9616974208 -3.6927817665  9.9865255081
C   12.0006974208 -3.4667817665  8.9205255081
O   6.7136974208 -1.7367817665  5.7865255081
C   11.0216974208 -2.9877817665  8.0635255081
O   5.0106974208 -2.9727817665  4.2195255081
C   9.6346974208 -3.0977817665  8.3305255081
O   6.9246974208 -5.2527817665  0.3995255081
C   9.2386974208 -3.6757817665  9.5495255081
C   8.4624974208 -2.6919817665  7.5368255081
C   8.8016974208 -2.6577817665  6.1795255081
C   7.5766974208 -2.4727817665  5.4015255081
C   7.4106974208 -3.2537817665  4.0925255081
C   8.5346974208 -3.7827817665  3.4005255081
C   6.1026974208 -3.3967817665  3.5225255081
C   8.3606974208 -4.5427817665  2.2315255081
C   5.9386974208 -4.1537817665  2.3295255081
C   7.0986974208 -4.5807817665  1.6435255081
C   4.5426974208 -4.4827817665  1.9125255081
C   4.1576974208 -5.9287817665  1.6235255081
C   4.3356974208 -7.0277817665  2.4285255081
C   3.8676974208 -8.4047817665  1.9775255081
C   5.0406974208 -6.9347817665  3.7995255081
H   9.8196974208 -4.4687817665  11.4475255081
H   13.0736974208 -3.3287817665  8.8255255081
H   11.3316974208 -2.5427817665  7.1225255081
H   12.0526974208 -4.9987817665  11.6815255081
H   7.9076974208 -4.2787817665  10.7615255081
H   7.5706974208 -2.6427817665  7.9175255081
H   9.0676974208 -3.6937817665  6.0035255081
H   9.5196974208 -3.7397817665  3.8545255081
H   9.1866974208 -4.8617817665  1.6025255081
H   5.4136974208 -2.5657817665  5.0065255081
H   5.9836974208 -5.4327817665  0.2325255081
H   3.6776974208 -4.1067817665  2.4725255081
H   4.4236974208 -3.9947817665  0.9375255081
H   3.5246974208 -6.1087817665  0.7575255081
H   3.3656974208 -8.9557817665  2.7825255081
H   4.7986974208 -8.9257817665  1.7235255081
H   3.0856974208 -8.3667817665  1.2085255081
H   6.0216974208 -7.4067817665  3.9345255081
H   4.3936974208 -7.4017817665  4.5525255081
H   5.0416974208 -5.9147817665  4.2035255081
84
Scanning combination 210/256: [1.8000, 1.6000]  Energy = -385.7268146273
O   11.1233000000 -4.8002000000  5.0341000000
O   11.3873000000 -0.2652000000  3.3291000000
O   18.1143000000 -4.2382000000 -2.5629000000
O   15.0523000000 -3.1142000000  0.9841000000
C   13.0053000000 -3.3232000000  2.3291000000
C   12.6993000000 -1.9792000000  2.4491000000
C   12.3973000000 -4.3072000000  3.1831000000
C   11.6323000000 -1.5992000000  3.2951000000
C   11.4783000000 -3.8632000000  4.1231000000
C   11.0613000000 -2.4802000000  4.2331000000
C   10.1223000000 -1.9712000000  5.2561000000
C   10.5373000000 -1.3232000000  6.3251000000
C   9.8643000000 -1.0622000000  7.5921000000
C   8.6825000000 -1.0450000000  7.8959000000
C   10.8123000000 -0.2992000000  8.5731000000
C   14.6833000000 -4.8512000000 -0.4449000000
C   15.5183000000 -3.8012000000 -0.0889000000
C   16.6953000000 -3.5982000000 -0.8399000000
C   16.9703000000 -4.4882000000 -1.8899000000
C   16.1523000000 -5.5962000000 -2.2009000000
C   14.9513000000 -5.7522000000 -1.5279000000
C   13.6583000000 -4.8752000000  0.4711000000
C   13.8893000000 -3.7772000000  1.2511000000
H   13.1623000000 -1.2452000000  1.7971000000
H   12.5583000000 -5.3772000000  3.0881000000
H   11.7383000000 -5.5442000000  4.9131000000
H   11.8513000000  0.1658000000  2.5901000000
H   9.4643000000 -1.3292000000  4.6731000000
H   11.4933000000 -0.8182000000  6.2071000000
H   7.9073000000 -0.9712000000  7.1161000000
H   8.2313000000 -0.9072000000  8.8131000000
H   11.1183000000  0.6778000000  8.1811000000
H   11.7213000000 -0.7962000000  8.9311000000
H   10.3263000000 -0.0742000000  9.5301000000
H   17.3553000000 -2.7642000000 -0.6209000000
H   16.3753000000 -6.3042000000 -2.9929000000
H   14.4873000000 -6.7332000000 -1.5779000000
H   12.8783000000 -5.6272000000  0.4831000000
H   18.2613000000 -4.9422000000 -3.2189000000
C   10.1658386792 -4.1130522680  10.5070311259
O   12.4968386792 -4.4650522680  10.9950311259
C   11.5238386792 -4.0430522680  10.1490311259
O   7.9428386792 -3.5970522680  10.0350311259
C   11.9818386792 -3.3710522680  8.9690311259
O   6.6948386792 -1.6410522680  5.8350311259
C   11.0028386792 -2.8920522680  8.1120311259
O   4.9918386792 -2.8770522680  4.2680311259
C   9.6158386792 -3.0020522680  8.3790311259
O   6.9058386792 -5.1570522680  0.4480311259
C   9.2198386792 -3.5800522680  9.5980311259
C   8.4436386792 -2.5962522680  7.5853311259
C   8.7828386792 -2.5620522680  6.2280311259
C   7.5578386792 -2.3770522680  5.4500311259
C   7.3918386792 -3.1580522680  4.1410311259
C   8.5158386792 -3.6870522680  3.4490311259
C   6.0838386792 -3.3010522680  3.5710311259
C   8.3418386792 -4.4470522680  2.2800311259
C   5.9198386792 -4.0580522680  2.3780311259
C   7.0798386792 -4.4850522680  1.6920311259
C   4.5238386792 -4.3870522680  1.9610311259
C   4.1388386792 -5.8330522680  1.6720311259
C   4.3168386792 -6.9320522680  2.4770311259
C   3.8488386792 -8.3090522680  2.0260311259
C   5.0218386792 -6.8390522680  3.8480311259
H   9.8008386792 -4.3730522680  11.4960311259
H   13.0548386792 -3.2330522680  8.8740311259
H   11.3128386792 -2.4470522680  7.1710311259
H   12.0338386792 -4.9030522680  11.7300311259
H   7.8888386792 -4.1830522680  10.8100311259
H   7.5518386792 -2.5470522680  7.9660311259
H   9.0488386792 -3.5980522680  6.0520311259
H   9.5008386792 -3.6440522680  3.9030311259
H   9.1678386792 -4.7660522680  1.6510311259
H   5.3948386792 -2.4700522680  5.0550311259
H   5.9648386792 -5.3370522680  0.2810311259
H   3.6588386792 -4.0110522680  2.5210311259
H   4.4048386792 -3.8990522680  0.9860311259
H   3.5058386792 -6.0130522680  0.8060311259
H   3.3468386792 -8.8600522680  2.8310311259
H   4.7798386792 -8.8300522680  1.7720311259
H   3.0668386792 -8.2710522680  1.2570311259
H   6.0028386792 -7.3110522680  3.9830311259
H   4.3748386792 -7.3060522680  4.6010311259
H   5.0228386792 -5.8190522680  4.2520311259
84
Scanning combination 211/256: [1.8000, 1.5000]  Energy = -385.6569646593
O   11.1233000000 -4.8002000000  5.0341000000
O   11.3873000000 -0.2652000000  3.3291000000
O   18.1143000000 -4.2382000000 -2.5629000000
O   15.0523000000 -3.1142000000  0.9841000000
C   13.0053000000 -3.3232000000  2.3291000000
C   12.6993000000 -1.9792000000  2.4491000000
C   12.3973000000 -4.3072000000  3.1831000000
C   11.6323000000 -1.5992000000  3.2951000000
C   11.4783000000 -3.8632000000  4.1231000000
C   11.0613000000 -2.4802000000  4.2331000000
C   10.1223000000 -1.9712000000  5.2561000000
C   10.5373000000 -1.3232000000  6.3251000000
C   9.8643000000 -1.0622000000  7.5921000000
C   8.6825000000 -1.0450000000  7.8959000000
C   10.8123000000 -0.2992000000  8.5731000000
C   14.6833000000 -4.8512000000 -0.4449000000
C   15.5183000000 -3.8012000000 -0.0889000000
C   16.6953000000 -3.5982000000 -0.8399000000
C   16.9703000000 -4.4882000000 -1.8899000000
C   16.1523000000 -5.5962000000 -2.2009000000
C   14.9513000000 -5.7522000000 -1.5279000000
C   13.6583000000 -4.8752000000  0.4711000000
C   13.8893000000 -3.7772000000  1.2511000000
H   13.1623000000 -1.2452000000  1.7971000000
H   12.5583000000 -5.3772000000  3.0881000000
H   11.7383000000 -5.5442000000  4.9131000000
H   11.8513000000  0.1658000000  2.5901000000
H   9.4643000000 -1.3292000000  4.6731000000
H   11.4933000000 -0.8182000000  6.2071000000
H   7.9073000000 -0.9712000000  7.1161000000
H   8.2313000000 -0.9072000000  8.8131000000
H   11.1183000000  0.6778000000  8.1811000000
H   11.7213000000 -0.7962000000  8.9311000000
H   10.3263000000 -0.0742000000  9.5301000000
H   17.3553000000 -2.7642000000 -0.6209000000
H   16.3753000000 -6.3042000000 -2.9929000000
H   14.4873000000 -6.7332000000 -1.5779000000
H   12.8783000000 -5.6272000000  0.4831000000
H   18.2613000000 -4.9422000000 -3.2189000000
C   10.1525073371 -4.0161960498  10.5510870797
O   12.4835073371 -4.3681960498  11.0390870797
C   11.5105073371 -3.9461960498  10.1930870797
O   7.9295073371 -3.5001960498  10.0790870797
C   11.9685073371 -3.2741960498  9.0130870797
O   6.6815073371 -1.5441960498  5.8790870797
C   10.9895073371 -2.7951960498  8.1560870797
O   4.9785073371 -2.7801960498  4.3120870797
C   9.6025073371 -2.9051960498  8.4230870797
O   6.8925073371 -5.0601960498  0.4920870797
C   9.2065073371 -3.4831960498  9.6420870797
C   8.4303073371 -2.4993960498  7.6293870797
C   8.7695073371 -2.4651960498  6.2720870797
C   7.5445073371 -2.2801960498  5.4940870797
C   7.3785073371 -3.0611960498  4.1850870797
C   8.5025073371 -3.5901960498  3.4930870797
C   6.0705073371 -3.2041960498  3.6150870797
C   8.3285073371 -4.3501960498  2.3240870797
C   5.9065073371 -3.9611960498  2.4220870797
C   7.0665073371 -4.3881960498  1.7360870797
C   4.5105073371 -4.2901960498  2.0050870797
C   4.1255073371 -5.7361960498  1.7160870797
C   4.3035073371 -6.8351960498  2.5210870797
C   3.8355073371 -8.2121960498  2.0700870797
C   5.0085073371 -6.7421960498  3.8920870797
H   9.7875073371 -4.2761960498  11.5400870797
H   13.0415073371 -3.1361960498  8.9180870797
H   11.2995073371 -2.3501960498  7.2150870797
H   12.0205073371 -4.8061960498  11.7740870797
H   7.8755073371 -4.0861960498  10.8540870797
H   7.5385073371 -2.4501960498  8.0100870797
H   9.0355073371 -3.5011960498  6.0960870797
H   9.4875073371 -3.5471960498  3.9470870797
H   9.1545073371 -4.6691960498  1.6950870797
H   5.3815073371 -2.3731960498  5.0990870797
H   5.9515073371 -5.2401960498  0.3250870797
H   3.6455073371 -3.9141960498  2.5650870797
H   4.3915073371 -3.8021960498  1.0300870797
H   3.4925073371 -5.9161960498  0.8500870797
H   3.3335073371 -8.7631960498  2.8750870797
H   4.7665073371 -8.7331960498  1.8160870797
H   3.0535073371 -8.1741960498  1.3010870797
H   5.9895073371 -7.2141960498  4.0270870797
H   4.3615073371 -7.2091960498  4.6450870797
H   5.0095073371 -5.7221960498  4.2960870797
84
Scanning combination 212/256: [1.7000, 2.9000]  Energy = -385.8182219263
O   11.1233000000 -4.8002000000  5.0341000000
O   11.3873000000 -0.2652000000  3.3291000000
O   18.1143000000 -4.2382000000 -2.5629000000
O   15.0523000000 -3.1142000000  0.9841000000
C   13.0053000000 -3.3232000000  2.3291000000
C   12.6993000000 -1.9792000000  2.4491000000
C   12.3973000000 -4.3072000000  3.1831000000
C   11.6323000000 -1.5992000000  3.2951000000
C   11.4783000000 -3.8632000000  4.1231000000
C   11.0613000000 -2.4802000000  4.2331000000
C   10.1223000000 -1.9712000000  5.2561000000
C   10.5373000000 -1.3232000000  6.3251000000
C   9.8643000000 -1.0622000000  7.5921000000
C   8.6825000000 -1.0450000000  7.8959000000
C   10.8123000000 -0.2992000000  8.5731000000
C   14.6833000000 -4.8512000000 -0.4449000000
C   15.5183000000 -3.8012000000 -0.0889000000
C   16.6953000000 -3.5982000000 -0.8399000000
C   16.9703000000 -4.4882000000 -1.8899000000
C   16.1523000000 -5.5962000000 -2.2009000000
C   14.9513000000 -5.7522000000 -1.5279000000
C   13.6583000000 -4.8752000000  0.4711000000
C   13.8893000000 -3.7772000000  1.2511000000
H   13.1623000000 -1.2452000000  1.7971000000
H   12.5583000000 -5.3772000000  3.0881000000
H   11.7383000000 -5.5442000000  4.9131000000
H   11.8513000000  0.1658000000  2.5901000000
H   9.4643000000 -1.3292000000  4.6731000000
H   11.4933000000 -0.8182000000  6.2071000000
H   7.9073000000 -0.9712000000  7.1161000000
H   8.2313000000 -0.9072000000  8.8131000000
H   11.1183000000  0.6778000000  8.1811000000
H   11.7213000000 -0.7962000000  8.9311000000
H   10.3263000000 -0.0742000000  9.5301000000
H   17.3553000000 -2.7642000000 -0.6209000000
H   16.3753000000 -6.3042000000 -2.9929000000
H   14.4873000000 -6.7332000000 -1.5779000000
H   12.8783000000 -5.6272000000  0.4831000000
H   18.2613000000 -4.9422000000 -3.2189000000
C   10.9015051700 -5.1123921392  9.5301733253
O   13.2325051700 -5.4643921392  10.0181733253
C   12.2595051700 -5.0423921392  9.1721733253
O   8.6785051700 -4.5963921392  9.0581733253
C   12.7175051700 -4.3703921392  7.9921733253
O   7.4305051700 -2.6403921392  4.8581733253
C   11.7385051700 -3.8913921392  7.1351733253
O   5.7275051700 -3.8763921392  3.2911733253
C   10.3515051700 -4.0013921392  7.4021733253
O   7.6415051700 -6.1563921392 -0.5288266747
C   9.9555051700 -4.5793921392  8.6211733253
C   9.1793051700 -3.5955921392  6.6084733253
C   9.5185051700 -3.5613921392  5.2511733253
C   8.2935051700 -3.3763921392  4.4731733253
C   8.1275051700 -4.1573921392  3.1641733253
C   9.2515051700 -4.6863921392  2.4721733253
C   6.8195051700 -4.3003921392  2.5941733253
C   9.0775051700 -5.4463921392  1.3031733253
C   6.6555051700 -5.0573921392  1.4011733253
C   7.8155051700 -5.4843921392  0.7151733253
C   5.2595051700 -5.3863921392  0.9841733253
C   4.8745051700 -6.8323921392  0.6951733253
C   5.0525051700 -7.9313921392  1.5001733253
C   4.5845051700 -9.3083921392  1.0491733253
C   5.7575051700 -7.8383921392  2.8711733253
H   10.5365051700 -5.3723921392  10.5191733253
H   13.7905051700 -4.2323921392  7.8971733253
H   12.0485051700 -3.4463921392  6.1941733253
H   12.7695051700 -5.9023921392  10.7531733253
H   8.6245051700 -5.1823921392  9.8331733253
H   8.2875051700 -3.5463921392  6.9891733253
H   9.7845051700 -4.5973921392  5.0751733253
H   10.2365051700 -4.6433921392  2.9261733253
H   9.9035051700 -5.7653921392  0.6741733253
H   6.1305051700 -3.4693921392  4.0781733253
H   6.7005051700 -6.3363921392 -0.6958266747
H   4.3945051700 -5.0103921392  1.5441733253
H   5.1405051700 -4.8983921392  0.0091733253
H   4.2415051700 -7.0123921392 -0.1708266747
H   4.0825051700 -9.8593921392  1.8541733253
H   5.5155051700 -9.8293921392  0.7951733253
H   3.8025051700 -9.2703921392  0.2801733253
H   6.7385051700 -8.3103921392  3.0061733253
H   5.1105051700 -8.3053921392  3.6241733253
H   5.7585051700 -6.8183921392  3.2751733253
84
Scanning combination 213/256: [1.7000, 2.8000]  Energy = -385.8335431810
O   11.1233000000 -4.8002000000  5.0341000000
O   11.3873000000 -0.2652000000  3.3291000000
O   18.1143000000 -4.2382000000 -2.5629000000
O   15.0523000000 -3.1142000000  0.9841000000
C   13.0053000000 -3.3232000000  2.3291000000
C   12.6993000000 -1.9792000000  2.4491000000
C   12.3973000000 -4.3072000000  3.1831000000
C   11.6323000000 -1.5992000000  3.2951000000
C   11.4783000000 -3.8632000000  4.1231000000
C   11.0613000000 -2.4802000000  4.2331000000
C   10.1223000000 -1.9712000000  5.2561000000
C   10.5373000000 -1.3232000000  6.3251000000
C   9.8643000000 -1.0622000000  7.5921000000
C   8.6825000000 -1.0450000000  7.8959000000
C   10.8123000000 -0.2992000000  8.5731000000
C   14.6833000000 -4.8512000000 -0.4449000000
C   15.5183000000 -3.8012000000 -0.0889000000
C   16.6953000000 -3.5982000000 -0.8399000000
C   16.9703000000 -4.4882000000 -1.8899000000
C   16.1523000000 -5.5962000000 -2.2009000000
C   14.9513000000 -5.7522000000 -1.5279000000
C   13.6583000000 -4.8752000000  0.4711000000
C   13.8893000000 -3.7772000000  1.2511000000
H   13.1623000000 -1.2452000000  1.7971000000
H   12.5583000000 -5.3772000000  3.0881000000
H   11.7383000000 -5.5442000000  4.9131000000
H   11.8513000000  0.1658000000  2.5901000000
H   9.4643000000 -1.3292000000  4.6731000000
H   11.4933000000 -0.8182000000  6.2071000000
H   7.9073000000 -0.9712000000  7.1161000000
H   8.2313000000 -0.9072000000  8.8131000000
H   11.1183000000  0.6778000000  8.1811000000
H   11.7213000000 -0.7962000000  8.9311000000
H   10.3263000000 -0.0742000000  9.5301000000
H   17.3553000000 -2.7642000000 -0.6209000000
H   16.3753000000 -6.3042000000 -2.9929000000
H   14.4873000000 -6.7332000000 -1.5779000000
H   12.8783000000 -5.6272000000  0.4831000000
H   18.2613000000 -4.9422000000 -3.2189000000
C   10.8848095692 -5.0242026436  9.5742666202
O   13.2158095692 -5.3762026436  10.0622666202
C   12.2428095692 -4.9542026436  9.2162666202
O   8.6618095692 -4.5082026436  9.1022666202
C   12.7008095692 -4.2822026436  8.0362666202
O   7.4138095692 -2.5522026436  4.9022666202
C   11.7218095692 -3.8032026436  7.1792666202
O   5.7108095692 -3.7882026436  3.3352666202
C   10.3348095692 -3.9132026436  7.4462666202
O   7.6248095692 -6.0682026436 -0.4847333798
C   9.9388095692 -4.4912026436  8.6652666202
C   9.1626095692 -3.5074026436  6.6525666202
C   9.5018095692 -3.4732026436  5.2952666202
C   8.2768095692 -3.2882026436  4.5172666202
C   8.1108095692 -4.0692026436  3.2082666202
C   9.2348095692 -4.5982026436  2.5162666202
C   6.8028095692 -4.2122026436  2.6382666202
C   9.0608095692 -5.3582026436  1.3472666202
C   6.6388095692 -4.9692026436  1.4452666202
C   7.7988095692 -5.3962026436  0.7592666202
C   5.2428095692 -5.2982026436  1.0282666202
C   4.8578095692 -6.7442026436  0.7392666202
C   5.0358095692 -7.8432026436  1.5442666202
C   4.5678095692 -9.2202026436  1.0932666202
C   5.7408095692 -7.7502026436  2.9152666202
H   10.5198095692 -5.2842026436  10.5632666202
H   13.7738095692 -4.1442026436  7.9412666202
H   12.0318095692 -3.3582026436  6.2382666202
H   12.7528095692 -5.8142026436  10.7972666202
H   8.6078095692 -5.0942026436  9.8772666202
H   8.2708095692 -3.4582026436  7.0332666202
H   9.7678095692 -4.5092026436  5.1192666202
H   10.2198095692 -4.5552026436  2.9702666202
H   9.8868095692 -5.6772026436  0.7182666202
H   6.1138095692 -3.3812026436  4.1222666202
H   6.6838095692 -6.2482026436 -0.6517333798
H   4.3778095692 -4.9222026436  1.5882666202
H   5.1238095692 -4.8102026436  0.0532666202
H   4.2248095692 -6.9242026436 -0.1267333798
H   4.0658095692 -9.7712026436  1.8982666202
H   5.4988095692 -9.7412026436  0.8392666202
H   3.7858095692 -9.1822026436  0.3242666202
H   6.7218095692 -8.2222026436  3.0502666202
H   5.0938095692 -8.2172026436  3.6682666202
H   5.7418095692 -6.7302026436  3.3192666202
84
Scanning combination 214/256: [1.7000, 2.7000]  Energy = -385.8598154779
O   11.1233000000 -4.8002000000  5.0341000000
O   11.3873000000 -0.2652000000  3.3291000000
O   18.1143000000 -4.2382000000 -2.5629000000
O   15.0523000000 -3.1142000000  0.9841000000
C   13.0053000000 -3.3232000000  2.3291000000
C   12.6993000000 -1.9792000000  2.4491000000
C   12.3973000000 -4.3072000000  3.1831000000
C   11.6323000000 -1.5992000000  3.2951000000
C   11.4783000000 -3.8632000000  4.1231000000
C   11.0613000000 -2.4802000000  4.2331000000
C   10.1223000000 -1.9712000000  5.2561000000
C   10.5373000000 -1.3232000000  6.3251000000
C   9.8643000000 -1.0622000000  7.5921000000
C   8.6825000000 -1.0450000000  7.8959000000
C   10.8123000000 -0.2992000000  8.5731000000
C   14.6833000000 -4.8512000000 -0.4449000000
C   15.5183000000 -3.8012000000 -0.0889000000
C   16.6953000000 -3.5982000000 -0.8399000000
C   16.9703000000 -4.4882000000 -1.8899000000
C   16.1523000000 -5.5962000000 -2.2009000000
C   14.9513000000 -5.7522000000 -1.5279000000
C   13.6583000000 -4.8752000000  0.4711000000
C   13.8893000000 -3.7772000000  1.2511000000
H   13.1623000000 -1.2452000000  1.7971000000
H   12.5583000000 -5.3772000000  3.0881000000
H   11.7383000000 -5.5442000000  4.9131000000
H   11.8513000000  0.1658000000  2.5901000000
H   9.4643000000 -1.3292000000  4.6731000000
H   11.4933000000 -0.8182000000  6.2071000000
H   7.9073000000 -0.9712000000  7.1161000000
H   8.2313000000 -0.9072000000  8.8131000000
H   11.1183000000  0.6778000000  8.1811000000
H   11.7213000000 -0.7962000000  8.9311000000
H   10.3263000000 -0.0742000000  9.5301000000
H   17.3553000000 -2.7642000000 -0.6209000000
H   16.3753000000 -6.3042000000 -2.9929000000
H   14.4873000000 -6.7332000000 -1.5779000000
H   12.8783000000 -5.6272000000  0.4831000000
H   18.2613000000 -4.9422000000 -3.2189000000
C   10.8318290490 -4.9553425701  9.6435764049
O   13.1628290490 -5.3073425701  10.1315764049
C   12.1898290490 -4.8853425701  9.2855764049
O   8.6088290490 -4.4393425701  9.1715764049
C   12.6478290490 -4.2133425701  8.1055764049
O   7.3608290490 -2.4833425701  4.9715764049
C   11.6688290490 -3.7343425701  7.2485764049
O   5.6578290490 -3.7193425701  3.4045764049
C   10.2818290490 -3.8443425701  7.5155764049
O   7.5718290490 -5.9993425701 -0.4154235951
C   9.8858290490 -4.4223425701  8.7345764049
C   9.1096290490 -3.4385425701  6.7218764049
C   9.4488290490 -3.4043425701  5.3645764049
C   8.2238290490 -3.2193425701  4.5865764049
C   8.0578290490 -4.0003425701  3.2775764049
C   9.1818290490 -4.5293425701  2.5855764049
C   6.7498290490 -4.1433425701  2.7075764049
C   9.0078290490 -5.2893425701  1.4165764049
C   6.5858290490 -4.9003425701  1.5145764049
C   7.7458290490 -5.3273425701  0.8285764049
C   5.1898290490 -5.2293425701  1.0975764049
C   4.8048290490 -6.6753425701  0.8085764049
C   4.9828290490 -7.7743425701  1.6135764049
C   4.5148290490 -9.1513425701  1.1625764049
C   5.6878290490 -7.6813425701  2.9845764049
H   10.4668290490 -5.2153425701  10.6325764049
H   13.7208290490 -4.0753425701  8.0105764049
H   11.9788290490 -3.2893425701  6.3075764049
H   12.6998290490 -5.7453425701  10.8665764049
H   8.5548290490 -5.0253425701  9.9465764049
H   8.2178290490 -3.3893425701  7.1025764049
H   9.7148290490 -4.4403425701  5.1885764049
H   10.1668290490 -4.4863425701  3.0395764049
H   9.8338290490 -5.6083425701  0.7875764049
H   6.0608290490 -3.3123425701  4.1915764049
H   6.6308290490 -6.1793425701 -0.5824235951
H   4.3248290490 -4.8533425701  1.6575764049
H   5.0708290490 -4.7413425701  0.1225764049
H   4.1718290490 -6.8553425701 -0.0574235951
H   4.0128290490 -9.7023425701  1.9675764049
H   5.4458290490 -9.6723425701  0.9085764049
H   3.7328290490 -9.1133425701  0.3935764049
H   6.6688290490 -8.1533425701  3.1195764049
H   5.0408290490 -8.1483425701  3.7375764049
H   5.6888290490 -6.6613425701  3.3885764049
84
Scanning combination 215/256: [1.7000, 2.6000]  Energy = -385.8848985430
O   11.1233000000 -4.8002000000  5.0341000000
O   11.3873000000 -0.2652000000  3.3291000000
O   18.1143000000 -4.2382000000 -2.5629000000
O   15.0523000000 -3.1142000000  0.9841000000
C   13.0053000000 -3.3232000000  2.3291000000
C   12.6993000000 -1.9792000000  2.4491000000
C   12.3973000000 -4.3072000000  3.1831000000
C   11.6323000000 -1.5992000000  3.2951000000
C   11.4783000000 -3.8632000000  4.1231000000
C   11.0613000000 -2.4802000000  4.2331000000
C   10.1223000000 -1.9712000000  5.2561000000
C   10.5373000000 -1.3232000000  6.3251000000
C   9.8643000000 -1.0622000000  7.5921000000
C   8.6825000000 -1.0450000000  7.8959000000
C   10.8123000000 -0.2992000000  8.5731000000
C   14.6833000000 -4.8512000000 -0.4449000000
C   15.5183000000 -3.8012000000 -0.0889000000
C   16.6953000000 -3.5982000000 -0.8399000000
C   16.9703000000 -4.4882000000 -1.8899000000
C   16.1523000000 -5.5962000000 -2.2009000000
C   14.9513000000 -5.7522000000 -1.5279000000
C   13.6583000000 -4.8752000000  0.4711000000
C   13.8893000000 -3.7772000000  1.2511000000
H   13.1623000000 -1.2452000000  1.7971000000
H   12.5583000000 -5.3772000000  3.0881000000
H   11.7383000000 -5.5442000000  4.9131000000
H   11.8513000000  0.1658000000  2.5901000000
H   9.4643000000 -1.3292000000  4.6731000000
H   11.4933000000 -0.8182000000  6.2071000000
H   7.9073000000 -0.9712000000  7.1161000000
H   8.2313000000 -0.9072000000  8.8131000000
H   11.1183000000  0.6778000000  8.1811000000
H   11.7213000000 -0.7962000000  8.9311000000
H   10.3263000000 -0.0742000000  9.5301000000
H   17.3553000000 -2.7642000000 -0.6209000000
H   16.3753000000 -6.3042000000 -2.9929000000
H   14.4873000000 -6.7332000000 -1.5779000000
H   12.8783000000 -5.6272000000  0.4831000000
H   18.2613000000 -4.9422000000 -3.2189000000
C   10.7593259033 -4.8951881986  9.7270205968
O   13.0903259033 -5.2471881986  10.2150205968
C   12.1173259033 -4.8251881986  9.3690205968
O   8.5363259033 -4.3791881986  9.2550205968
C   12.5753259033 -4.1531881986  8.1890205968
O   7.2883259033 -2.4231881986  5.0550205968
C   11.5963259033 -3.6741881986  7.3320205968
O   5.5853259033 -3.6591881986  3.4880205968
C   10.2093259033 -3.7841881986  7.5990205968
O   7.4993259033 -5.9391881986 -0.3319794032
C   9.8133259033 -4.3621881986  8.8180205968
C   9.0371259033 -3.3783881986  6.8053205968
C   9.3763259033 -3.3441881986  5.4480205968
C   8.1513259033 -3.1591881986  4.6700205968
C   7.9853259033 -3.9401881986  3.3610205968
C   9.1093259033 -4.4691881986  2.6690205968
C   6.6773259033 -4.0831881986  2.7910205968
C   8.9353259033 -5.2291881986  1.5000205968
C   6.5133259033 -4.8401881986  1.5980205968
C   7.6733259033 -5.2671881986  0.9120205968
C   5.1173259033 -5.1691881986  1.1810205968
C   4.7323259033 -6.6151881986  0.8920205968
C   4.9103259033 -7.7141881986  1.6970205968
C   4.4423259033 -9.0911881986  1.2460205968
C   5.6153259033 -7.6211881986  3.0680205968
H   10.3943259033 -5.1551881986  10.7160205968
H   13.6483259033 -4.0151881986  8.0940205968
H   11.9063259033 -3.2291881986  6.3910205968
H   12.6273259033 -5.6851881986  10.9500205968
H   8.4823259033 -4.9651881986  10.0300205968
H   8.1453259033 -3.3291881986  7.1860205968
H   9.6423259033 -4.3801881986  5.2720205968
H   10.0943259033 -4.4261881986  3.1230205968
H   9.7613259033 -5.5481881986  0.8710205968
H   5.9883259033 -3.2521881986  4.2750205968
H   6.5583259033 -6.1191881986 -0.4989794032
H   4.2523259033 -4.7931881986  1.7410205968
H   4.9983259033 -4.6811881986  0.2060205968
H   4.0993259033 -6.7951881986  0.0260205968
H   3.9403259033 -9.6421881986  2.0510205968
H   5.3733259033 -9.6121881986  0.9920205968
H   3.6603259033 -9.0531881986  0.4770205968
H   6.5963259033 -8.0931881986  3.2030205968
H   4.9683259033 -8.0881881986  3.8210205968
H   5.6163259033 -6.6011881986  3.4720205968
84
Scanning combination 216/256: [1.7000, 2.5000]  Energy = -385.9037333723
O   11.1233000000 -4.8002000000  5.0341000000
O   11.3873000000 -0.2652000000  3.3291000000
O   18.1143000000 -4.2382000000 -2.5629000000
O   15.0523000000 -3.1142000000  0.9841000000
C   13.0053000000 -3.3232000000  2.3291000000
C   12.6993000000 -1.9792000000  2.4491000000
C   12.3973000000 -4.3072000000  3.1831000000
C   11.6323000000 -1.5992000000  3.2951000000
C   11.4783000000 -3.8632000000  4.1231000000
C   11.0613000000 -2.4802000000  4.2331000000
C   10.1223000000 -1.9712000000  5.2561000000
C   10.5373000000 -1.3232000000  6.3251000000
C   9.8643000000 -1.0622000000  7.5921000000
C   8.6825000000 -1.0450000000  7.8959000000
C   10.8123000000 -0.2992000000  8.5731000000
C   14.6833000000 -4.8512000000 -0.4449000000
C   15.5183000000 -3.8012000000 -0.0889000000
C   16.6953000000 -3.5982000000 -0.8399000000
C   16.9703000000 -4.4882000000 -1.8899000000
C   16.1523000000 -5.5962000000 -2.2009000000
C   14.9513000000 -5.7522000000 -1.5279000000
C   13.6583000000 -4.8752000000  0.4711000000
C   13.8893000000 -3.7772000000  1.2511000000
H   13.1623000000 -1.2452000000  1.7971000000
H   12.5583000000 -5.3772000000  3.0881000000
H   11.7383000000 -5.5442000000  4.9131000000
H   11.8513000000  0.1658000000  2.5901000000
H   9.4643000000 -1.3292000000  4.6731000000
H   11.4933000000 -0.8182000000  6.2071000000
H   7.9073000000 -0.9712000000  7.1161000000
H   8.2313000000 -0.9072000000  8.8131000000
H   11.1183000000  0.6778000000  8.1811000000
H   11.7213000000 -0.7962000000  8.9311000000
H   10.3263000000 -0.0742000000  9.5301000000
H   17.3553000000 -2.7642000000 -0.6209000000
H   16.3753000000 -6.3042000000 -2.9929000000
H   14.4873000000 -6.7332000000 -1.5779000000
H   12.8783000000 -5.6272000000  0.4831000000
H   18.2613000000 -4.9422000000 -3.2189000000
C   10.6793613465 -4.8360994409  9.8166237566
O   13.0103613465 -5.1880994409  10.3046237566
C   12.0373613465 -4.7660994409  9.4586237566
O   8.4563613465 -4.3200994409  9.3446237566
C   12.4953613465 -4.0940994409  8.2786237566
O   7.2083613465 -2.3640994409  5.1446237566
C   11.5163613465 -3.6150994409  7.4216237566
O   5.5053613465 -3.6000994409  3.5776237566
C   10.1293613465 -3.7250994409  7.6886237566
O   7.4193613465 -5.8800994409 -0.2423762434
C   9.7333613465 -4.3030994409  8.9076237566
C   8.9571613465 -3.3192994409  6.8949237566
C   9.2963613465 -3.2850994409  5.5376237566
C   8.0713613465 -3.1000994409  4.7596237566
C   7.9053613465 -3.8810994409  3.4506237566
C   9.0293613465 -4.4100994409  2.7586237566
C   6.5973613465 -4.0240994409  2.8806237566
C   8.8553613465 -5.1700994409  1.5896237566
C   6.4333613465 -4.7810994409  1.6876237566
C   7.5933613465 -5.2080994409  1.0016237566
C   5.0373613465 -5.1100994409  1.2706237566
C   4.6523613465 -6.5560994409  0.9816237566
C   4.8303613465 -7.6550994409  1.7866237566
C   4.3623613465 -9.0320994409  1.3356237566
C   5.5353613465 -7.5620994409  3.1576237566
H   10.3143613465 -5.0960994409  10.8056237566
H   13.5683613465 -3.9560994409  8.1836237566
H   11.8263613465 -3.1700994409  6.4806237566
H   12.5473613465 -5.6260994409  11.0396237566
H   8.4023613465 -4.9060994409  10.1196237566
H   8.0653613465 -3.2700994409  7.2756237566
H   9.5623613465 -4.3210994409  5.3616237566
H   10.0143613465 -4.3670994409  3.2126237566
H   9.6813613465 -5.4890994409  0.9606237566
H   5.9083613465 -3.1930994409  4.3646237566
H   6.4783613465 -6.0600994409 -0.4093762434
H   4.1723613465 -4.7340994409  1.8306237566
H   4.9183613465 -4.6220994409  0.2956237566
H   4.0193613465 -6.7360994409  0.1156237566
H   3.8603613465 -9.5830994409  2.1406237566
H   5.2933613465 -9.5530994409  1.0816237566
H   3.5803613465 -8.9940994409  0.5666237566
H   6.5163613465 -8.0340994409  3.2926237566
H   4.8883613465 -8.0290994409  3.9106237566
H   5.5363613465 -6.5420994409  3.5616237566
84
Scanning combination 217/256: [1.7000, 2.4000]  Energy = -385.9134680029
O   11.1233000000 -4.8002000000  5.0341000000
O   11.3873000000 -0.2652000000  3.3291000000
O   18.1143000000 -4.2382000000 -2.5629000000
O   15.0523000000 -3.1142000000  0.9841000000
C   13.0053000000 -3.3232000000  2.3291000000
C   12.6993000000 -1.9792000000  2.4491000000
C   12.3973000000 -4.3072000000  3.1831000000
C   11.6323000000 -1.5992000000  3.2951000000
C   11.4783000000 -3.8632000000  4.1231000000
C   11.0613000000 -2.4802000000  4.2331000000
C   10.1223000000 -1.9712000000  5.2561000000
C   10.5373000000 -1.3232000000  6.3251000000
C   9.8643000000 -1.0622000000  7.5921000000
C   8.6825000000 -1.0450000000  7.8959000000
C   10.8123000000 -0.2992000000  8.5731000000
C   14.6833000000 -4.8512000000 -0.4449000000
C   15.5183000000 -3.8012000000 -0.0889000000
C   16.6953000000 -3.5982000000 -0.8399000000
C   16.9703000000 -4.4882000000 -1.8899000000
C   16.1523000000 -5.5962000000 -2.2009000000
C   14.9513000000 -5.7522000000 -1.5279000000
C   13.6583000000 -4.8752000000  0.4711000000
C   13.8893000000 -3.7772000000  1.2511000000
H   13.1623000000 -1.2452000000  1.7971000000
H   12.5583000000 -5.3772000000  3.0881000000
H   11.7383000000 -5.5442000000  4.9131000000
H   11.8513000000  0.1658000000  2.5901000000
H   9.4643000000 -1.3292000000  4.6731000000
H   11.4933000000 -0.8182000000  6.2071000000
H   7.9073000000 -0.9712000000  7.1161000000
H   8.2313000000 -0.9072000000  8.8131000000
H   11.1183000000  0.6778000000  8.1811000000
H   11.7213000000 -0.7962000000  8.9311000000
H   10.3263000000 -0.0742000000  9.5301000000
H   17.3553000000 -2.7642000000 -0.6209000000
H   16.3753000000 -6.3042000000 -2.9929000000
H   14.4873000000 -6.7332000000 -1.5779000000
H   12.8783000000 -5.6272000000  0.4831000000
H   18.2613000000 -4.9422000000 -3.2189000000
C   10.6004691024 -4.7734460406  9.9064834970
O   12.9314691024 -5.1254460406  10.3944834970
C   11.9584691024 -4.7034460406  9.5484834970
O   8.3774691024 -4.2574460406  9.4344834970
C   12.4164691024 -4.0314460406  8.3684834970
O   7.1294691024 -2.3014460406  5.2344834970
C   11.4374691024 -3.5524460406  7.5114834970
O   5.4264691024 -3.5374460406  3.6674834970
C   10.0504691024 -3.6624460406  7.7784834970
O   7.3404691024 -5.8174460406 -0.1525165030
C   9.6544691024 -4.2404460406  8.9974834970
C   8.8782691024 -3.2566460406  6.9847834970
C   9.2174691024 -3.2224460406  5.6274834970
C   7.9924691024 -3.0374460406  4.8494834970
C   7.8264691024 -3.8184460406  3.5404834970
C   8.9504691024 -4.3474460406  2.8484834970
C   6.5184691024 -3.9614460406  2.9704834970
C   8.7764691024 -5.1074460406  1.6794834970
C   6.3544691024 -4.7184460406  1.7774834970
C   7.5144691024 -5.1454460406  1.0914834970
C   4.9584691024 -5.0474460406  1.3604834970
C   4.5734691024 -6.4934460406  1.0714834970
C   4.7514691024 -7.5924460406  1.8764834970
C   4.2834691024 -8.9694460406  1.4254834970
C   5.4564691024 -7.4994460406  3.2474834970
H   10.2354691024 -5.0334460406  10.8954834970
H   13.4894691024 -3.8934460406  8.2734834970
H   11.7474691024 -3.1074460406  6.5704834970
H   12.4684691024 -5.5634460406  11.1294834970
H   8.3234691024 -4.8434460406  10.2094834970
H   7.9864691024 -3.2074460406  7.3654834970
H   9.4834691024 -4.2584460406  5.4514834970
H   9.9354691024 -4.3044460406  3.3024834970
H   9.6024691024 -5.4264460406  1.0504834970
H   5.8294691024 -3.1304460406  4.4544834970
H   6.3994691024 -5.9974460406 -0.3195165030
H   4.0934691024 -4.6714460406  1.9204834970
H   4.8394691024 -4.5594460406  0.3854834970
H   3.9404691024 -6.6734460406  0.2054834970
H   3.7814691024 -9.5204460406  2.2304834970
H   5.2144691024 -9.4904460406  1.1714834970
H   3.5014691024 -8.9314460406  0.6564834970
H   6.4374691024 -7.9714460406  3.3824834970
H   4.8094691024 -7.9664460406  4.0004834970
H   5.4574691024 -6.4794460406  3.6514834970
84
Scanning combination 218/256: [1.7000, 2.3000]  Energy = -385.9144145246
O   11.1233000000 -4.8002000000  5.0341000000
O   11.3873000000 -0.2652000000  3.3291000000
O   18.1143000000 -4.2382000000 -2.5629000000
O   15.0523000000 -3.1142000000  0.9841000000
C   13.0053000000 -3.3232000000  2.3291000000
C   12.6993000000 -1.9792000000  2.4491000000
C   12.3973000000 -4.3072000000  3.1831000000
C   11.6323000000 -1.5992000000  3.2951000000
C   11.4783000000 -3.8632000000  4.1231000000
C   11.0613000000 -2.4802000000  4.2331000000
C   10.1223000000 -1.9712000000  5.2561000000
C   10.5373000000 -1.3232000000  6.3251000000
C   9.8643000000 -1.0622000000  7.5921000000
C   8.6825000000 -1.0450000000  7.8959000000
C   10.8123000000 -0.2992000000  8.5731000000
C   14.6833000000 -4.8512000000 -0.4449000000
C   15.5183000000 -3.8012000000 -0.0889000000
C   16.6953000000 -3.5982000000 -0.8399000000
C   16.9703000000 -4.4882000000 -1.8899000000
C   16.1523000000 -5.5962000000 -2.2009000000
C   14.9513000000 -5.7522000000 -1.5279000000
C   13.6583000000 -4.8752000000  0.4711000000
C   13.8893000000 -3.7772000000  1.2511000000
H   13.1623000000 -1.2452000000  1.7971000000
H   12.5583000000 -5.3772000000  3.0881000000
H   11.7383000000 -5.5442000000  4.9131000000
H   11.8513000000  0.1658000000  2.5901000000
H   9.4643000000 -1.3292000000  4.6731000000
H   11.4933000000 -0.8182000000  6.2071000000
H   7.9073000000 -0.9712000000  7.1161000000
H   8.2313000000 -0.9072000000  8.8131000000
H   11.1183000000  0.6778000000  8.1811000000
H   11.7213000000 -0.7962000000  8.9311000000
H   10.3263000000 -0.0742000000  9.5301000000
H   17.3553000000 -2.7642000000 -0.6209000000
H   16.3753000000 -6.3042000000 -2.9929000000
H   14.4873000000 -6.7332000000 -1.5779000000
H   12.8783000000 -5.6272000000  0.4831000000
H   18.2613000000 -4.9422000000 -3.2189000000
C   10.5277528084 -4.7052577060  9.9928025148
O   12.8587528084 -5.0572577060  10.4808025148
C   11.8857528084 -4.6352577060  9.6348025148
O   8.3047528084 -4.1892577060  9.5208025148
C   12.3437528084 -3.9632577060  8.4548025148
O   7.0567528084 -2.2332577060  5.3208025148
C   11.3647528084 -3.4842577060  7.5978025148
O   5.3537528084 -3.4692577060  3.7538025148
C   9.9777528084 -3.5942577060  7.8648025148
O   7.2677528084 -5.7492577060 -0.0661974852
C   9.5817528084 -4.1722577060  9.0838025148
C   8.8055528084 -3.1884577060  7.0711025148
C   9.1447528084 -3.1542577060  5.7138025148
C   7.9197528084 -2.9692577060  4.9358025148
C   7.7537528084 -3.7502577060  3.6268025148
C   8.8777528084 -4.2792577060  2.9348025148
C   6.4457528084 -3.8932577060  3.0568025148
C   8.7037528084 -5.0392577060  1.7658025148
C   6.2817528084 -4.6502577060  1.8638025148
C   7.4417528084 -5.0772577060  1.1778025148
C   4.8857528084 -4.9792577060  1.4468025148
C   4.5007528084 -6.4252577060  1.1578025148
C   4.6787528084 -7.5242577060  1.9628025148
C   4.2107528084 -8.9012577060  1.5118025148
C   5.3837528084 -7.4312577060  3.3338025148
H   10.1627528084 -4.9652577060  10.9818025148
H   13.4167528084 -3.8252577060  8.3598025148
H   11.6747528084 -3.0392577060  6.6568025148
H   12.3957528084 -5.4952577060  11.2158025148
H   8.2507528084 -4.7752577060  10.2958025148
H   7.9137528084 -3.1392577060  7.4518025148
H   9.4107528084 -4.1902577060  5.5378025148
H   9.8627528084 -4.2362577060  3.3888025148
H   9.5297528084 -5.3582577060  1.1368025148
H   5.7567528084 -3.0622577060  4.5408025148
H   6.3267528084 -5.9292577060 -0.2331974852
H   4.0207528084 -4.6032577060  2.0068025148
H   4.7667528084 -4.4912577060  0.4718025148
H   3.8677528084 -6.6052577060  0.2918025148
H   3.7087528084 -9.4522577060  2.3168025148
H   5.1417528084 -9.4222577060  1.2578025148
H   3.4287528084 -8.8632577060  0.7428025148
H   6.3647528084 -7.9032577060  3.4688025148
H   4.7367528084 -7.8982577060  4.0868025148
H   5.3847528084 -6.4112577060  3.7378025148
84
Scanning combination 219/256: [1.7000, 2.2000]  Energy = -385.9069095846
O   11.1233000000 -4.8002000000  5.0341000000
O   11.3873000000 -0.2652000000  3.3291000000
O   18.1143000000 -4.2382000000 -2.5629000000
O   15.0523000000 -3.1142000000  0.9841000000
C   13.0053000000 -3.3232000000  2.3291000000
C   12.6993000000 -1.9792000000  2.4491000000
C   12.3973000000 -4.3072000000  3.1831000000
C   11.6323000000 -1.5992000000  3.2951000000
C   11.4783000000 -3.8632000000  4.1231000000
C   11.0613000000 -2.4802000000  4.2331000000
C   10.1223000000 -1.9712000000  5.2561000000
C   10.5373000000 -1.3232000000  6.3251000000
C   9.8643000000 -1.0622000000  7.5921000000
C   8.6825000000 -1.0450000000  7.8959000000
C   10.8123000000 -0.2992000000  8.5731000000
C   14.6833000000 -4.8512000000 -0.4449000000
C   15.5183000000 -3.8012000000 -0.0889000000
C   16.6953000000 -3.5982000000 -0.8399000000
C   16.9703000000 -4.4882000000 -1.8899000000
C   16.1523000000 -5.5962000000 -2.2009000000
C   14.9513000000 -5.7522000000 -1.5279000000
C   13.6583000000 -4.8752000000  0.4711000000
C   13.8893000000 -3.7772000000  1.2511000000
H   13.1623000000 -1.2452000000  1.7971000000
H   12.5583000000 -5.3772000000  3.0881000000
H   11.7383000000 -5.5442000000  4.9131000000
H   11.8513000000  0.1658000000  2.5901000000
H   9.4643000000 -1.3292000000  4.6731000000
H   11.4933000000 -0.8182000000  6.2071000000
H   7.9073000000 -0.9712000000  7.1161000000
H   8.2313000000 -0.9072000000  8.8131000000
H   11.1183000000  0.6778000000  8.1811000000
H   11.7213000000 -0.7962000000  8.9311000000
H   10.3263000000 -0.0742000000  9.5301000000
H   17.3553000000 -2.7642000000 -0.6209000000
H   16.3753000000 -6.3042000000 -2.9929000000
H   14.4873000000 -6.7332000000 -1.5779000000
H   12.8783000000 -5.6272000000  0.4831000000
H   18.2613000000 -4.9422000000 -3.2189000000
C   10.4634224755 -4.6313492922  10.0737129044
O   12.7944224755 -4.9833492922  10.5617129044
C   11.8214224755 -4.5613492922  9.7157129044
O   8.2404224755 -4.1153492922  9.6017129044
C   12.2794224755 -3.8893492922  8.5357129044
O   6.9924224755 -2.1593492922  5.4017129044
C   11.3004224755 -3.4103492922  7.6787129044
O   5.2894224755 -3.3953492922  3.8347129044
C   9.9134224755 -3.5203492922  7.9457129044
O   7.2034224755 -5.6753492922  0.0147129044
C   9.5174224755 -4.0983492922  9.1647129044
C   8.7412224755 -3.1145492922  7.1520129044
C   9.0804224755 -3.0803492922  5.7947129044
C   7.8554224755 -2.8953492922  5.0167129044
C   7.6894224755 -3.6763492922  3.7077129044
C   8.8134224755 -4.2053492922  3.0157129044
C   6.3814224755 -3.8193492922  3.1377129044
C   8.6394224755 -4.9653492922  1.8467129044
C   6.2174224755 -4.5763492922  1.9447129044
C   7.3774224755 -5.0033492922  1.2587129044
C   4.8214224755 -4.9053492922  1.5277129044
C   4.4364224755 -6.3513492922  1.2387129044
C   4.6144224755 -7.4503492922  2.0437129044
C   4.1464224755 -8.8273492922  1.5927129044
C   5.3194224755 -7.3573492922  3.4147129044
H   10.0984224755 -4.8913492922  11.0627129044
H   13.3524224755 -3.7513492922  8.4407129044
H   11.6104224755 -2.9653492922  6.7377129044
H   12.3314224755 -5.4213492922  11.2967129044
H   8.1864224755 -4.7013492922  10.3767129044
H   7.8494224755 -3.0653492922  7.5327129044
H   9.3464224755 -4.1163492922  5.6187129044
H   9.7984224755 -4.1623492922  3.4697129044
H   9.4654224755 -5.2843492922  1.2177129044
H   5.6924224755 -2.9883492922  4.6217129044
H   6.2624224755 -5.8553492922 -0.1522870956
H   3.9564224755 -4.5293492922  2.0877129044
H   4.7024224755 -4.4173492922  0.5527129044
H   3.8034224755 -6.5313492922  0.3727129044
H   3.6444224755 -9.3783492922  2.3977129044
H   5.0774224755 -9.3483492922  1.3387129044
H   3.3644224755 -8.7893492922  0.8237129044
H   6.3004224755 -7.8293492922  3.5497129044
H   4.6724224755 -7.8243492922  4.1677129044
H   5.3204224755 -6.3373492922  3.8187129044
84
Scanning combination 220/256: [1.7000, 2.1000]  Energy = -385.8921753164
O   11.1233000000 -4.8002000000  5.0341000000
O   11.3873000000 -0.2652000000  3.3291000000
O   18.1143000000 -4.2382000000 -2.5629000000
O   15.0523000000 -3.1142000000  0.9841000000
C   13.0053000000 -3.3232000000  2.3291000000
C   12.6993000000 -1.9792000000  2.4491000000
C   12.3973000000 -4.3072000000  3.1831000000
C   11.6323000000 -1.5992000000  3.2951000000
C   11.4783000000 -3.8632000000  4.1231000000
C   11.0613000000 -2.4802000000  4.2331000000
C   10.1223000000 -1.9712000000  5.2561000000
C   10.5373000000 -1.3232000000  6.3251000000
C   9.8643000000 -1.0622000000  7.5921000000
C   8.6825000000 -1.0450000000  7.8959000000
C   10.8123000000 -0.2992000000  8.5731000000
C   14.6833000000 -4.8512000000 -0.4449000000
C   15.5183000000 -3.8012000000 -0.0889000000
C   16.6953000000 -3.5982000000 -0.8399000000
C   16.9703000000 -4.4882000000 -1.8899000000
C   16.1523000000 -5.5962000000 -2.2009000000
C   14.9513000000 -5.7522000000 -1.5279000000
C   13.6583000000 -4.8752000000  0.4711000000
C   13.8893000000 -3.7772000000  1.2511000000
H   13.1623000000 -1.2452000000  1.7971000000
H   12.5583000000 -5.3772000000  3.0881000000
H   11.7383000000 -5.5442000000  4.9131000000
H   11.8513000000  0.1658000000  2.5901000000
H   9.4643000000 -1.3292000000  4.6731000000
H   11.4933000000 -0.8182000000  6.2071000000
H   7.9073000000 -0.9712000000  7.1161000000
H   8.2313000000 -0.9072000000  8.8131000000
H   11.1183000000  0.6778000000  8.1811000000
H   11.7213000000 -0.7962000000  8.9311000000
H   10.3263000000 -0.0742000000  9.5301000000
H   17.3553000000 -2.7642000000 -0.6209000000
H   16.3753000000 -6.3042000000 -2.9929000000
H   14.4873000000 -6.7332000000 -1.5779000000
H   12.8783000000 -5.6272000000  0.4831000000
H   18.2613000000 -4.9422000000 -3.2189000000
C   10.4078373127 -4.5523766954  10.1486814844
O   12.7388373127 -4.9043766954  10.6366814844
C   11.7658373127 -4.4823766954  9.7906814844
O   8.1848373127 -4.0363766954  9.6766814844
C   12.2238373127 -3.8103766954  8.6106814844
O   6.9368373127 -2.0803766954  5.4766814844
C   11.2448373127 -3.3313766954  7.7536814844
O   5.2338373127 -3.3163766954  3.9096814844
C   9.8578373127 -3.4413766954  8.0206814844
O   7.1478373127 -5.5963766954  0.0896814844
C   9.4618373127 -4.0193766954  9.2396814844
C   8.6856373127 -3.0355766954  7.2269814844
C   9.0248373127 -3.0013766954  5.8696814844
C   7.7998373127 -2.8163766954  5.0916814844
C   7.6338373127 -3.5973766954  3.7826814844
C   8.7578373127 -4.1263766954  3.0906814844
C   6.3258373127 -3.7403766954  3.2126814844
C   8.5838373127 -4.8863766954  1.9216814844
C   6.1618373127 -4.4973766954  2.0196814844
C   7.3218373127 -4.9243766954  1.3336814844
C   4.7658373127 -4.8263766954  1.6026814844
C   4.3808373127 -6.2723766954  1.3136814844
C   4.5588373127 -7.3713766954  2.1186814844
C   4.0908373127 -8.7483766954  1.6676814844
C   5.2638373127 -7.2783766954  3.4896814844
H   10.0428373127 -4.8123766954  11.1376814844
H   13.2968373127 -3.6723766954  8.5156814844
H   11.5548373127 -2.8863766954  6.8126814844
H   12.2758373127 -5.3423766954  11.3716814844
H   8.1308373127 -4.6223766954  10.4516814844
H   7.7938373127 -2.9863766954  7.6076814844
H   9.2908373127 -4.0373766954  5.6936814844
H   9.7428373127 -4.0833766954  3.5446814844
H   9.4098373127 -5.2053766954  1.2926814844
H   5.6368373127 -2.9093766954  4.6966814844
H   6.2068373127 -5.7763766954 -0.0773185156
H   3.9008373127 -4.4503766954  2.1626814844
H   4.6468373127 -4.3383766954  0.6276814844
H   3.7478373127 -6.4523766954  0.4476814844
H   3.5888373127 -9.2993766954  2.4726814844
H   5.0218373127 -9.2693766954  1.4136814844
H   3.3088373127 -8.7103766954  0.8986814844
H   6.2448373127 -7.7503766954  3.6246814844
H   4.6168373127 -7.7453766954  4.2426814844
H   5.2648373127 -6.2583766954  3.8936814844
84
Scanning combination 221/256: [1.7000, 2.0000]  Energy = -385.8716858622
O   11.1233000000 -4.8002000000  5.0341000000
O   11.3873000000 -0.2652000000  3.3291000000
O   18.1143000000 -4.2382000000 -2.5629000000
O   15.0523000000 -3.1142000000  0.9841000000
C   13.0053000000 -3.3232000000  2.3291000000
C   12.6993000000 -1.9792000000  2.4491000000
C   12.3973000000 -4.3072000000  3.1831000000
C   11.6323000000 -1.5992000000  3.2951000000
C   11.4783000000 -3.8632000000  4.1231000000
C   11.0613000000 -2.4802000000  4.2331000000
C   10.1223000000 -1.9712000000  5.2561000000
C   10.5373000000 -1.3232000000  6.3251000000
C   9.8643000000 -1.0622000000  7.5921000000
C   8.6825000000 -1.0450000000  7.8959000000
C   10.8123000000 -0.2992000000  8.5731000000
C   14.6833000000 -4.8512000000 -0.4449000000
C   15.5183000000 -3.8012000000 -0.0889000000
C   16.6953000000 -3.5982000000 -0.8399000000
C   16.9703000000 -4.4882000000 -1.8899000000
C   16.1523000000 -5.5962000000 -2.2009000000
C   14.9513000000 -5.7522000000 -1.5279000000
C   13.6583000000 -4.8752000000  0.4711000000
C   13.8893000000 -3.7772000000  1.2511000000
H   13.1623000000 -1.2452000000  1.7971000000
H   12.5583000000 -5.3772000000  3.0881000000
H   11.7383000000 -5.5442000000  4.9131000000
H   11.8513000000  0.1658000000  2.5901000000
H   9.4643000000 -1.3292000000  4.6731000000
H   11.4933000000 -0.8182000000  6.2071000000
H   7.9073000000 -0.9712000000  7.1161000000
H   8.2313000000 -0.9072000000  8.8131000000
H   11.1183000000  0.6778000000  8.1811000000
H   11.7213000000 -0.7962000000  8.9311000000
H   10.3263000000 -0.0742000000  9.5301000000
H   17.3553000000 -2.7642000000 -0.6209000000
H   16.3753000000 -6.3042000000 -2.9929000000
H   14.4873000000 -6.7332000000 -1.5779000000
H   12.8783000000 -5.6272000000  0.4831000000
H   18.2613000000 -4.9422000000 -3.2189000000
C   10.3605140578 -4.4692066120  10.2178402040
O   12.6915140578 -4.8212066120  10.7058402040
C   11.7185140578 -4.3992066120  9.8598402040
O   8.1375140578 -3.9532066120  9.7458402040
C   12.1765140578 -3.7272066120  8.6798402040
O   6.8895140578 -1.9972066120  5.5458402040
C   11.1975140578 -3.2482066120  7.8228402040
O   5.1865140578 -3.2332066120  3.9788402040
C   9.8105140578 -3.3582066120  8.0898402040
O   7.1005140578 -5.5132066120  0.1588402040
C   9.4145140578 -3.9362066120  9.3088402040
C   8.6383140578 -2.9524066120  7.2961402040
C   8.9775140578 -2.9182066120  5.9388402040
C   7.7525140578 -2.7332066120  5.1608402040
C   7.5865140578 -3.5142066120  3.8518402040
C   8.7105140578 -4.0432066120  3.1598402040
C   6.2785140578 -3.6572066120  3.2818402040
C   8.5365140578 -4.8032066120  1.9908402040
C   6.1145140578 -4.4142066120  2.0888402040
C   7.2745140578 -4.8412066120  1.4028402040
C   4.7185140578 -4.7432066120  1.6718402040
C   4.3335140578 -6.1892066120  1.3828402040
C   4.5115140578 -7.2882066120  2.1878402040
C   4.0435140578 -8.6652066120  1.7368402040
C   5.2165140578 -7.1952066120  3.5588402040
H   9.9955140578 -4.7292066120  11.2068402040
H   13.2495140578 -3.5892066120  8.5848402040
H   11.5075140578 -2.8032066120  6.8818402040
H   12.2285140578 -5.2592066120  11.4408402040
H   8.0835140578 -4.5392066120  10.5208402040
H   7.7465140578 -2.9032066120  7.6768402040
H   9.2435140578 -3.9542066120  5.7628402040
H   9.6955140578 -4.0002066120  3.6138402040
H   9.3625140578 -5.1222066120  1.3618402040
H   5.5895140578 -2.8262066120  4.7658402040
H   6.1595140578 -5.6932066120 -0.0081597960
H   3.8535140578 -4.3672066120  2.2318402040
H   4.5995140578 -4.2552066120  0.6968402040
H   3.7005140578 -6.3692066120  0.5168402040
H   3.5415140578 -9.2162066120  2.5418402040
H   4.9745140578 -9.1862066120  1.4828402040
H   3.2615140578 -8.6272066120  0.9678402040
H   6.1975140578 -7.6672066120  3.6938402040
H   4.5695140578 -7.6622066120  4.3118402040
H   5.2175140578 -6.1752066120  3.9628402040
84
Scanning combination 222/256: [1.7000, 1.9000]  Energy = -385.8461087938
O   11.1233000000 -4.8002000000  5.0341000000
O   11.3873000000 -0.2652000000  3.3291000000
O   18.1143000000 -4.2382000000 -2.5629000000
O   15.0523000000 -3.1142000000  0.9841000000
C   13.0053000000 -3.3232000000  2.3291000000
C   12.6993000000 -1.9792000000  2.4491000000
C   12.3973000000 -4.3072000000  3.1831000000
C   11.6323000000 -1.5992000000  3.2951000000
C   11.4783000000 -3.8632000000  4.1231000000
C   11.0613000000 -2.4802000000  4.2331000000
C   10.1223000000 -1.9712000000  5.2561000000
C   10.5373000000 -1.3232000000  6.3251000000
C   9.8643000000 -1.0622000000  7.5921000000
C   8.6825000000 -1.0450000000  7.8959000000
C   10.8123000000 -0.2992000000  8.5731000000
C   14.6833000000 -4.8512000000 -0.4449000000
C   15.5183000000 -3.8012000000 -0.0889000000
C   16.6953000000 -3.5982000000 -0.8399000000
C   16.9703000000 -4.4882000000 -1.8899000000
C   16.1523000000 -5.5962000000 -2.2009000000
C   14.9513000000 -5.7522000000 -1.5279000000
C   13.6583000000 -4.8752000000  0.4711000000
C   13.8893000000 -3.7772000000  1.2511000000
H   13.1623000000 -1.2452000000  1.7971000000
H   12.5583000000 -5.3772000000  3.0881000000
H   11.7383000000 -5.5442000000  4.9131000000
H   11.8513000000  0.1658000000  2.5901000000
H   9.4643000000 -1.3292000000  4.6731000000
H   11.4933000000 -0.8182000000  6.2071000000
H   7.9073000000 -0.9712000000  7.1161000000
H   8.2313000000 -0.9072000000  8.8131000000
H   11.1183000000  0.6778000000  8.1811000000
H   11.7213000000 -0.7962000000  8.9311000000
H   10.3263000000 -0.0742000000  9.5301000000
H   17.3553000000 -2.7642000000 -0.6209000000
H   16.3753000000 -6.3042000000 -2.9929000000
H   14.4873000000 -6.7332000000 -1.5779000000
H   12.8783000000 -5.6272000000  0.4831000000
H   18.2613000000 -4.9422000000 -3.2189000000
C   10.3207577210 -4.3826382696  10.2815284805
O   12.6517577210 -4.7346382696  10.7695284805
C   11.6787577210 -4.3126382696  9.9235284805
O   8.0977577210 -3.8666382696  9.8095284805
C   12.1367577210 -3.6406382696  8.7435284805
O   6.8497577210 -1.9106382696  5.6095284805
C   11.1577577210 -3.1616382696  7.8865284805
O   5.1467577210 -3.1466382696  4.0425284805
C   9.7707577210 -3.2716382696  8.1535284805
O   7.0607577210 -5.4266382696  0.2225284805
C   9.3747577210 -3.8496382696  9.3725284805
C   8.5985577210 -2.8658382696  7.3598284805
C   8.9377577210 -2.8316382696  6.0025284805
C   7.7127577210 -2.6466382696  5.2245284805
C   7.5467577210 -3.4276382696  3.9155284805
C   8.6707577210 -3.9566382696  3.2235284805
C   6.2387577210 -3.5706382696  3.3455284805
C   8.4967577210 -4.7166382696  2.0545284805
C   6.0747577210 -4.3276382696  2.1525284805
C   7.2347577210 -4.7546382696  1.4665284805
C   4.6787577210 -4.6566382696  1.7355284805
C   4.2937577210 -6.1026382696  1.4465284805
C   4.4717577210 -7.2016382696  2.2515284805
C   4.0037577210 -8.5786382696  1.8005284805
C   5.1767577210 -7.1086382696  3.6225284805
H   9.9557577210 -4.6426382696  11.2705284805
H   13.2097577210 -3.5026382696  8.6485284805
H   11.4677577210 -2.7166382696  6.9455284805
H   12.1887577210 -5.1726382696  11.5045284805
H   8.0437577210 -4.4526382696  10.5845284805
H   7.7067577210 -2.8166382696  7.7405284805
H   9.2037577210 -3.8676382696  5.8265284805
H   9.6557577210 -3.9136382696  3.6775284805
H   9.3227577210 -5.0356382696  1.4255284805
H   5.5497577210 -2.7396382696  4.8295284805
H   6.1197577210 -5.6066382696  0.0555284805
H   3.8137577210 -4.2806382696  2.2955284805
H   4.5597577210 -4.1686382696  0.7605284805
H   3.6607577210 -6.2826382696  0.5805284805
H   3.5017577210 -9.1296382696  2.6055284805
H   4.9347577210 -9.0996382696  1.5465284805
H   3.2217577210 -8.5406382696  1.0315284805
H   6.1577577210 -7.5806382696  3.7575284805
H   4.5297577210 -7.5756382696  4.3755284805
H   5.1777577210 -6.0886382696  4.0265284805
84
Scanning combination 223/256: [1.7000, 1.8000]  Energy = -385.8133720156
O   11.1233000000 -4.8002000000  5.0341000000
O   11.3873000000 -0.2652000000  3.3291000000
O   18.1143000000 -4.2382000000 -2.5629000000
O   15.0523000000 -3.1142000000  0.9841000000
C   13.0053000000 -3.3232000000  2.3291000000
C   12.6993000000 -1.9792000000  2.4491000000
C   12.3973000000 -4.3072000000  3.1831000000
C   11.6323000000 -1.5992000000  3.2951000000
C   11.4783000000 -3.8632000000  4.1231000000
C   11.0613000000 -2.4802000000  4.2331000000
C   10.1223000000 -1.9712000000  5.2561000000
C   10.5373000000 -1.3232000000  6.3251000000
C   9.8643000000 -1.0622000000  7.5921000000
C   8.6825000000 -1.0450000000  7.8959000000
C   10.8123000000 -0.2992000000  8.5731000000
C   14.6833000000 -4.8512000000 -0.4449000000
C   15.5183000000 -3.8012000000 -0.0889000000
C   16.6953000000 -3.5982000000 -0.8399000000
C   16.9703000000 -4.4882000000 -1.8899000000
C   16.1523000000 -5.5962000000 -2.2009000000
C   14.9513000000 -5.7522000000 -1.5279000000
C   13.6583000000 -4.8752000000  0.4711000000
C   13.8893000000 -3.7772000000  1.2511000000
H   13.1623000000 -1.2452000000  1.7971000000
H   12.5583000000 -5.3772000000  3.0881000000
H   11.7383000000 -5.5442000000  4.9131000000
H   11.8513000000  0.1658000000  2.5901000000
H   9.4643000000 -1.3292000000  4.6731000000
H   11.4933000000 -0.8182000000  6.2071000000
H   7.9073000000 -0.9712000000  7.1161000000
H   8.2313000000 -0.9072000000  8.8131000000
H   11.1183000000  0.6778000000  8.1811000000
H   11.7213000000 -0.7962000000  8.9311000000
H   10.3263000000 -0.0742000000  9.5301000000
H   17.3553000000 -2.7642000000 -0.6209000000
H   16.3753000000 -6.3042000000 -2.9929000000
H   14.4873000000 -6.7332000000 -1.5779000000
H   12.8783000000 -5.6272000000  0.4831000000
H   18.2613000000 -4.9422000000 -3.2189000000
C   10.2879285687 -4.2933366462  10.3400824085
O   12.6189285687 -4.6453366462  10.8280824085
C   11.6459285687 -4.2233366462  9.9820824085
O   8.0649285687 -3.7773366462  9.8680824085
C   12.1039285687 -3.5513366462  8.8020824085
O   6.8169285687 -1.8213366462  5.6680824085
C   11.1249285687 -3.0723366462  7.9450824085
O   5.1139285687 -3.0573366462  4.1010824085
C   9.7379285687 -3.1823366462  8.2120824085
O   7.0279285687 -5.3373366462  0.2810824085
C   9.3419285687 -3.7603366462  9.4310824085
C   8.5657285687 -2.7765366462  7.4183824085
C   8.9049285687 -2.7423366462  6.0610824085
C   7.6799285687 -2.5573366462  5.2830824085
C   7.5139285687 -3.3383366462  3.9740824085
C   8.6379285687 -3.8673366462  3.2820824085
C   6.2059285687 -3.4813366462  3.4040824085
C   8.4639285687 -4.6273366462  2.1130824085
C   6.0419285687 -4.2383366462  2.2110824085
C   7.2019285687 -4.6653366462  1.5250824085
C   4.6459285687 -4.5673366462  1.7940824085
C   4.2609285687 -6.0133366462  1.5050824085
C   4.4389285687 -7.1123366462  2.3100824085
C   3.9709285687 -8.4893366462  1.8590824085
C   5.1439285687 -7.0193366462  3.6810824085
H   9.9229285687 -4.5533366462  11.3290824085
H   13.1769285687 -3.4133366462  8.7070824085
H   11.4349285687 -2.6273366462  7.0040824085
H   12.1559285687 -5.0833366462  11.5630824085
H   8.0109285687 -4.3633366462  10.6430824085
H   7.6739285687 -2.7273366462  7.7990824085
H   9.1709285687 -3.7783366462  5.8850824085
H   9.6229285687 -3.8243366462  3.7360824085
H   9.2899285687 -4.9463366462  1.4840824085
H   5.5169285687 -2.6503366462  4.8880824085
H   6.0869285687 -5.5173366462  0.1140824085
H   3.7809285687 -4.1913366462  2.3540824085
H   4.5269285687 -4.0793366462  0.8190824085
H   3.6279285687 -6.1933366462  0.6390824085
H   3.4689285687 -9.0403366462  2.6640824085
H   4.9019285687 -9.0103366462  1.6050824085
H   3.1889285687 -8.4513366462  1.0900824085
H   6.1249285687 -7.4913366462  3.8160824085
H   4.4969285687 -7.4863366462  4.4340824085
H   5.1449285687 -5.9993366462  4.0850824085
84
Scanning combination 224/256: [1.7000, 1.7000]  Energy = -385.7723425623
O   11.1233000000 -4.8002000000  5.0341000000
O   11.3873000000 -0.2652000000  3.3291000000
O   18.1143000000 -4.2382000000 -2.5629000000
O   15.0523000000 -3.1142000000  0.9841000000
C   13.0053000000 -3.3232000000  2.3291000000
C   12.6993000000 -1.9792000000  2.4491000000
C   12.3973000000 -4.3072000000  3.1831000000
C   11.6323000000 -1.5992000000  3.2951000000
C   11.4783000000 -3.8632000000  4.1231000000
C   11.0613000000 -2.4802000000  4.2331000000
C   10.1223000000 -1.9712000000  5.2561000000
C   10.5373000000 -1.3232000000  6.3251000000
C   9.8643000000 -1.0622000000  7.5921000000
C   8.6825000000 -1.0450000000  7.8959000000
C   10.8123000000 -0.2992000000  8.5731000000
C   14.6833000000 -4.8512000000 -0.4449000000
C   15.5183000000 -3.8012000000 -0.0889000000
C   16.6953000000 -3.5982000000 -0.8399000000
C   16.9703000000 -4.4882000000 -1.8899000000
C   16.1523000000 -5.5962000000 -2.2009000000
C   14.9513000000 -5.7522000000 -1.5279000000
C   13.6583000000 -4.8752000000  0.4711000000
C   13.8893000000 -3.7772000000  1.2511000000
H   13.1623000000 -1.2452000000  1.7971000000
H   12.5583000000 -5.3772000000  3.0881000000
H   11.7383000000 -5.5442000000  4.9131000000
H   11.8513000000  0.1658000000  2.5901000000
H   9.4643000000 -1.3292000000  4.6731000000
H   11.4933000000 -0.8182000000  6.2071000000
H   7.9073000000 -0.9712000000  7.1161000000
H   8.2313000000 -0.9072000000  8.8131000000
H   11.1183000000  0.6778000000  8.1811000000
H   11.7213000000 -0.7962000000  8.9311000000
H   10.3263000000 -0.0742000000  9.5301000000
H   17.3553000000 -2.7642000000 -0.6209000000
H   16.3753000000 -6.3042000000 -2.9929000000
H   14.4873000000 -6.7332000000 -1.5779000000
H   12.8783000000 -5.6272000000  0.4831000000
H   18.2613000000 -4.9422000000 -3.2189000000
C   10.2615034811 -4.2018466198  10.3937764440
O   12.5925034811 -4.5538466198  10.8817764440
C   11.6195034811 -4.1318466198  10.0357764440
O   8.0385034811 -3.6858466198  9.9217764440
C   12.0775034811 -3.4598466198  8.8557764440
O   6.7905034811 -1.7298466198  5.7217764440
C   11.0985034811 -2.9808466198  7.9987764440
O   5.0875034811 -2.9658466198  4.1547764440
C   9.7115034811 -3.0908466198  8.2657764440
O   7.0015034811 -5.2458466198  0.3347764440
C   9.3155034811 -3.6688466198  9.4847764440
C   8.5393034811 -2.6850466198  7.4720764440
C   8.8785034811 -2.6508466198  6.1147764440
C   7.6535034811 -2.4658466198  5.3367764440
C   7.4875034811 -3.2468466198  4.0277764440
C   8.6115034811 -3.7758466198  3.3357764440
C   6.1795034811 -3.3898466198  3.4577764440
C   8.4375034811 -4.5358466198  2.1667764440
C   6.0155034811 -4.1468466198  2.2647764440
C   7.1755034811 -4.5738466198  1.5787764440
C   4.6195034811 -4.4758466198  1.8477764440
C   4.2345034811 -5.9218466198  1.5587764440
C   4.4125034811 -7.0208466198  2.3637764440
C   3.9445034811 -8.3978466198  1.9127764440
C   5.1175034811 -6.9278466198  3.7347764440
H   9.8965034811 -4.4618466198  11.3827764440
H   13.1505034811 -3.3218466198  8.7607764440
H   11.4085034811 -2.5358466198  7.0577764440
H   12.1295034811 -4.9918466198  11.6167764440
H   7.9845034811 -4.2718466198  10.6967764440
H   7.6475034811 -2.6358466198  7.8527764440
H   9.1445034811 -3.6868466198  5.9387764440
H   9.5965034811 -3.7328466198  3.7897764440
H   9.2635034811 -4.8548466198  1.5377764440
H   5.4905034811 -2.5588466198  4.9417764440
H   6.0605034811 -5.4258466198  0.1677764440
H   3.7545034811 -4.0998466198  2.4077764440
H   4.5005034811 -3.9878466198  0.8727764440
H   3.6015034811 -6.1018466198  0.6927764440
H   3.4425034811 -8.9488466198  2.7177764440
H   4.8755034811 -8.9188466198  1.6587764440
H   3.1625034811 -8.3598466198  1.1437764440
H   6.0985034811 -7.3998466198  3.8697764440
H   4.4705034811 -7.3948466198  4.4877764440
H   5.1185034811 -5.9078466198  4.1387764440
84
Scanning combination 225/256: [1.7000, 1.6000]  Energy = -385.7193106409
O   11.1233000000 -4.8002000000  5.0341000000
O   11.3873000000 -0.2652000000  3.3291000000
O   18.1143000000 -4.2382000000 -2.5629000000
O   15.0523000000 -3.1142000000  0.9841000000
C   13.0053000000 -3.3232000000  2.3291000000
C   12.6993000000 -1.9792000000  2.4491000000
C   12.3973000000 -4.3072000000  3.1831000000
C   11.6323000000 -1.5992000000  3.2951000000
C   11.4783000000 -3.8632000000  4.1231000000
C   11.0613000000 -2.4802000000  4.2331000000
C   10.1223000000 -1.9712000000  5.2561000000
C   10.5373000000 -1.3232000000  6.3251000000
C   9.8643000000 -1.0622000000  7.5921000000
C   8.6825000000 -1.0450000000  7.8959000000
C   10.8123000000 -0.2992000000  8.5731000000
C   14.6833000000 -4.8512000000 -0.4449000000
C   15.5183000000 -3.8012000000 -0.0889000000
C   16.6953000000 -3.5982000000 -0.8399000000
C   16.9703000000 -4.4882000000 -1.8899000000
C   16.1523000000 -5.5962000000 -2.2009000000
C   14.9513000000 -5.7522000000 -1.5279000000
C   13.6583000000 -4.8752000000  0.4711000000
C   13.8893000000 -3.7772000000  1.2511000000
H   13.1623000000 -1.2452000000  1.7971000000
H   12.5583000000 -5.3772000000  3.0881000000
H   11.7383000000 -5.5442000000  4.9131000000
H   11.8513000000  0.1658000000  2.5901000000
H   9.4643000000 -1.3292000000  4.6731000000
H   11.4933000000 -0.8182000000  6.2071000000
H   7.9073000000 -0.9712000000  7.1161000000
H   8.2313000000 -0.9072000000  8.8131000000
H   11.1183000000  0.6778000000  8.1811000000
H   11.7213000000 -0.7962000000  8.9311000000
H   10.3263000000 -0.0742000000  9.5301000000
H   17.3553000000 -2.7642000000 -0.6209000000
H   16.3753000000 -6.3042000000 -2.9929000000
H   14.4873000000 -6.7332000000 -1.5779000000
H   12.8783000000 -5.6272000000  0.4831000000
H   18.2613000000 -4.9422000000 -3.2189000000
C   10.2410615710 -4.1086220462  10.4428262319
O   12.5720615710 -4.4606220462  10.9308262319
C   11.5990615710 -4.0386220462  10.0848262319
O   8.0180615710 -3.5926220462  9.9708262319
C   12.0570615710 -3.3666220462  8.9048262319
O   6.7700615710 -1.6366220462  5.7708262319
C   11.0780615710 -2.8876220462  8.0478262319
O   5.0670615710 -2.8726220462  4.2038262319
C   9.6910615710 -2.9976220462  8.3148262319
O   6.9810615710 -5.1526220462  0.3838262319
C   9.2950615710 -3.5756220462  9.5338262319
C   8.5188615710 -2.5918220462  7.5211262319
C   8.8580615710 -2.5576220462  6.1638262319
C   7.6330615710 -2.3726220462  5.3858262319
C   7.4670615710 -3.1536220462  4.0768262319
C   8.5910615710 -3.6826220462  3.3848262319
C   6.1590615710 -3.2966220462  3.5068262319
C   8.4170615710 -4.4426220462  2.2158262319
C   5.9950615710 -4.0536220462  2.3138262319
C   7.1550615710 -4.4806220462  1.6278262319
C   4.5990615710 -4.3826220462  1.8968262319
C   4.2140615710 -5.8286220462  1.6078262319
C   4.3920615710 -6.9276220462  2.4128262319
C   3.9240615710 -8.3046220462  1.9618262319
C   5.0970615710 -6.8346220462  3.7838262319
H   9.8760615710 -4.3686220462  11.4318262319
H   13.1300615710 -3.2286220462  8.8098262319
H   11.3880615710 -2.4426220462  7.1068262319
H   12.1090615710 -4.8986220462  11.6658262319
H   7.9640615710 -4.1786220462  10.7458262319
H   7.6270615710 -2.5426220462  7.9018262319
H   9.1240615710 -3.5936220462  5.9878262319
H   9.5760615710 -3.6396220462  3.8388262319
H   9.2430615710 -4.7616220462  1.5868262319
H   5.4700615710 -2.4656220462  4.9908262319
H   6.0400615710 -5.3326220462  0.2168262319
H   3.7340615710 -4.0066220462  2.4568262319
H   4.4800615710 -3.8946220462  0.9218262319
H   3.5810615710 -6.0086220462  0.7418262319
H   3.4220615710 -8.8556220462  2.7668262319
H   4.8550615710 -8.8256220462  1.7078262319
H   3.1420615710 -8.2666220462  1.1928262319
H   6.0780615710 -7.3066220462  3.9188262319
H   4.4500615710 -7.3016220462  4.5368262319
H   5.0980615710 -5.8146220462  4.1878262319
84
Scanning combination 226/256: [1.7000, 1.5000]  Energy = -385.6485656496
O   11.1233000000 -4.8002000000  5.0341000000
O   11.3873000000 -0.2652000000  3.3291000000
O   18.1143000000 -4.2382000000 -2.5629000000
O   15.0523000000 -3.1142000000  0.9841000000
C   13.0053000000 -3.3232000000  2.3291000000
C   12.6993000000 -1.9792000000  2.4491000000
C   12.3973000000 -4.3072000000  3.1831000000
C   11.6323000000 -1.5992000000  3.2951000000
C   11.4783000000 -3.8632000000  4.1231000000
C   11.0613000000 -2.4802000000  4.2331000000
C   10.1223000000 -1.9712000000  5.2561000000
C   10.5373000000 -1.3232000000  6.3251000000
C   9.8643000000 -1.0622000000  7.5921000000
C   8.6825000000 -1.0450000000  7.8959000000
C   10.8123000000 -0.2992000000  8.5731000000
C   14.6833000000 -4.8512000000 -0.4449000000
C   15.5183000000 -3.8012000000 -0.0889000000
C   16.6953000000 -3.5982000000 -0.8399000000
C   16.9703000000 -4.4882000000 -1.8899000000
C   16.1523000000 -5.5962000000 -2.2009000000
C   14.9513000000 -5.7522000000 -1.5279000000
C   13.6583000000 -4.8752000000  0.4711000000
C   13.8893000000 -3.7772000000  1.2511000000
H   13.1623000000 -1.2452000000  1.7971000000
H   12.5583000000 -5.3772000000  3.0881000000
H   11.7383000000 -5.5442000000  4.9131000000
H   11.8513000000  0.1658000000  2.5901000000
H   9.4643000000 -1.3292000000  4.6731000000
H   11.4933000000 -0.8182000000  6.2071000000
H   7.9073000000 -0.9712000000  7.1161000000
H   8.2313000000 -0.9072000000  8.8131000000
H   11.1183000000  0.6778000000  8.1811000000
H   11.7213000000 -0.7962000000  8.9311000000
H   10.3263000000 -0.0742000000  9.5301000000
H   17.3553000000 -2.7642000000 -0.6209000000
H   16.3753000000 -6.3042000000 -2.9929000000
H   14.4873000000 -6.7332000000 -1.5779000000
H   12.8783000000 -5.6272000000  0.4831000000
H   18.2613000000 -4.9422000000 -3.2189000000
C   10.2262565765 -4.0140490485  10.4874049191
O   12.5572565765 -4.3660490485  10.9754049191
C   11.5842565765 -3.9440490485  10.1294049191
O   8.0032565765 -3.4980490485  10.0154049191
C   12.0422565765 -3.2720490485  8.9494049191
O   6.7552565765 -1.5420490485  5.8154049191
C   11.0632565765 -2.7930490485  8.0924049191
O   5.0522565765 -2.7780490485  4.2484049191
C   9.6762565765 -2.9030490485  8.3594049191
O   6.9662565765 -5.0580490485  0.4284049191
C   9.2802565765 -3.4810490485  9.5784049191
C   8.5040565765 -2.4972490485  7.5657049191
C   8.8432565765 -2.4630490485  6.2084049191
C   7.6182565765 -2.2780490485  5.4304049191
C   7.4522565765 -3.0590490485  4.1214049191
C   8.5762565765 -3.5880490485  3.4294049191
C   6.1442565765 -3.2020490485  3.5514049191
C   8.4022565765 -4.3480490485  2.2604049191
C   5.9802565765 -3.9590490485  2.3584049191
C   7.1402565765 -4.3860490485  1.6724049191
C   4.5842565765 -4.2880490485  1.9414049191
C   4.1992565765 -5.7340490485  1.6524049191
C   4.3772565765 -6.8330490485  2.4574049191
C   3.9092565765 -8.2100490485  2.0064049191
C   5.0822565765 -6.7400490485  3.8284049191
H   9.8612565765 -4.2740490485  11.4764049191
H   13.1152565765 -3.1340490485  8.8544049191
H   11.3732565765 -2.3480490485  7.1514049191
H   12.0942565765 -4.8040490485  11.7104049191
H   7.9492565765 -4.0840490485  10.7904049191
H   7.6122565765 -2.4480490485  7.9464049191
H   9.1092565765 -3.4990490485  6.0324049191
H   9.5612565765 -3.5450490485  3.8834049191
H   9.2282565765 -4.6670490485  1.6314049191
H   5.4552565765 -2.3710490485  5.0354049191
H   6.0252565765 -5.2380490485  0.2614049191
H   3.7192565765 -3.9120490485  2.5014049191
H   4.4652565765 -3.8000490485  0.9664049191
H   3.5662565765 -5.9140490485  0.7864049191
H   3.4072565765 -8.7610490485  2.8114049191
H   4.8402565765 -8.7310490485  1.7524049191
H   3.1272565765 -8.1720490485  1.2374049191
H   6.0632565765 -7.2120490485  3.9634049191
H   4.4352565765 -7.2070490485  4.5814049191
H   5.0832565765 -5.7200490485  4.2324049191
84
Scanning combination 227/256: [1.6000, 2.9000]  Energy = -385.7531527277
O   11.1233000000 -4.8002000000  5.0341000000
O   11.3873000000 -0.2652000000  3.3291000000
O   18.1143000000 -4.2382000000 -2.5629000000
O   15.0523000000 -3.1142000000  0.9841000000
C   13.0053000000 -3.3232000000  2.3291000000
C   12.6993000000 -1.9792000000  2.4491000000
C   12.3973000000 -4.3072000000  3.1831000000
C   11.6323000000 -1.5992000000  3.2951000000
C   11.4783000000 -3.8632000000  4.1231000000
C   11.0613000000 -2.4802000000  4.2331000000
C   10.1223000000 -1.9712000000  5.2561000000
C   10.5373000000 -1.3232000000  6.3251000000
C   9.8643000000 -1.0622000000  7.5921000000
C   8.6825000000 -1.0450000000  7.8959000000
C   10.8123000000 -0.2992000000  8.5731000000
C   14.6833000000 -4.8512000000 -0.4449000000
C   15.5183000000 -3.8012000000 -0.0889000000
C   16.6953000000 -3.5982000000 -0.8399000000
C   16.9703000000 -4.4882000000 -1.8899000000
C   16.1523000000 -5.5962000000 -2.2009000000
C   14.9513000000 -5.7522000000 -1.5279000000
C   13.6583000000 -4.8752000000  0.4711000000
C   13.8893000000 -3.7772000000  1.2511000000
H   13.1623000000 -1.2452000000  1.7971000000
H   12.5583000000 -5.3772000000  3.0881000000
H   11.7383000000 -5.5442000000  4.9131000000
H   11.8513000000  0.1658000000  2.5901000000
H   9.4643000000 -1.3292000000  4.6731000000
H   11.4933000000 -0.8182000000  6.2071000000
H   7.9073000000 -0.9712000000  7.1161000000
H   8.2313000000 -0.9072000000  8.8131000000
H   11.1183000000  0.6778000000  8.1811000000
H   11.7213000000 -0.7962000000  8.9311000000
H   10.3263000000 -0.0742000000  9.5301000000
H   17.3553000000 -2.7642000000 -0.6209000000
H   16.3753000000 -6.3042000000 -2.9929000000
H   14.4873000000 -6.7332000000 -1.5779000000
H   12.8783000000 -5.6272000000  0.4831000000
H   18.2613000000 -4.9422000000 -3.2189000000
C   11.0134082461 -5.0477783935  9.4540792710
O   13.3444082461 -5.3997783935  9.9420792710
C   12.3714082461 -4.9777783935  9.0960792710
O   8.7904082461 -4.5317783935  8.9820792710
C   12.8294082461 -4.3057783935  7.9160792710
O   7.5424082461 -2.5757783935  4.7820792710
C   11.8504082461 -3.8267783935  7.0590792710
O   5.8394082461 -3.8117783935  3.2150792710
C   10.4634082461 -3.9367783935  7.3260792710
O   7.7534082461 -6.0917783935 -0.6049207290
C   10.0674082461 -4.5147783935  8.5450792710
C   9.2912082461 -3.5309783935  6.5323792710
C   9.6304082461 -3.4967783935  5.1750792710
C   8.4054082461 -3.3117783935  4.3970792710
C   8.2394082461 -4.0927783935  3.0880792710
C   9.3634082461 -4.6217783935  2.3960792710
C   6.9314082461 -4.2357783935  2.5180792710
C   9.1894082461 -5.3817783935  1.2270792710
C   6.7674082461 -4.9927783935  1.3250792710
C   7.9274082461 -5.4197783935  0.6390792710
C   5.3714082461 -5.3217783935  0.9080792710
C   4.9864082461 -6.7677783935  0.6190792710
C   5.1644082461 -7.8667783935  1.4240792710
C   4.6964082461 -9.2437783935  0.9730792710
C   5.8694082461 -7.7737783935  2.7950792710
H   10.6484082461 -5.3077783935  10.4430792710
H   13.9024082461 -4.1677783935  7.8210792710
H   12.1604082461 -3.3817783935  6.1180792710
H   12.8814082461 -5.8377783935  10.6770792710
H   8.7364082461 -5.1177783935  9.7570792710
H   8.3994082461 -3.4817783935  6.9130792710
H   9.8964082461 -4.5327783935  4.9990792710
H   10.3484082461 -4.5787783935  2.8500792710
H   10.0154082461 -5.7007783935  0.5980792710
H   6.2424082461 -3.4047783935  4.0020792710
H   6.8124082461 -6.2717783935 -0.7719207290
H   4.5064082461 -4.9457783935  1.4680792710
H   5.2524082461 -4.8337783935 -0.0669207290
H   4.3534082461 -6.9477783935 -0.2469207290
H   4.1944082461 -9.7947783935  1.7780792710
H   5.6274082461 -9.7647783935  0.7190792710
H   3.9144082461 -9.2057783935  0.2040792710
H   6.8504082461 -8.2457783935  2.9300792710
H   5.2224082461 -8.2407783935  3.5480792710
H   5.8704082461 -6.7537783935  3.1990792710
84
Scanning combination 228/256: [1.6000, 2.8000]  Energy = -385.7684620615
O   11.1233000000 -4.8002000000  5.0341000000
O   11.3873000000 -0.2652000000  3.3291000000
O   18.1143000000 -4.2382000000 -2.5629000000
O   15.0523000000 -3.1142000000  0.9841000000
C   13.0053000000 -3.3232000000  2.3291000000
C   12.6993000000 -1.9792000000  2.4491000000
C   12.3973000000 -4.3072000000  3.1831000000
C   11.6323000000 -1.5992000000  3.2951000000
C   11.4783000000 -3.8632000000  4.1231000000
C   11.0613000000 -2.4802000000  4.2331000000
C   10.1223000000 -1.9712000000  5.2561000000
C   10.5373000000 -1.3232000000  6.3251000000
C   9.8643000000 -1.0622000000  7.5921000000
C   8.6825000000 -1.0450000000  7.8959000000
C   10.8123000000 -0.2992000000  8.5731000000
C   14.6833000000 -4.8512000000 -0.4449000000
C   15.5183000000 -3.8012000000 -0.0889000000
C   16.6953000000 -3.5982000000 -0.8399000000
C   16.9703000000 -4.4882000000 -1.8899000000
C   16.1523000000 -5.5962000000 -2.2009000000
C   14.9513000000 -5.7522000000 -1.5279000000
C   13.6583000000 -4.8752000000  0.4711000000
C   13.8893000000 -3.7772000000  1.2511000000
H   13.1623000000 -1.2452000000  1.7971000000
H   12.5583000000 -5.3772000000  3.0881000000
H   11.7383000000 -5.5442000000  4.9131000000
H   11.8513000000  0.1658000000  2.5901000000
H   9.4643000000 -1.3292000000  4.6731000000
H   11.4933000000 -0.8182000000  6.2071000000
H   7.9073000000 -0.9712000000  7.1161000000
H   8.2313000000 -0.9072000000  8.8131000000
H   11.1183000000  0.6778000000  8.1811000000
H   11.7213000000 -0.7962000000  8.9311000000
H   10.3263000000 -0.0742000000  9.5301000000
H   17.3553000000 -2.7642000000 -0.6209000000
H   16.3753000000 -6.3042000000 -2.9929000000
H   14.4873000000 -6.7332000000 -1.5779000000
H   12.8783000000 -5.6272000000  0.4831000000
H   18.2613000000 -4.9422000000 -3.2189000000
C   10.9946496763 -4.9606876392  9.4996063185
O   13.3256496763 -5.3126876392  9.9876063185
C   12.3526496763 -4.8906876392  9.1416063185
O   8.7716496763 -4.4446876392  9.0276063185
C   12.8106496763 -4.2186876392  7.9616063185
O   7.5236496763 -2.4886876392  4.8276063185
C   11.8316496763 -3.7396876392  7.1046063185
O   5.8206496763 -3.7246876392  3.2606063185
C   10.4446496763 -3.8496876392  7.3716063185
O   7.7346496763 -6.0046876392 -0.5593936815
C   10.0486496763 -4.4276876392  8.5906063185
C   9.2724496763 -3.4438876392  6.5779063185
C   9.6116496763 -3.4096876392  5.2206063185
C   8.3866496763 -3.2246876392  4.4426063185
C   8.2206496763 -4.0056876392  3.1336063185
C   9.3446496763 -4.5346876392  2.4416063185
C   6.9126496763 -4.1486876392  2.5636063185
C   9.1706496763 -5.2946876392  1.2726063185
C   6.7486496763 -4.9056876392  1.3706063185
C   7.9086496763 -5.3326876392  0.6846063185
C   5.3526496763 -5.2346876392  0.9536063185
C   4.9676496763 -6.6806876392  0.6646063185
C   5.1456496763 -7.7796876392  1.4696063185
C   4.6776496763 -9.1566876392  1.0186063185
C   5.8506496763 -7.6866876392  2.8406063185
H   10.6296496763 -5.2206876392  10.4886063185
H   13.8836496763 -4.0806876392  7.8666063185
H   12.1416496763 -3.2946876392  6.1636063185
H   12.8626496763 -5.7506876392  10.7226063185
H   8.7176496763 -5.0306876392  9.8026063185
H   8.3806496763 -3.3946876392  6.9586063185
H   9.8776496763 -4.4456876392  5.0446063185
H   10.3296496763 -4.4916876392  2.8956063185
H   9.9966496763 -5.6136876392  0.6436063185
H   6.2236496763 -3.3176876392  4.0476063185
H   6.7936496763 -6.1846876392 -0.7263936815
H   4.4876496763 -4.8586876392  1.5136063185
H   5.2336496763 -4.7466876392 -0.0213936815
H   4.3346496763 -6.8606876392 -0.2013936815
H   4.1756496763 -9.7076876392  1.8236063185
H   5.6086496763 -9.6776876392  0.7646063185
H   3.8956496763 -9.1186876392  0.2496063185
H   6.8316496763 -8.1586876392  2.9756063185
H   5.2036496763 -8.1536876392  3.5936063185
H   5.8516496763 -6.6666876392  3.2446063185
84
Scanning combination 229/256: [1.6000, 2.7000]  Energy = -385.8001044985
O   11.1233000000 -4.8002000000  5.0341000000
O   11.3873000000 -0.2652000000  3.3291000000
O   18.1143000000 -4.2382000000 -2.5629000000
O   15.0523000000 -3.1142000000  0.9841000000
C   13.0053000000 -3.3232000000  2.3291000000
C   12.6993000000 -1.9792000000  2.4491000000
C   12.3973000000 -4.3072000000  3.1831000000
C   11.6323000000 -1.5992000000  3.2951000000
C   11.4783000000 -3.8632000000  4.1231000000
C   11.0613000000 -2.4802000000  4.2331000000
C   10.1223000000 -1.9712000000  5.2561000000
C   10.5373000000 -1.3232000000  6.3251000000
C   9.8643000000 -1.0622000000  7.5921000000
C   8.6825000000 -1.0450000000  7.8959000000
C   10.8123000000 -0.2992000000  8.5731000000
C   14.6833000000 -4.8512000000 -0.4449000000
C   15.5183000000 -3.8012000000 -0.0889000000
C   16.6953000000 -3.5982000000 -0.8399000000
C   16.9703000000 -4.4882000000 -1.8899000000
C   16.1523000000 -5.5962000000 -2.2009000000
C   14.9513000000 -5.7522000000 -1.5279000000
C   13.6583000000 -4.8752000000  0.4711000000
C   13.8893000000 -3.7772000000  1.2511000000
H   13.1623000000 -1.2452000000  1.7971000000
H   12.5583000000 -5.3772000000  3.0881000000
H   11.7383000000 -5.5442000000  4.9131000000
H   11.8513000000  0.1658000000  2.5901000000
H   9.4643000000 -1.3292000000  4.6731000000
H   11.4933000000 -0.8182000000  6.2071000000
H   7.9073000000 -0.9712000000  7.1161000000
H   8.2313000000 -0.9072000000  8.8131000000
H   11.1183000000  0.6778000000  8.1811000000
H   11.7213000000 -0.7962000000  8.9311000000
H   10.3263000000 -0.0742000000  9.5301000000
H   17.3553000000 -2.7642000000 -0.6209000000
H   16.3753000000 -6.3042000000 -2.9929000000
H   14.4873000000 -6.7332000000 -1.5779000000
H   12.8783000000 -5.6272000000  0.4831000000
H   18.2613000000 -4.9422000000 -3.2189000000
C   10.9394450951 -4.8955504356  9.5696123204
O   13.2704450951 -5.2475504356  10.0576123204
C   12.2974450951 -4.8255504356  9.2116123204
O   8.7164450951 -4.3795504356  9.0976123204
C   12.7554450951 -4.1535504356  8.0316123204
O   7.4684450951 -2.4235504356  4.8976123204
C   11.7764450951 -3.6745504356  7.1746123204
O   5.7654450951 -3.6595504356  3.3306123204
C   10.3894450951 -3.7845504356  7.4416123204
O   7.6794450951 -5.9395504356 -0.4893876796
C   9.9934450951 -4.3625504356  8.6606123204
C   9.2172450951 -3.3787504356  6.6479123204
C   9.5564450951 -3.3445504356  5.2906123204
C   8.3314450951 -3.1595504356  4.5126123204
C   8.1654450951 -3.9405504356  3.2036123204
C   9.2894450951 -4.4695504356  2.5116123204
C   6.8574450951 -4.0835504356  2.6336123204
C   9.1154450951 -5.2295504356  1.3426123204
C   6.6934450951 -4.8405504356  1.4406123204
C   7.8534450951 -5.2675504356  0.7546123204
C   5.2974450951 -5.1695504356  1.0236123204
C   4.9124450951 -6.6155504356  0.7346123204
C   5.0904450951 -7.7145504356  1.5396123204
C   4.6224450951 -9.0915504356  1.0886123204
C   5.7954450951 -7.6215504356  2.9106123204
H   10.5744450951 -5.1555504356  10.5586123204
H   13.8284450951 -4.0155504356  7.9366123204
H   12.0864450951 -3.2295504356  6.2336123204
H   12.8074450951 -5.6855504356  10.7926123204
H   8.6624450951 -4.9655504356  9.8726123204
H   8.3254450951 -3.3295504356  7.0286123204
H   9.8224450951 -4.3805504356  5.1146123204
H   10.2744450951 -4.4265504356  2.9656123204
H   9.9414450951 -5.5485504356  0.7136123204
H   6.1684450951 -3.2525504356  4.1176123204
H   6.7384450951 -6.1195504356 -0.6563876796
H   4.4324450951 -4.7935504356  1.5836123204
H   5.1784450951 -4.6815504356  0.0486123204
H   4.2794450951 -6.7955504356 -0.1313876796
H   4.1204450951 -9.6425504356  1.8936123204
H   5.5534450951 -9.6125504356  0.8346123204
H   3.8404450951 -9.0535504356  0.3196123204
H   6.7764450951 -8.0935504356  3.0456123204
H   5.1484450951 -8.0885504356  3.6636123204
H   5.7964450951 -6.6015504356  3.3146123204
84
Scanning combination 230/256: [1.6000, 2.6000]  Energy = -385.8351141211
O   11.1233000000 -4.8002000000  5.0341000000
O   11.3873000000 -0.2652000000  3.3291000000
O   18.1143000000 -4.2382000000 -2.5629000000
O   15.0523000000 -3.1142000000  0.9841000000
C   13.0053000000 -3.3232000000  2.3291000000
C   12.6993000000 -1.9792000000  2.4491000000
C   12.3973000000 -4.3072000000  3.1831000000
C   11.6323000000 -1.5992000000  3.2951000000
C   11.4783000000 -3.8632000000  4.1231000000
C   11.0613000000 -2.4802000000  4.2331000000
C   10.1223000000 -1.9712000000  5.2561000000
C   10.5373000000 -1.3232000000  6.3251000000
C   9.8643000000 -1.0622000000  7.5921000000
C   8.6825000000 -1.0450000000  7.8959000000
C   10.8123000000 -0.2992000000  8.5731000000
C   14.6833000000 -4.8512000000 -0.4449000000
C   15.5183000000 -3.8012000000 -0.0889000000
C   16.6953000000 -3.5982000000 -0.8399000000
C   16.9703000000 -4.4882000000 -1.8899000000
C   16.1523000000 -5.5962000000 -2.2009000000
C   14.9513000000 -5.7522000000 -1.5279000000
C   13.6583000000 -4.8752000000  0.4711000000
C   13.8893000000 -3.7772000000  1.2511000000
H   13.1623000000 -1.2452000000  1.7971000000
H   12.5583000000 -5.3772000000  3.0881000000
H   11.7383000000 -5.5442000000  4.9131000000
H   11.8513000000  0.1658000000  2.5901000000
H   9.4643000000 -1.3292000000  4.6731000000
H   11.4933000000 -0.8182000000  6.2071000000
H   7.9073000000 -0.9712000000  7.1161000000
H   8.2313000000 -0.9072000000  8.8131000000
H   11.1183000000  0.6778000000  8.1811000000
H   11.7213000000 -0.7962000000  8.9311000000
H   10.3263000000 -0.0742000000  9.5301000000
H   17.3553000000 -2.7642000000 -0.6209000000
H   16.3753000000 -6.3042000000 -2.9929000000
H   14.4873000000 -6.7332000000 -1.5779000000
H   12.8783000000 -5.6272000000  0.4831000000
H   18.2613000000 -4.9422000000 -3.2189000000
C   10.8636812800 -4.8410952056  9.6539965445
O   13.1946812800 -5.1930952056  10.1419965445
C   12.2216812800 -4.7710952056  9.2959965445
O   8.6406812800 -4.3250952056  9.1819965445
C   12.6796812800 -4.0990952056  8.1159965445
O   7.3926812800 -2.3690952056  4.9819965445
C   11.7006812800 -3.6200952056  7.2589965445
O   5.6896812800 -3.6050952056  3.4149965445
C   10.3136812800 -3.7300952056  7.5259965445
O   7.6036812800 -5.8850952056 -0.4050034555
C   9.9176812800 -4.3080952056  8.7449965445
C   9.1414812800 -3.3242952056  6.7322965445
C   9.4806812800 -3.2900952056  5.3749965445
C   8.2556812800 -3.1050952056  4.5969965445
C   8.0896812800 -3.8860952056  3.2879965445
C   9.2136812800 -4.4150952056  2.5959965445
C   6.7816812800 -4.0290952056  2.7179965445
C   9.0396812800 -5.1750952056  1.4269965445
C   6.6176812800 -4.7860952056  1.5249965445
C   7.7776812800 -5.2130952056  0.8389965445
C   5.2216812800 -5.1150952056  1.1079965445
C   4.8366812800 -6.5610952056  0.8189965445
C   5.0146812800 -7.6600952056  1.6239965445
C   4.5466812800 -9.0370952056  1.1729965445
C   5.7196812800 -7.5670952056  2.9949965445
H   10.4986812800 -5.1010952056  10.6429965445
H   13.7526812800 -3.9610952056  8.0209965445
H   12.0106812800 -3.1750952056  6.3179965445
H   12.7316812800 -5.6310952056  10.8769965445
H   8.5866812800 -4.9110952056  9.9569965445
H   8.2496812800 -3.2750952056  7.1129965445
H   9.7466812800 -4.3260952056  5.1989965445
H   10.1986812800 -4.3720952056  3.0499965445
H   9.8656812800 -5.4940952056  0.7979965445
H   6.0926812800 -3.1980952056  4.2019965445
H   6.6626812800 -6.0650952056 -0.5720034555
H   4.3566812800 -4.7390952056  1.6679965445
H   5.1026812800 -4.6270952056  0.1329965445
H   4.2036812800 -6.7410952056 -0.0470034555
H   4.0446812800 -9.5880952056  1.9779965445
H   5.4776812800 -9.5580952056  0.9189965445
H   3.7646812800 -8.9990952056  0.4039965445
H   6.7006812800 -8.0390952056  3.1299965445
H   5.0726812800 -8.0340952056  3.7479965445
H   5.7206812800 -6.5470952056  3.3989965445
84
Scanning combination 231/256: [1.6000, 2.5000]  Energy = -385.8635097738
O   11.1233000000 -4.8002000000  5.0341000000
O   11.3873000000 -0.2652000000  3.3291000000
O   18.1143000000 -4.2382000000 -2.5629000000
O   15.0523000000 -3.1142000000  0.9841000000
C   13.0053000000 -3.3232000000  2.3291000000
C   12.6993000000 -1.9792000000  2.4491000000
C   12.3973000000 -4.3072000000  3.1831000000
C   11.6323000000 -1.5992000000  3.2951000000
C   11.4783000000 -3.8632000000  4.1231000000
C   11.0613000000 -2.4802000000  4.2331000000
C   10.1223000000 -1.9712000000  5.2561000000
C   10.5373000000 -1.3232000000  6.3251000000
C   9.8643000000 -1.0622000000  7.5921000000
C   8.6825000000 -1.0450000000  7.8959000000
C   10.8123000000 -0.2992000000  8.5731000000
C   14.6833000000 -4.8512000000 -0.4449000000
C   15.5183000000 -3.8012000000 -0.0889000000
C   16.6953000000 -3.5982000000 -0.8399000000
C   16.9703000000 -4.4882000000 -1.8899000000
C   16.1523000000 -5.5962000000 -2.2009000000
C   14.9513000000 -5.7522000000 -1.5279000000
C   13.6583000000 -4.8752000000  0.4711000000
C   13.8893000000 -3.7772000000  1.2511000000
H   13.1623000000 -1.2452000000  1.7971000000
H   12.5583000000 -5.3772000000  3.0881000000
H   11.7383000000 -5.5442000000  4.9131000000
H   11.8513000000  0.1658000000  2.5901000000
H   9.4643000000 -1.3292000000  4.6731000000
H   11.4933000000 -0.8182000000  6.2071000000
H   7.9073000000 -0.9712000000  7.1161000000
H   8.2313000000 -0.9072000000  8.8131000000
H   11.1183000000  0.6778000000  8.1811000000
H   11.7213000000 -0.7962000000  8.9311000000
H   10.3263000000 -0.0742000000  9.5301000000
H   17.3553000000 -2.7642000000 -0.6209000000
H   16.3753000000 -6.3042000000 -2.9929000000
H   14.4873000000 -6.7332000000 -1.5779000000
H   12.8783000000 -5.6272000000  0.4831000000
H   18.2613000000 -4.9422000000 -3.2189000000
C   10.7794283823 -4.7887151474  9.7450992739
O   13.1104283823 -5.1407151474  10.2330992739
C   12.1374283823 -4.7187151474  9.3870992739
O   8.5564283823 -4.2727151474  9.2730992739
C   12.5954283823 -4.0467151474  8.2070992739
O   7.3084283823 -2.3167151474  5.0730992739
C   11.6164283823 -3.5677151474  7.3500992739
O   5.6054283823 -3.5527151474  3.5060992739
C   10.2294283823 -3.6777151474  7.6170992739
O   7.5194283823 -5.8327151474 -0.3139007261
C   9.8334283823 -4.2557151474  8.8360992739
C   9.0572283823 -3.2719151474  6.8233992739
C   9.3964283823 -3.2377151474  5.4660992739
C   8.1714283823 -3.0527151474  4.6880992739
C   8.0054283823 -3.8337151474  3.3790992739
C   9.1294283823 -4.3627151474  2.6870992739
C   6.6974283823 -3.9767151474  2.8090992739
C   8.9554283823 -5.1227151474  1.5180992739
C   6.5334283823 -4.7337151474  1.6160992739
C   7.6934283823 -5.1607151474  0.9300992739
C   5.1374283823 -5.0627151474  1.1990992739
C   4.7524283823 -6.5087151474  0.9100992739
C   4.9304283823 -7.6077151474  1.7150992739
C   4.4624283823 -8.9847151474  1.2640992739
C   5.6354283823 -7.5147151474  3.0860992739
H   10.4144283823 -5.0487151474  10.7340992739
H   13.6684283823 -3.9087151474  8.1120992739
H   11.9264283823 -3.1227151474  6.4090992739
H   12.6474283823 -5.5787151474  10.9680992739
H   8.5024283823 -4.8587151474  10.0480992739
H   8.1654283823 -3.2227151474  7.2040992739
H   9.6624283823 -4.2737151474  5.2900992739
H   10.1144283823 -4.3197151474  3.1410992739
H   9.7814283823 -5.4417151474  0.8890992739
H   6.0084283823 -3.1457151474  4.2930992739
H   6.5784283823 -6.0127151474 -0.4809007261
H   4.2724283823 -4.6867151474  1.7590992739
H   5.0184283823 -4.5747151474  0.2240992739
H   4.1194283823 -6.6887151474  0.0440992739
H   3.9604283823 -9.5357151474  2.0690992739
H   5.3934283823 -9.5057151474  1.0100992739
H   3.6804283823 -8.9467151474  0.4950992739
H   6.6164283823 -7.9867151474  3.2210992739
H   4.9884283823 -7.9817151474  3.8390992739
H   5.6364283823 -6.4947151474  3.4900992739
84
Scanning combination 232/256: [1.6000, 2.4000]  Energy = -385.8821591135
O   11.1233000000 -4.8002000000  5.0341000000
O   11.3873000000 -0.2652000000  3.3291000000
O   18.1143000000 -4.2382000000 -2.5629000000
O   15.0523000000 -3.1142000000  0.9841000000
C   13.0053000000 -3.3232000000  2.3291000000
C   12.6993000000 -1.9792000000  2.4491000000
C   12.3973000000 -4.3072000000  3.1831000000
C   11.6323000000 -1.5992000000  3.2951000000
C   11.4783000000 -3.8632000000  4.1231000000
C   11.0613000000 -2.4802000000  4.2331000000
C   10.1223000000 -1.9712000000  5.2561000000
C   10.5373000000 -1.3232000000  6.3251000000
C   9.8643000000 -1.0622000000  7.5921000000
C   8.6825000000 -1.0450000000  7.8959000000
C   10.8123000000 -0.2992000000  8.5731000000
C   14.6833000000 -4.8512000000 -0.4449000000
C   15.5183000000 -3.8012000000 -0.0889000000
C   16.6953000000 -3.5982000000 -0.8399000000
C   16.9703000000 -4.4882000000 -1.8899000000
C   16.1523000000 -5.5962000000 -2.2009000000
C   14.9513000000 -5.7522000000 -1.5279000000
C   13.6583000000 -4.8752000000  0.4711000000
C   13.8893000000 -3.7772000000  1.2511000000
H   13.1623000000 -1.2452000000  1.7971000000
H   12.5583000000 -5.3772000000  3.0881000000
H   11.7383000000 -5.5442000000  4.9131000000
H   11.8513000000  0.1658000000  2.5901000000
H   9.4643000000 -1.3292000000  4.6731000000
H   11.4933000000 -0.8182000000  6.2071000000
H   7.9073000000 -0.9712000000  7.1161000000
H   8.2313000000 -0.9072000000  8.8131000000
H   11.1183000000  0.6778000000  8.1811000000
H   11.7213000000 -0.7962000000  8.9311000000
H   10.3263000000 -0.0742000000  9.5301000000
H   17.3553000000 -2.7642000000 -0.6209000000
H   16.3753000000 -6.3042000000 -2.9929000000
H   14.4873000000 -6.7332000000 -1.5779000000
H   12.8783000000 -5.6272000000  0.4831000000
H   18.2613000000 -4.9422000000 -3.2189000000
C   10.6958611344 -4.7327651483  9.8367980063
O   13.0268611344 -5.0847651483  10.3247980063
C   12.0538611344 -4.6627651483  9.4787980063
O   8.4728611344 -4.2167651483  9.3647980063
C   12.5118611344 -3.9907651483  8.2987980063
O   7.2248611344 -2.2607651483  5.1647980063
C   11.5328611344 -3.5117651483  7.4417980063
O   5.5218611344 -3.4967651483  3.5977980063
C   10.1458611344 -3.6217651483  7.7087980063
O   7.4358611344 -5.7767651483 -0.2222019937
C   9.7498611344 -4.1997651483  8.9277980063
C   8.9736611344 -3.2159651483  6.9150980063
C   9.3128611344 -3.1817651483  5.5577980063
C   8.0878611344 -2.9967651483  4.7797980063
C   7.9218611344 -3.7777651483  3.4707980063
C   9.0458611344 -4.3067651483  2.7787980063
C   6.6138611344 -3.9207651483  2.9007980063
C   8.8718611344 -5.0667651483  1.6097980063
C   6.4498611344 -4.6777651483  1.7077980063
C   7.6098611344 -5.1047651483  1.0217980063
C   5.0538611344 -5.0067651483  1.2907980063
C   4.6688611344 -6.4527651483  1.0017980063
C   4.8468611344 -7.5517651483  1.8067980063
C   4.3788611344 -8.9287651483  1.3557980063
C   5.5518611344 -7.4587651483  3.1777980063
H   10.3308611344 -4.9927651483  10.8257980063
H   13.5848611344 -3.8527651483  8.2037980063
H   11.8428611344 -3.0667651483  6.5007980063
H   12.5638611344 -5.5227651483  11.0597980063
H   8.4188611344 -4.8027651483  10.1397980063
H   8.0818611344 -3.1667651483  7.2957980063
H   9.5788611344 -4.2177651483  5.3817980063
H   10.0308611344 -4.2637651483  3.2327980063
H   9.6978611344 -5.3857651483  0.9807980063
H   5.9248611344 -3.0897651483  4.3847980063
H   6.4948611344 -5.9567651483 -0.3892019937
H   4.1888611344 -4.6307651483  1.8507980063
H   4.9348611344 -4.5187651483  0.3157980063
H   4.0358611344 -6.6327651483  0.1357980063
H   3.8768611344 -9.4797651483  2.1607980063
H   5.3098611344 -9.4497651483  1.1017980063
H   3.5968611344 -8.8907651483  0.5867980063
H   6.5328611344 -7.9307651483  3.3127980063
H   4.9048611344 -7.9257651483  3.9307980063
H   5.5528611344 -6.4387651483  3.5817980063
84
Scanning combination 233/256: [1.6000, 2.3000]  Energy = -385.8902295824
O   11.1233000000 -4.8002000000  5.0341000000
O   11.3873000000 -0.2652000000  3.3291000000
O   18.1143000000 -4.2382000000 -2.5629000000
O   15.0523000000 -3.1142000000  0.9841000000
C   13.0053000000 -3.3232000000  2.3291000000
C   12.6993000000 -1.9792000000  2.4491000000
C   12.3973000000 -4.3072000000  3.1831000000
C   11.6323000000 -1.5992000000  3.2951000000
C   11.4783000000 -3.8632000000  4.1231000000
C   11.0613000000 -2.4802000000  4.2331000000
C   10.1223000000 -1.9712000000  5.2561000000
C   10.5373000000 -1.3232000000  6.3251000000
C   9.8643000000 -1.0622000000  7.5921000000
C   8.6825000000 -1.0450000000  7.8959000000
C   10.8123000000 -0.2992000000  8.5731000000
C   14.6833000000 -4.8512000000 -0.4449000000
C   15.5183000000 -3.8012000000 -0.0889000000
C   16.6953000000 -3.5982000000 -0.8399000000
C   16.9703000000 -4.4882000000 -1.8899000000
C   16.1523000000 -5.5962000000 -2.2009000000
C   14.9513000000 -5.7522000000 -1.5279000000
C   13.6583000000 -4.8752000000  0.4711000000
C   13.8893000000 -3.7772000000  1.2511000000
H   13.1623000000 -1.2452000000  1.7971000000
H   12.5583000000 -5.3772000000  3.0881000000
H   11.7383000000 -5.5442000000  4.9131000000
H   11.8513000000  0.1658000000  2.5901000000
H   9.4643000000 -1.3292000000  4.6731000000
H   11.4933000000 -0.8182000000  6.2071000000
H   7.9073000000 -0.9712000000  7.1161000000
H   8.2313000000 -0.9072000000  8.8131000000
H   11.1183000000  0.6778000000  8.1811000000
H   11.7213000000 -0.7962000000  8.9311000000
H   10.3263000000 -0.0742000000  9.5301000000
H   17.3553000000 -2.7642000000 -0.6209000000
H   16.3753000000 -6.3042000000 -2.9929000000
H   14.4873000000 -6.7332000000 -1.5779000000
H   12.8783000000 -5.6272000000  0.4831000000
H   18.2613000000 -4.9422000000 -3.2189000000
C   10.6187909265 -4.6706132938  9.9248988239
O   12.9497909265 -5.0226132938  10.4128988239
C   11.9767909265 -4.6006132938  9.5668988239
O   8.3957909265 -4.1546132938  9.4528988239
C   12.4347909265 -3.9286132938  8.3868988239
O   7.1477909265 -2.1986132938  5.2528988239
C   11.4557909265 -3.4496132938  7.5298988239
O   5.4447909265 -3.4346132938  3.6858988239
C   10.0687909265 -3.5596132938  7.7968988239
O   7.3587909265 -5.7146132938 -0.1341011761
C   9.6727909265 -4.1376132938  9.0158988239
C   8.8965909265 -3.1538132938  7.0031988239
C   9.2357909265 -3.1196132938  5.6458988239
C   8.0107909265 -2.9346132938  4.8678988239
C   7.8447909265 -3.7156132938  3.5588988239
C   8.9687909265 -4.2446132938  2.8668988239
C   6.5367909265 -3.8586132938  2.9888988239
C   8.7947909265 -5.0046132938  1.6978988239
C   6.3727909265 -4.6156132938  1.7958988239
C   7.5327909265 -5.0426132938  1.1098988239
C   4.9767909265 -4.9446132938  1.3788988239
C   4.5917909265 -6.3906132938  1.0898988239
C   4.7697909265 -7.4896132938  1.8948988239
C   4.3017909265 -8.8666132938  1.4438988239
C   5.4747909265 -7.3966132938  3.2658988239
H   10.2537909265 -4.9306132938  10.9138988239
H   13.5077909265 -3.7906132938  8.2918988239
H   11.7657909265 -3.0046132938  6.5888988239
H   12.4867909265 -5.4606132938  11.1478988239
H   8.3417909265 -4.7406132938  10.2278988239
H   8.0047909265 -3.1046132938  7.3838988239
H   9.5017909265 -4.1556132938  5.4698988239
H   9.9537909265 -4.2016132938  3.3208988239
H   9.6207909265 -5.3236132938  1.0688988239
H   5.8477909265 -3.0276132938  4.4728988239
H   6.4177909265 -5.8946132938 -0.3011011761
H   4.1117909265 -4.5686132938  1.9388988239
H   4.8577909265 -4.4566132938  0.4038988239
H   3.9587909265 -6.5706132938  0.2238988239
H   3.7997909265 -9.4176132938  2.2488988239
H   5.2327909265 -9.3876132938  1.1898988239
H   3.5197909265 -8.8286132938  0.6748988239
H   6.4557909265 -7.8686132938  3.4008988239
H   4.8277909265 -7.8636132938  4.0188988239
H   5.4757909265 -6.3766132938  3.6698988239
84
Scanning combination 234/256: [1.6000, 2.2000]  Energy = -385.8876889940
O   11.1233000000 -4.8002000000  5.0341000000
O   11.3873000000 -0.2652000000  3.3291000000
O   18.1143000000 -4.2382000000 -2.5629000000
O   15.0523000000 -3.1142000000  0.9841000000
C   13.0053000000 -3.3232000000  2.3291000000
C   12.6993000000 -1.9792000000  2.4491000000
C   12.3973000000 -4.3072000000  3.1831000000
C   11.6323000000 -1.5992000000  3.2951000000
C   11.4783000000 -3.8632000000  4.1231000000
C   11.0613000000 -2.4802000000  4.2331000000
C   10.1223000000 -1.9712000000  5.2561000000
C   10.5373000000 -1.3232000000  6.3251000000
C   9.8643000000 -1.0622000000  7.5921000000
C   8.6825000000 -1.0450000000  7.8959000000
C   10.8123000000 -0.2992000000  8.5731000000
C   14.6833000000 -4.8512000000 -0.4449000000
C   15.5183000000 -3.8012000000 -0.0889000000
C   16.6953000000 -3.5982000000 -0.8399000000
C   16.9703000000 -4.4882000000 -1.8899000000
C   16.1523000000 -5.5962000000 -2.2009000000
C   14.9513000000 -5.7522000000 -1.5279000000
C   13.6583000000 -4.8752000000  0.4711000000
C   13.8893000000 -3.7772000000  1.2511000000
H   13.1623000000 -1.2452000000  1.7971000000
H   12.5583000000 -5.3772000000  3.0881000000
H   11.7383000000 -5.5442000000  4.9131000000
H   11.8513000000  0.1658000000  2.5901000000
H   9.4643000000 -1.3292000000  4.6731000000
H   11.4933000000 -0.8182000000  6.2071000000
H   7.9073000000 -0.9712000000  7.1161000000
H   8.2313000000 -0.9072000000  8.8131000000
H   11.1183000000  0.6778000000  8.1811000000
H   11.7213000000 -0.7962000000  8.9311000000
H   10.3263000000 -0.0742000000  9.5301000000
H   17.3553000000 -2.7642000000 -0.6209000000
H   16.3753000000 -6.3042000000 -2.9929000000
H   14.4873000000 -6.7332000000 -1.5779000000
H   12.8783000000 -5.6272000000  0.4831000000
H   18.2613000000 -4.9422000000 -3.2189000000
C   10.5507917983 -4.6018723259  10.0072835776
O   12.8817917983 -4.9538723259  10.4952835776
C   11.9087917983 -4.5318723259  9.6492835776
O   8.3277917983 -4.0858723259  9.5352835776
C   12.3667917983 -3.8598723259  8.4692835776
O   7.0797917983 -2.1298723259  5.3352835776
C   11.3877917983 -3.3808723259  7.6122835776
O   5.3767917983 -3.3658723259  3.7682835776
C   10.0007917983 -3.4908723259  7.8792835776
O   7.2907917983 -5.6458723259 -0.0517164224
C   9.6047917983 -4.0688723259  9.0982835776
C   8.8285917983 -3.0850723259  7.0855835776
C   9.1677917983 -3.0508723259  5.7282835776
C   7.9427917983 -2.8658723259  4.9502835776
C   7.7767917983 -3.6468723259  3.6412835776
C   8.9007917983 -4.1758723259  2.9492835776
C   6.4687917983 -3.7898723259  3.0712835776
C   8.7267917983 -4.9358723259  1.7802835776
C   6.3047917983 -4.5468723259  1.8782835776
C   7.4647917983 -4.9738723259  1.1922835776
C   4.9087917983 -4.8758723259  1.4612835776
C   4.5237917983 -6.3218723259  1.1722835776
C   4.7017917983 -7.4208723259  1.9772835776
C   4.2337917983 -8.7978723259  1.5262835776
C   5.4067917983 -7.3278723259  3.3482835776
H   10.1857917983 -4.8618723259  10.9962835776
H   13.4397917983 -3.7218723259  8.3742835776
H   11.6977917983 -2.9358723259  6.6712835776
H   12.4187917983 -5.3918723259  11.2302835776
H   8.2737917983 -4.6718723259  10.3102835776
H   7.9367917983 -3.0358723259  7.4662835776
H   9.4337917983 -4.0868723259  5.5522835776
H   9.8857917983 -4.1328723259  3.4032835776
H   9.5527917983 -5.2548723259  1.1512835776
H   5.7797917983 -2.9588723259  4.5552835776
H   6.3497917983 -5.8258723259 -0.2187164224
H   4.0437917983 -4.4998723259  2.0212835776
H   4.7897917983 -4.3878723259  0.4862835776
H   3.8907917983 -6.5018723259  0.3062835776
H   3.7317917983 -9.3488723259  2.3312835776
H   5.1647917983 -9.3188723259  1.2722835776
H   3.4517917983 -8.7598723259  0.7572835776
H   6.3877917983 -7.7998723259  3.4832835776
H   4.7597917983 -7.7948723259  4.1012835776
H   5.4077917983 -6.3078723259  3.7522835776
84
Scanning combination 235/256: [1.6000, 2.1000]  Energy = -385.8761337992
O   11.1233000000 -4.8002000000  5.0341000000
O   11.3873000000 -0.2652000000  3.3291000000
O   18.1143000000 -4.2382000000 -2.5629000000
O   15.0523000000 -3.1142000000  0.9841000000
C   13.0053000000 -3.3232000000  2.3291000000
C   12.6993000000 -1.9792000000  2.4491000000
C   12.3973000000 -4.3072000000  3.1831000000
C   11.6323000000 -1.5992000000  3.2951000000
C   11.4783000000 -3.8632000000  4.1231000000
C   11.0613000000 -2.4802000000  4.2331000000
C   10.1223000000 -1.9712000000  5.2561000000
C   10.5373000000 -1.3232000000  6.3251000000
C   9.8643000000 -1.0622000000  7.5921000000
C   8.6825000000 -1.0450000000  7.8959000000
C   10.8123000000 -0.2992000000  8.5731000000
C   14.6833000000 -4.8512000000 -0.4449000000
C   15.5183000000 -3.8012000000 -0.0889000000
C   16.6953000000 -3.5982000000 -0.8399000000
C   16.9703000000 -4.4882000000 -1.8899000000
C   16.1523000000 -5.5962000000 -2.2009000000
C   14.9513000000 -5.7522000000 -1.5279000000
C   13.6583000000 -4.8752000000  0.4711000000
C   13.8893000000 -3.7772000000  1.2511000000
H   13.1623000000 -1.2452000000  1.7971000000
H   12.5583000000 -5.3772000000  3.0881000000
H   11.7383000000 -5.5442000000  4.9131000000
H   11.8513000000  0.1658000000  2.5901000000
H   9.4643000000 -1.3292000000  4.6731000000
H   11.4933000000 -0.8182000000  6.2071000000
H   7.9073000000 -0.9712000000  7.1161000000
H   8.2313000000 -0.9072000000  8.8131000000
H   11.1183000000  0.6778000000  8.1811000000
H   11.7213000000 -0.7962000000  8.9311000000
H   10.3263000000 -0.0742000000  9.5301000000
H   17.3553000000 -2.7642000000 -0.6209000000
H   16.3753000000 -6.3042000000 -2.9929000000
H   14.4873000000 -6.7332000000 -1.5779000000
H   12.8783000000 -5.6272000000  0.4831000000
H   18.2613000000 -4.9422000000 -3.2189000000
C   10.4922301941 -4.5272829664  10.0833843797
O   12.8232301941 -4.8792829664  10.5713843797
C   11.8502301941 -4.4572829664  9.7253843797
O   8.2692301941 -4.0112829664  9.6113843797
C   12.3082301941 -3.7852829664  8.5453843797
O   7.0212301941 -2.0552829664  5.4113843797
C   11.3292301941 -3.3062829664  7.6883843797
O   5.3182301941 -3.2912829664  3.8443843797
C   9.9422301941 -3.4162829664  7.9553843797
O   7.2322301941 -5.5712829664  0.0243843797
C   9.5462301941 -3.9942829664  9.1743843797
C   8.7700301941 -3.0104829664  7.1616843797
C   9.1092301941 -2.9762829664  5.8043843797
C   7.8842301941 -2.7912829664  5.0263843797
C   7.7182301941 -3.5722829664  3.7173843797
C   8.8422301941 -4.1012829664  3.0253843797
C   6.4102301941 -3.7152829664  3.1473843797
C   8.6682301941 -4.8612829664  1.8563843797
C   6.2462301941 -4.4722829664  1.9543843797
C   7.4062301941 -4.8992829664  1.2683843797
C   4.8502301941 -4.8012829664  1.5373843797
C   4.4652301941 -6.2472829664  1.2483843797
C   4.6432301941 -7.3462829664  2.0533843797
C   4.1752301941 -8.7232829664  1.6023843797
C   5.3482301941 -7.2532829664  3.4243843797
H   10.1272301941 -4.7872829664  11.0723843797
H   13.3812301941 -3.6472829664  8.4503843797
H   11.6392301941 -2.8612829664  6.7473843797
H   12.3602301941 -5.3172829664  11.3063843797
H   8.2152301941 -4.5972829664  10.3863843797
H   7.8782301941 -2.9612829664  7.5423843797
H   9.3752301941 -4.0122829664  5.6283843797
H   9.8272301941 -4.0582829664  3.4793843797
H   9.4942301941 -5.1802829664  1.2273843797
H   5.7212301941 -2.8842829664  4.6313843797
H   6.2912301941 -5.7512829664 -0.1426156203
H   3.9852301941 -4.4252829664  2.0973843797
H   4.7312301941 -4.3132829664  0.5623843797
H   3.8322301941 -6.4272829664  0.3823843797
H   3.6732301941 -9.2742829664  2.4073843797
H   5.1062301941 -9.2442829664  1.3483843797
H   3.3932301941 -8.6852829664  0.8333843797
H   6.3292301941 -7.7252829664  3.5593843797
H   4.7012301941 -7.7202829664  4.1773843797
H   5.3492301941 -6.2332829664  3.8283843797
84
Scanning combination 236/256: [1.6000, 2.0000]  Energy = -385.8568323847
O   11.1233000000 -4.8002000000  5.0341000000
O   11.3873000000 -0.2652000000  3.3291000000
O   18.1143000000 -4.2382000000 -2.5629000000
O   15.0523000000 -3.1142000000  0.9841000000
C   13.0053000000 -3.3232000000  2.3291000000
C   12.6993000000 -1.9792000000  2.4491000000
C   12.3973000000 -4.3072000000  3.1831000000
C   11.6323000000 -1.5992000000  3.2951000000
C   11.4783000000 -3.8632000000  4.1231000000
C   11.0613000000 -2.4802000000  4.2331000000
C   10.1223000000 -1.9712000000  5.2561000000
C   10.5373000000 -1.3232000000  6.3251000000
C   9.8643000000 -1.0622000000  7.5921000000
C   8.6825000000 -1.0450000000  7.8959000000
C   10.8123000000 -0.2992000000  8.5731000000
C   14.6833000000 -4.8512000000 -0.4449000000
C   15.5183000000 -3.8012000000 -0.0889000000
C   16.6953000000 -3.5982000000 -0.8399000000
C   16.9703000000 -4.4882000000 -1.8899000000
C   16.1523000000 -5.5962000000 -2.2009000000
C   14.9513000000 -5.7522000000 -1.5279000000
C   13.6583000000 -4.8752000000  0.4711000000
C   13.8893000000 -3.7772000000  1.2511000000
H   13.1623000000 -1.2452000000  1.7971000000
H   12.5583000000 -5.3772000000  3.0881000000
H   11.7383000000 -5.5442000000  4.9131000000
H   11.8513000000  0.1658000000  2.5901000000
H   9.4643000000 -1.3292000000  4.6731000000
H   11.4933000000 -0.8182000000  6.2071000000
H   7.9073000000 -0.9712000000  7.1161000000
H   8.2313000000 -0.9072000000  8.8131000000
H   11.1183000000  0.6778000000  8.1811000000
H   11.7213000000 -0.7962000000  8.9311000000
H   10.3263000000 -0.0742000000  9.5301000000
H   17.3553000000 -2.7642000000 -0.6209000000
H   16.3753000000 -6.3042000000 -2.9929000000
H   14.4873000000 -6.7332000000 -1.5779000000
H   12.8783000000 -5.6272000000  0.4831000000
H   18.2613000000 -4.9422000000 -3.2189000000
C   10.4424674552 -4.4478788561  10.1534130069
O   12.7734674552 -4.7998788561  10.6414130069
C   11.8004674552 -4.3778788561  9.7954130069
O   8.2194674552 -3.9318788561  9.6814130069
C   12.2584674552 -3.7058788561  8.6154130069
O   6.9714674552 -1.9758788561  5.4814130069
C   11.2794674552 -3.2268788561  7.7584130069
O   5.2684674552 -3.2118788561  3.9144130069
C   9.8924674552 -3.3368788561  8.0254130069
O   7.1824674552 -5.4918788561  0.0944130069
C   9.4964674552 -3.9148788561  9.2444130069
C   8.7202674552 -2.9310788561  7.2317130069
C   9.0594674552 -2.8968788561  5.8744130069
C   7.8344674552 -2.7118788561  5.0964130069
C   7.6684674552 -3.4928788561  3.7874130069
C   8.7924674552 -4.0218788561  3.0954130069
C   6.3604674552 -3.6358788561  3.2174130069
C   8.6184674552 -4.7818788561  1.9264130069
C   6.1964674552 -4.3928788561  2.0244130069
C   7.3564674552 -4.8198788561  1.3384130069
C   4.8004674552 -4.7218788561  1.6074130069
C   4.4154674552 -6.1678788561  1.3184130069
C   4.5934674552 -7.2668788561  2.1234130069
C   4.1254674552 -8.6438788561  1.6724130069
C   5.2984674552 -7.1738788561  3.4944130069
H   10.0774674552 -4.7078788561  11.1424130069
H   13.3314674552 -3.5678788561  8.5204130069
H   11.5894674552 -2.7818788561  6.8174130069
H   12.3104674552 -5.2378788561  11.3764130069
H   8.1654674552 -4.5178788561  10.4564130069
H   7.8284674552 -2.8818788561  7.6124130069
H   9.3254674552 -3.9328788561  5.6984130069
H   9.7774674552 -3.9788788561  3.5494130069
H   9.4444674552 -5.1008788561  1.2974130069
H   5.6714674552 -2.8048788561  4.7014130069
H   6.2414674552 -5.6718788561 -0.0725869931
H   3.9354674552 -4.3458788561  2.1674130069
H   4.6814674552 -4.2338788561  0.6324130069
H   3.7824674552 -6.3478788561  0.4524130069
H   3.6234674552 -9.1948788561  2.4774130069
H   5.0564674552 -9.1648788561  1.4184130069
H   3.3434674552 -8.6058788561  0.9034130069
H   6.2794674552 -7.6458788561  3.6294130069
H   4.6514674552 -7.6408788561  4.2474130069
H   5.2994674552 -6.1538788561  3.8984130069
84
Scanning combination 237/256: [1.6000, 1.9000]  Energy = -385.8316439386
O   11.1233000000 -4.8002000000  5.0341000000
O   11.3873000000 -0.2652000000  3.3291000000
O   18.1143000000 -4.2382000000 -2.5629000000
O   15.0523000000 -3.1142000000  0.9841000000
C   13.0053000000 -3.3232000000  2.3291000000
C   12.6993000000 -1.9792000000  2.4491000000
C   12.3973000000 -4.3072000000  3.1831000000
C   11.6323000000 -1.5992000000  3.2951000000
C   11.4783000000 -3.8632000000  4.1231000000
C   11.0613000000 -2.4802000000  4.2331000000
C   10.1223000000 -1.9712000000  5.2561000000
C   10.5373000000 -1.3232000000  6.3251000000
C   9.8643000000 -1.0622000000  7.5921000000
C   8.6825000000 -1.0450000000  7.8959000000
C   10.8123000000 -0.2992000000  8.5731000000
C   14.6833000000 -4.8512000000 -0.4449000000
C   15.5183000000 -3.8012000000 -0.0889000000
C   16.6953000000 -3.5982000000 -0.8399000000
C   16.9703000000 -4.4882000000 -1.8899000000
C   16.1523000000 -5.5962000000 -2.2009000000
C   14.9513000000 -5.7522000000 -1.5279000000
C   13.6583000000 -4.8752000000  0.4711000000
C   13.8893000000 -3.7772000000  1.2511000000
H   13.1623000000 -1.2452000000  1.7971000000
H   12.5583000000 -5.3772000000  3.0881000000
H   11.7383000000 -5.5442000000  4.9131000000
H   11.8513000000  0.1658000000  2.5901000000
H   9.4643000000 -1.3292000000  4.6731000000
H   11.4933000000 -0.8182000000  6.2071000000
H   7.9073000000 -0.9712000000  7.1161000000
H   8.2313000000 -0.9072000000  8.8131000000
H   11.1183000000  0.6778000000  8.1811000000
H   11.7213000000 -0.7962000000  8.9311000000
H   10.3263000000 -0.0742000000  9.5301000000
H   17.3553000000 -2.7642000000 -0.6209000000
H   16.3753000000 -6.3042000000 -2.9929000000
H   14.4873000000 -6.7332000000 -1.5779000000
H   12.8783000000 -5.6272000000  0.4831000000
H   18.2613000000 -4.9422000000 -3.2189000000
C   10.4006477263 -4.3646023376  10.2178014548
O   12.7316477263 -4.7166023376  10.7058014548
C   11.7586477263 -4.2946023376  9.8598014548
O   8.1776477263 -3.8486023376  9.7458014548
C   12.2166477263 -3.6226023376  8.6798014548
O   6.9296477263 -1.8926023376  5.5458014548
C   11.2376477263 -3.1436023376  7.8228014548
O   5.2266477263 -3.1286023376  3.9788014548
C   9.8506477263 -3.2536023376  8.0898014548
O   7.1406477263 -5.4086023376  0.1588014548
C   9.4546477263 -3.8316023376  9.3088014548
C   8.6784477263 -2.8478023376  7.2961014548
C   9.0176477263 -2.8136023376  5.9388014548
C   7.7926477263 -2.6286023376  5.1608014548
C   7.6266477263 -3.4096023376  3.8518014548
C   8.7506477263 -3.9386023376  3.1598014548
C   6.3186477263 -3.5526023376  3.2818014548
C   8.5766477263 -4.6986023376  1.9908014548
C   6.1546477263 -4.3096023376  2.0888014548
C   7.3146477263 -4.7366023376  1.4028014548
C   4.7586477263 -4.6386023376  1.6718014548
C   4.3736477263 -6.0846023376  1.3828014548
C   4.5516477263 -7.1836023376  2.1878014548
C   4.0836477263 -8.5606023376  1.7368014548
C   5.2566477263 -7.0906023376  3.5588014548
H   10.0356477263 -4.6246023376  11.2068014548
H   13.2896477263 -3.4846023376  8.5848014548
H   11.5476477263 -2.6986023376  6.8818014548
H   12.2686477263 -5.1546023376  11.4408014548
H   8.1236477263 -4.4346023376  10.5208014548
H   7.7866477263 -2.7986023376  7.6768014548
H   9.2836477263 -3.8496023376  5.7628014548
H   9.7356477263 -3.8956023376  3.6138014548
H   9.4026477263 -5.0176023376  1.3618014548
H   5.6296477263 -2.7216023376  4.7658014548
H   6.1996477263 -5.5886023376 -0.0081985452
H   3.8936477263 -4.2626023376  2.2318014548
H   4.6396477263 -4.1506023376  0.6968014548
H   3.7406477263 -6.2646023376  0.5168014548
H   3.5816477263 -9.1116023376  2.5418014548
H   5.0146477263 -9.0816023376  1.4828014548
H   3.3016477263 -8.5226023376  0.9678014548
H   6.2376477263 -7.5626023376  3.6938014548
H   4.6096477263 -7.5576023376  4.3118014548
H   5.2576477263 -6.0706023376  3.9628014548
84
Scanning combination 238/256: [1.6000, 1.8000]  Energy = -385.7990952726
O   11.1233000000 -4.8002000000  5.0341000000
O   11.3873000000 -0.2652000000  3.3291000000
O   18.1143000000 -4.2382000000 -2.5629000000
O   15.0523000000 -3.1142000000  0.9841000000
C   13.0053000000 -3.3232000000  2.3291000000
C   12.6993000000 -1.9792000000  2.4491000000
C   12.3973000000 -4.3072000000  3.1831000000
C   11.6323000000 -1.5992000000  3.2951000000
C   11.4783000000 -3.8632000000  4.1231000000
C   11.0613000000 -2.4802000000  4.2331000000
C   10.1223000000 -1.9712000000  5.2561000000
C   10.5373000000 -1.3232000000  6.3251000000
C   9.8643000000 -1.0622000000  7.5921000000
C   8.6825000000 -1.0450000000  7.8959000000
C   10.8123000000 -0.2992000000  8.5731000000
C   14.6833000000 -4.8512000000 -0.4449000000
C   15.5183000000 -3.8012000000 -0.0889000000
C   16.6953000000 -3.5982000000 -0.8399000000
C   16.9703000000 -4.4882000000 -1.8899000000
C   16.1523000000 -5.5962000000 -2.2009000000
C   14.9513000000 -5.7522000000 -1.5279000000
C   13.6583000000 -4.8752000000  0.4711000000
C   13.8893000000 -3.7772000000  1.2511000000
H   13.1623000000 -1.2452000000  1.7971000000
H   12.5583000000 -5.3772000000  3.0881000000
H   11.7383000000 -5.5442000000  4.9131000000
H   11.8513000000  0.1658000000  2.5901000000
H   9.4643000000 -1.3292000000  4.6731000000
H   11.4933000000 -0.8182000000  6.2071000000
H   7.9073000000 -0.9712000000  7.1161000000
H   8.2313000000 -0.9072000000  8.8131000000
H   11.1183000000  0.6778000000  8.1811000000
H   11.7213000000 -0.7962000000  8.9311000000
H   10.3263000000 -0.0742000000  9.5301000000
H   17.3553000000 -2.7642000000 -0.6209000000
H   16.3753000000 -6.3042000000 -2.9929000000
H   14.4873000000 -6.7332000000 -1.5779000000
H   12.8783000000 -5.6272000000  0.4831000000
H   18.2613000000 -4.9422000000 -3.2189000000
C   10.3660195632 -4.2782149587  10.2769510492
O   12.6970195632 -4.6302149587  10.7649510492
C   11.7240195632 -4.2082149587  9.9189510492
O   8.1430195632 -3.7622149587  9.8049510492
C   12.1820195632 -3.5362149587  8.7389510492
O   6.8950195632 -1.8062149587  5.6049510492
C   11.2030195632 -3.0572149587  7.8819510492
O   5.1920195632 -3.0422149587  4.0379510492
C   9.8160195632 -3.1672149587  8.1489510492
O   7.1060195632 -5.3222149587  0.2179510492
C   9.4200195632 -3.7452149587  9.3679510492
C   8.6438195632 -2.7614149587  7.3552510492
C   8.9830195632 -2.7272149587  5.9979510492
C   7.7580195632 -2.5422149587  5.2199510492
C   7.5920195632 -3.3232149587  3.9109510492
C   8.7160195632 -3.8522149587  3.2189510492
C   6.2840195632 -3.4662149587  3.3409510492
C   8.5420195632 -4.6122149587  2.0499510492
C   6.1200195632 -4.2232149587  2.1479510492
C   7.2800195632 -4.6502149587  1.4619510492
C   4.7240195632 -4.5522149587  1.7309510492
C   4.3390195632 -5.9982149587  1.4419510492
C   4.5170195632 -7.0972149587  2.2469510492
C   4.0490195632 -8.4742149587  1.7959510492
C   5.2220195632 -7.0042149587  3.6179510492
H   10.0010195632 -4.5382149587  11.2659510492
H   13.2550195632 -3.3982149587  8.6439510492
H   11.5130195632 -2.6122149587  6.9409510492
H   12.2340195632 -5.0682149587  11.4999510492
H   8.0890195632 -4.3482149587  10.5799510492
H   7.7520195632 -2.7122149587  7.7359510492
H   9.2490195632 -3.7632149587  5.8219510492
H   9.7010195632 -3.8092149587  3.6729510492
H   9.3680195632 -4.9312149587  1.4209510492
H   5.5950195632 -2.6352149587  4.8249510492
H   6.1650195632 -5.5022149587  0.0509510492
H   3.8590195632 -4.1762149587  2.2909510492
H   4.6050195632 -4.0642149587  0.7559510492
H   3.7060195632 -6.1782149587  0.5759510492
H   3.5470195632 -9.0252149587  2.6009510492
H   4.9800195632 -8.9952149587  1.5419510492
H   3.2670195632 -8.4362149587  1.0269510492
H   6.2030195632 -7.4762149587  3.7529510492
H   4.5750195632 -7.4712149587  4.3709510492
H   5.2230195632 -5.9842149587  4.0219510492
84
Scanning combination 239/256: [1.6000, 1.7000]  Energy = -385.7580753561
O   11.1233000000 -4.8002000000  5.0341000000
O   11.3873000000 -0.2652000000  3.3291000000
O   18.1143000000 -4.2382000000 -2.5629000000
O   15.0523000000 -3.1142000000  0.9841000000
C   13.0053000000 -3.3232000000  2.3291000000
C   12.6993000000 -1.9792000000  2.4491000000
C   12.3973000000 -4.3072000000  3.1831000000
C   11.6323000000 -1.5992000000  3.2951000000
C   11.4783000000 -3.8632000000  4.1231000000
C   11.0613000000 -2.4802000000  4.2331000000
C   10.1223000000 -1.9712000000  5.2561000000
C   10.5373000000 -1.3232000000  6.3251000000
C   9.8643000000 -1.0622000000  7.5921000000
C   8.6825000000 -1.0450000000  7.8959000000
C   10.8123000000 -0.2992000000  8.5731000000
C   14.6833000000 -4.8512000000 -0.4449000000
C   15.5183000000 -3.8012000000 -0.0889000000
C   16.6953000000 -3.5982000000 -0.8399000000
C   16.9703000000 -4.4882000000 -1.8899000000
C   16.1523000000 -5.5962000000 -2.2009000000
C   14.9513000000 -5.7522000000 -1.5279000000
C   13.6583000000 -4.8752000000  0.4711000000
C   13.8893000000 -3.7772000000  1.2511000000
H   13.1623000000 -1.2452000000  1.7971000000
H   12.5583000000 -5.3772000000  3.0881000000
H   11.7383000000 -5.5442000000  4.9131000000
H   11.8513000000  0.1658000000  2.5901000000
H   9.4643000000 -1.3292000000  4.6731000000
H   11.4933000000 -0.8182000000  6.2071000000
H   7.9073000000 -0.9712000000  7.1161000000
H   8.2313000000 -0.9072000000  8.8131000000
H   11.1183000000  0.6778000000  8.1811000000
H   11.7213000000 -0.7962000000  8.9311000000
H   10.3263000000 -0.0742000000  9.5301000000
H   17.3553000000 -2.7642000000 -0.6209000000
H   16.3753000000 -6.3042000000 -2.9929000000
H   14.4873000000 -6.7332000000 -1.5779000000
H   12.8783000000 -5.6272000000  0.4831000000
H   18.2613000000 -4.9422000000 -3.2189000000
C   10.3379930542 -4.1893211570  10.3311746390
O   12.6689930542 -4.5413211570  10.8191746390
C   11.6959930542 -4.1193211570  9.9731746390
O   8.1149930542 -3.6733211570  9.8591746390
C   12.1539930542 -3.4473211570  8.7931746390
O   6.8669930542 -1.7173211570  5.6591746390
C   11.1749930542 -2.9683211570  7.9361746390
O   5.1639930542 -2.9533211570  4.0921746390
C   9.7879930542 -3.0783211570  8.2031746390
O   7.0779930542 -5.2333211570  0.2721746390
C   9.3919930542 -3.6563211570  9.4221746390
C   8.6157930542 -2.6725211570  7.4094746390
C   8.9549930542 -2.6383211570  6.0521746390
C   7.7299930542 -2.4533211570  5.2741746390
C   7.5639930542 -3.2343211570  3.9651746390
C   8.6879930542 -3.7633211570  3.2731746390
C   6.2559930542 -3.3773211570  3.3951746390
C   8.5139930542 -4.5233211570  2.1041746390
C   6.0919930542 -4.1343211570  2.2021746390
C   7.2519930542 -4.5613211570  1.5161746390
C   4.6959930542 -4.4633211570  1.7851746390
C   4.3109930542 -5.9093211570  1.4961746390
C   4.4889930542 -7.0083211570  2.3011746390
C   4.0209930542 -8.3853211570  1.8501746390
C   5.1939930542 -6.9153211570  3.6721746390
H   9.9729930542 -4.4493211570  11.3201746390
H   13.2269930542 -3.3093211570  8.6981746390
H   11.4849930542 -2.5233211570  6.9951746390
H   12.2059930542 -4.9793211570  11.5541746390
H   8.0609930542 -4.2593211570  10.6341746390
H   7.7239930542 -2.6233211570  7.7901746390
H   9.2209930542 -3.6743211570  5.8761746390
H   9.6729930542 -3.7203211570  3.7271746390
H   9.3399930542 -4.8423211570  1.4751746390
H   5.5669930542 -2.5463211570  4.8791746390
H   6.1369930542 -5.4133211570  0.1051746390
H   3.8309930542 -4.0873211570  2.3451746390
H   4.5769930542 -3.9753211570  0.8101746390
H   3.6779930542 -6.0893211570  0.6301746390
H   3.5189930542 -8.9363211570  2.6551746390
H   4.9519930542 -8.9063211570  1.5961746390
H   3.2389930542 -8.3473211570  1.0811746390
H   6.1749930542 -7.3873211570  3.8071746390
H   4.5469930542 -7.3823211570  4.4251746390
H   5.1949930542 -5.8953211570  4.0761746390
84
Scanning combination 240/256: [1.6000, 1.6000]  Energy = -385.7045227285
O   11.1233000000 -4.8002000000  5.0341000000
O   11.3873000000 -0.2652000000  3.3291000000
O   18.1143000000 -4.2382000000 -2.5629000000
O   15.0523000000 -3.1142000000  0.9841000000
C   13.0053000000 -3.3232000000  2.3291000000
C   12.6993000000 -1.9792000000  2.4491000000
C   12.3973000000 -4.3072000000  3.1831000000
C   11.6323000000 -1.5992000000  3.2951000000
C   11.4783000000 -3.8632000000  4.1231000000
C   11.0613000000 -2.4802000000  4.2331000000
C   10.1223000000 -1.9712000000  5.2561000000
C   10.5373000000 -1.3232000000  6.3251000000
C   9.8643000000 -1.0622000000  7.5921000000
C   8.6825000000 -1.0450000000  7.8959000000
C   10.8123000000 -0.2992000000  8.5731000000
C   14.6833000000 -4.8512000000 -0.4449000000
C   15.5183000000 -3.8012000000 -0.0889000000
C   16.6953000000 -3.5982000000 -0.8399000000
C   16.9703000000 -4.4882000000 -1.8899000000
C   16.1523000000 -5.5962000000 -2.2009000000
C   14.9513000000 -5.7522000000 -1.5279000000
C   13.6583000000 -4.8752000000  0.4711000000
C   13.8893000000 -3.7772000000  1.2511000000
H   13.1623000000 -1.2452000000  1.7971000000
H   12.5583000000 -5.3772000000  3.0881000000
H   11.7383000000 -5.5442000000  4.9131000000
H   11.8513000000  0.1658000000  2.5901000000
H   9.4643000000 -1.3292000000  4.6731000000
H   11.4933000000 -0.8182000000  6.2071000000
H   7.9073000000 -0.9712000000  7.1161000000
H   8.2313000000 -0.9072000000  8.8131000000
H   11.1183000000  0.6778000000  8.1811000000
H   11.7213000000 -0.7962000000  8.9311000000
H   10.3263000000 -0.0742000000  9.5301000000
H   17.3553000000 -2.7642000000 -0.6209000000
H   16.3753000000 -6.3042000000 -2.9929000000
H   14.4873000000 -6.7332000000 -1.5779000000
H   12.8783000000 -5.6272000000  0.4831000000
H   18.2613000000 -4.9422000000 -3.2189000000
C   10.3161081583 -4.0984099754  10.3807102838
O   12.6471081583 -4.4504099754  10.8687102838
C   11.6741081583 -4.0284099754  10.0227102838
O   8.0931081583 -3.5824099754  9.9087102838
C   12.1321081583 -3.3564099754  8.8427102838
O   6.8451081583 -1.6264099754  5.7087102838
C   11.1531081583 -2.8774099754  7.9857102838
O   5.1421081583 -2.8624099754  4.1417102838
C   9.7661081583 -2.9874099754  8.2527102838
O   7.0561081583 -5.1424099754  0.3217102838
C   9.3701081583 -3.5654099754  9.4717102838
C   8.5939081583 -2.5816099754  7.4590102838
C   8.9331081583 -2.5474099754  6.1017102838
C   7.7081081583 -2.3624099754  5.3237102838
C   7.5421081583 -3.1434099754  4.0147102838
C   8.6661081583 -3.6724099754  3.3227102838
C   6.2341081583 -3.2864099754  3.4447102838
C   8.4921081583 -4.4324099754  2.1537102838
C   6.0701081583 -4.0434099754  2.2517102838
C   7.2301081583 -4.4704099754  1.5657102838
C   4.6741081583 -4.3724099754  1.8347102838
C   4.2891081583 -5.8184099754  1.5457102838
C   4.4671081583 -6.9174099754  2.3507102838
C   3.9991081583 -8.2944099754  1.8997102838
C   5.1721081583 -6.8244099754  3.7217102838
H   9.9511081583 -4.3584099754  11.3697102838
H   13.2051081583 -3.2184099754  8.7477102838
H   11.4631081583 -2.4324099754  7.0447102838
H   12.1841081583 -4.8884099754  11.6037102838
H   8.0391081583 -4.1684099754  10.6837102838
H   7.7021081583 -2.5324099754  7.8397102838
H   9.1991081583 -3.5834099754  5.9257102838
H   9.6511081583 -3.6294099754  3.7767102838
H   9.3181081583 -4.7514099754  1.5247102838
H   5.5451081583 -2.4554099754  4.9287102838
H   6.1151081583 -5.3224099754  0.1547102838
H   3.8091081583 -3.9964099754  2.3947102838
H   4.5551081583 -3.8844099754  0.8597102838
H   3.6561081583 -5.9984099754  0.6797102838
H   3.4971081583 -8.8454099754  2.7047102838
H   4.9301081583 -8.8154099754  1.6457102838
H   3.2171081583 -8.2564099754  1.1307102838
H   6.1531081583 -7.2964099754  3.8567102838
H   4.5251081583 -7.2914099754  4.4747102838
H   5.1731081583 -5.8044099754  4.1257102838
84
Scanning combination 241/256: [1.6000, 1.5000]  Energy = -385.6333409544
O   11.1233000000 -4.8002000000  5.0341000000
O   11.3873000000 -0.2652000000  3.3291000000
O   18.1143000000 -4.2382000000 -2.5629000000
O   15.0523000000 -3.1142000000  0.9841000000
C   13.0053000000 -3.3232000000  2.3291000000
C   12.6993000000 -1.9792000000  2.4491000000
C   12.3973000000 -4.3072000000  3.1831000000
C   11.6323000000 -1.5992000000  3.2951000000
C   11.4783000000 -3.8632000000  4.1231000000
C   11.0613000000 -2.4802000000  4.2331000000
C   10.1223000000 -1.9712000000  5.2561000000
C   10.5373000000 -1.3232000000  6.3251000000
C   9.8643000000 -1.0622000000  7.5921000000
C   8.6825000000 -1.0450000000  7.8959000000
C   10.8123000000 -0.2992000000  8.5731000000
C   14.6833000000 -4.8512000000 -0.4449000000
C   15.5183000000 -3.8012000000 -0.0889000000
C   16.6953000000 -3.5982000000 -0.8399000000
C   16.9703000000 -4.4882000000 -1.8899000000
C   16.1523000000 -5.5962000000 -2.2009000000
C   14.9513000000 -5.7522000000 -1.5279000000
C   13.6583000000 -4.8752000000  0.4711000000
C   13.8893000000 -3.7772000000  1.2511000000
H   13.1623000000 -1.2452000000  1.7971000000
H   12.5583000000 -5.3772000000  3.0881000000
H   11.7383000000 -5.5442000000  4.9131000000
H   11.8513000000  0.1658000000  2.5901000000
H   9.4643000000 -1.3292000000  4.6731000000
H   11.4933000000 -0.8182000000  6.2071000000
H   7.9073000000 -0.9712000000  7.1161000000
H   8.2313000000 -0.9072000000  8.8131000000
H   11.1183000000  0.6778000000  8.1811000000
H   11.7213000000 -0.7962000000  8.9311000000
H   10.3263000000 -0.0742000000  9.5301000000
H   17.3553000000 -2.7642000000 -0.6209000000
H   16.3753000000 -6.3042000000 -2.9929000000
H   14.4873000000 -6.7332000000 -1.5779000000
H   12.8783000000 -5.6272000000  0.4831000000
H   18.2613000000 -4.9422000000 -3.2189000000
C   10.2999945636 -4.0058863007  10.4257458520
O   12.6309945636 -4.3578863007  10.9137458520
C   11.6579945636 -3.9358863007  10.0677458520
O   8.0769945636 -3.4898863007  9.9537458520
C   12.1159945636 -3.2638863007  8.8877458520
O   6.8289945636 -1.5338863007  5.7537458520
C   11.1369945636 -2.7848863007  8.0307458520
O   5.1259945636 -2.7698863007  4.1867458520
C   9.7499945636 -2.8948863007  8.2977458520
O   7.0399945636 -5.0498863007  0.3667458520
C   9.3539945636 -3.4728863007  9.5167458520
C   8.5777945636 -2.4890863007  7.5040458520
C   8.9169945636 -2.4548863007  6.1467458520
C   7.6919945636 -2.2698863007  5.3687458520
C   7.5259945636 -3.0508863007  4.0597458520
C   8.6499945636 -3.5798863007  3.3677458520
C   6.2179945636 -3.1938863007  3.4897458520
C   8.4759945636 -4.3398863007  2.1987458520
C   6.0539945636 -3.9508863007  2.2967458520
C   7.2139945636 -4.3778863007  1.6107458520
C   4.6579945636 -4.2798863007  1.8797458520
C   4.2729945636 -5.7258863007  1.5907458520
C   4.4509945636 -6.8248863007  2.3957458520
C   3.9829945636 -8.2018863007  1.9447458520
C   5.1559945636 -6.7318863007  3.7667458520
H   9.9349945636 -4.2658863007  11.4147458520
H   13.1889945636 -3.1258863007  8.7927458520
H   11.4469945636 -2.3398863007  7.0897458520
H   12.1679945636 -4.7958863007  11.6487458520
H   8.0229945636 -4.0758863007  10.7287458520
H   7.6859945636 -2.4398863007  7.8847458520
H   9.1829945636 -3.4908863007  5.9707458520
H   9.6349945636 -3.5368863007  3.8217458520
H   9.3019945636 -4.6588863007  1.5697458520
H   5.5289945636 -2.3628863007  4.9737458520
H   6.0989945636 -5.2298863007  0.1997458520
H   3.7929945636 -3.9038863007  2.4397458520
H   4.5389945636 -3.7918863007  0.9047458520
H   3.6399945636 -5.9058863007  0.7247458520
H   3.4809945636 -8.7528863007  2.7497458520
H   4.9139945636 -8.7228863007  1.6907458520
H   3.2009945636 -8.1638863007  1.1757458520
H   6.1369945636 -7.2038863007  3.9017458520
H   4.5089945636 -7.1988863007  4.5197458520
H   5.1569945636 -5.7118863007  4.1707458520
84
Scanning combination 242/256: [1.5000, 2.9000]  Energy = -385.6751519438
O   11.1233000000 -4.8002000000  5.0341000000
O   11.3873000000 -0.2652000000  3.3291000000
O   18.1143000000 -4.2382000000 -2.5629000000
O   15.0523000000 -3.1142000000  0.9841000000
C   13.0053000000 -3.3232000000  2.3291000000
C   12.6993000000 -1.9792000000  2.4491000000
C   12.3973000000 -4.3072000000  3.1831000000
C   11.6323000000 -1.5992000000  3.2951000000
C   11.4783000000 -3.8632000000  4.1231000000
C   11.0613000000 -2.4802000000  4.2331000000
C   10.1223000000 -1.9712000000  5.2561000000
C   10.5373000000 -1.3232000000  6.3251000000
C   9.8643000000 -1.0622000000  7.5921000000
C   8.6825000000 -1.0450000000  7.8959000000
C   10.8123000000 -0.2992000000  8.5731000000
C   14.6833000000 -4.8512000000 -0.4449000000
C   15.5183000000 -3.8012000000 -0.0889000000
C   16.6953000000 -3.5982000000 -0.8399000000
C   16.9703000000 -4.4882000000 -1.8899000000
C   16.1523000000 -5.5962000000 -2.2009000000
C   14.9513000000 -5.7522000000 -1.5279000000
C   13.6583000000 -4.8752000000  0.4711000000
C   13.8893000000 -3.7772000000  1.2511000000
H   13.1623000000 -1.2452000000  1.7971000000
H   12.5583000000 -5.3772000000  3.0881000000
H   11.7383000000 -5.5442000000  4.9131000000
H   11.8513000000  0.1658000000  2.5901000000
H   9.4643000000 -1.3292000000  4.6731000000
H   11.4933000000 -0.8182000000  6.2071000000
H   7.9073000000 -0.9712000000  7.1161000000
H   8.2313000000 -0.9072000000  8.8131000000
H   11.1183000000  0.6778000000  8.1811000000
H   11.7213000000 -0.7962000000  8.9311000000
H   10.3263000000 -0.0742000000  9.5301000000
H   17.3553000000 -2.7642000000 -0.6209000000
H   16.3753000000 -6.3042000000 -2.9929000000
H   14.4873000000 -6.7332000000 -1.5779000000
H   12.8783000000 -5.6272000000  0.4831000000
H   18.2613000000 -4.9422000000 -3.2189000000
C   11.1243654414 -4.9760524846  9.3811913975
O   13.4553654414 -5.3280524846  9.8691913975
C   12.4823654414 -4.9060524846  9.0231913975
O   8.9013654414 -4.4600524846  8.9091913975
C   12.9403654414 -4.2340524846  7.8431913975
O   7.6533654414 -2.5040524846  4.7091913975
C   11.9613654414 -3.7550524846  6.9861913975
O   5.9503654414 -3.7400524846  3.1421913975
C   10.5743654414 -3.8650524846  7.2531913975
O   7.8643654414 -6.0200524846 -0.6778086025
C   10.1783654414 -4.4430524846  8.4721913975
C   9.4021654414 -3.4592524846  6.4594913975
C   9.7413654414 -3.4250524846  5.1021913975
C   8.5163654414 -3.2400524846  4.3241913975
C   8.3503654414 -4.0210524846  3.0151913975
C   9.4743654414 -4.5500524846  2.3231913975
C   7.0423654414 -4.1640524846  2.4451913975
C   9.3003654414 -5.3100524846  1.1541913975
C   6.8783654414 -4.9210524846  1.2521913975
C   8.0383654414 -5.3480524846  0.5661913975
C   5.4823654414 -5.2500524846  0.8351913975
C   5.0973654414 -6.6960524846  0.5461913975
C   5.2753654414 -7.7950524846  1.3511913975
C   4.8073654414 -9.1720524846  0.9001913975
C   5.9803654414 -7.7020524846  2.7221913975
H   10.7593654414 -5.2360524846  10.3701913975
H   14.0133654414 -4.0960524846  7.7481913975
H   12.2713654414 -3.3100524846  6.0451913975
H   12.9923654414 -5.7660524846  10.6041913975
H   8.8473654414 -5.0460524846  9.6841913975
H   8.5103654414 -3.4100524846  6.8401913975
H   10.0073654414 -4.4610524846  4.9261913975
H   10.4593654414 -4.5070524846  2.7771913975
H   10.1263654414 -5.6290524846  0.5251913975
H   6.3533654414 -3.3330524846  3.9291913975
H   6.9233654414 -6.2000524846 -0.8448086025
H   4.6173654414 -4.8740524846  1.3951913975
H   5.3633654414 -4.7620524846 -0.1398086025
H   4.4643654414 -6.8760524846 -0.3198086025
H   4.3053654414 -9.7230524846  1.7051913975
H   5.7383654414 -9.6930524846  0.6461913975
H   4.0253654414 -9.1340524846  0.1311913975
H   6.9613654414 -8.1740524846  2.8571913975
H   5.3333654414 -8.1690524846  3.4751913975
H   5.9813654414 -6.6820524846  3.1261913975
84
Scanning combination 243/256: [1.5000, 2.8000]  Energy = -385.6838873621
O   11.1233000000 -4.8002000000  5.0341000000
O   11.3873000000 -0.2652000000  3.3291000000
O   18.1143000000 -4.2382000000 -2.5629000000
O   15.0523000000 -3.1142000000  0.9841000000
C   13.0053000000 -3.3232000000  2.3291000000
C   12.6993000000 -1.9792000000  2.4491000000
C   12.3973000000 -4.3072000000  3.1831000000
C   11.6323000000 -1.5992000000  3.2951000000
C   11.4783000000 -3.8632000000  4.1231000000
C   11.0613000000 -2.4802000000  4.2331000000
C   10.1223000000 -1.9712000000  5.2561000000
C   10.5373000000 -1.3232000000  6.3251000000
C   9.8643000000 -1.0622000000  7.5921000000
C   8.6825000000 -1.0450000000  7.8959000000
C   10.8123000000 -0.2992000000  8.5731000000
C   14.6833000000 -4.8512000000 -0.4449000000
C   15.5183000000 -3.8012000000 -0.0889000000
C   16.6953000000 -3.5982000000 -0.8399000000
C   16.9703000000 -4.4882000000 -1.8899000000
C   16.1523000000 -5.5962000000 -2.2009000000
C   14.9513000000 -5.7522000000 -1.5279000000
C   13.6583000000 -4.8752000000  0.4711000000
C   13.8893000000 -3.7772000000  1.2511000000
H   13.1623000000 -1.2452000000  1.7971000000
H   12.5583000000 -5.3772000000  3.0881000000
H   11.7383000000 -5.5442000000  4.9131000000
H   11.8513000000  0.1658000000  2.5901000000
H   9.4643000000 -1.3292000000  4.6731000000
H   11.4933000000 -0.8182000000  6.2071000000
H   7.9073000000 -0.9712000000  7.1161000000
H   8.2313000000 -0.9072000000  8.8131000000
H   11.1183000000  0.6778000000  8.1811000000
H   11.7213000000 -0.7962000000  8.9311000000
H   10.3263000000 -0.0742000000  9.5301000000
H   17.3553000000 -2.7642000000 -0.6209000000
H   16.3753000000 -6.3042000000 -2.9929000000
H   14.4873000000 -6.7332000000 -1.5779000000
H   12.8783000000 -5.6272000000  0.4831000000
H   18.2613000000 -4.9422000000 -3.2189000000
C   11.1042093538 -4.8896164248  9.4277197076
O   13.4352093538 -5.2416164248  9.9157197076
C   12.4622093538 -4.8196164248  9.0697197076
O   8.8812093538 -4.3736164248  8.9557197076
C   12.9202093538 -4.1476164248  7.8897197076
O   7.6332093538 -2.4176164248  4.7557197076
C   11.9412093538 -3.6686164248  7.0327197076
O   5.9302093538 -3.6536164248  3.1887197076
C   10.5542093538 -3.7786164248  7.2997197076
O   7.8442093538 -5.9336164248 -0.6312802924
C   10.1582093538 -4.3566164248  8.5187197076
C   9.3820093538 -3.3728164248  6.5060197076
C   9.7212093538 -3.3386164248  5.1487197076
C   8.4962093538 -3.1536164248  4.3707197076
C   8.3302093538 -3.9346164248  3.0617197076
C   9.4542093538 -4.4636164248  2.3697197076
C   7.0222093538 -4.0776164248  2.4917197076
C   9.2802093538 -5.2236164248  1.2007197076
C   6.8582093538 -4.8346164248  1.2987197076
C   8.0182093538 -5.2616164248  0.6127197076
C   5.4622093538 -5.1636164248  0.8817197076
C   5.0772093538 -6.6096164248  0.5927197076
C   5.2552093538 -7.7086164248  1.3977197076
C   4.7872093538 -9.0856164248  0.9467197076
C   5.9602093538 -7.6156164248  2.7687197076
H   10.7392093538 -5.1496164248  10.4167197076
H   13.9932093538 -4.0096164248  7.7947197076
H   12.2512093538 -3.2236164248  6.0917197076
H   12.9722093538 -5.6796164248  10.6507197076
H   8.8272093538 -4.9596164248  9.7307197076
H   8.4902093538 -3.3236164248  6.8867197076
H   9.9872093538 -4.3746164248  4.9727197076
H   10.4392093538 -4.4206164248  2.8237197076
H   10.1062093538 -5.5426164248  0.5717197076
H   6.3332093538 -3.2466164248  3.9757197076
H   6.9032093538 -6.1136164248 -0.7982802924
H   4.5972093538 -4.7876164248  1.4417197076
H   5.3432093538 -4.6756164248 -0.0932802924
H   4.4442093538 -6.7896164248 -0.2732802924
H   4.2852093538 -9.6366164248  1.7517197076
H   5.7182093538 -9.6066164248  0.6927197076
H   4.0052093538 -9.0476164248  0.1777197076
H   6.9412093538 -8.0876164248  2.9037197076
H   5.3132093538 -8.0826164248  3.5217197076
H   5.9612093538 -6.5956164248  3.1727197076
84
Scanning combination 244/256: [1.5000, 2.7000]  Energy = -385.7153545614
O   11.1233000000 -4.8002000000  5.0341000000
O   11.3873000000 -0.2652000000  3.3291000000
O   18.1143000000 -4.2382000000 -2.5629000000
O   15.0523000000 -3.1142000000  0.9841000000
C   13.0053000000 -3.3232000000  2.3291000000
C   12.6993000000 -1.9792000000  2.4491000000
C   12.3973000000 -4.3072000000  3.1831000000
C   11.6323000000 -1.5992000000  3.2951000000
C   11.4783000000 -3.8632000000  4.1231000000
C   11.0613000000 -2.4802000000  4.2331000000
C   10.1223000000 -1.9712000000  5.2561000000
C   10.5373000000 -1.3232000000  6.3251000000
C   9.8643000000 -1.0622000000  7.5921000000
C   8.6825000000 -1.0450000000  7.8959000000
C   10.8123000000 -0.2992000000  8.5731000000
C   14.6833000000 -4.8512000000 -0.4449000000
C   15.5183000000 -3.8012000000 -0.0889000000
C   16.6953000000 -3.5982000000 -0.8399000000
C   16.9703000000 -4.4882000000 -1.8899000000
C   16.1523000000 -5.5962000000 -2.2009000000
C   14.9513000000 -5.7522000000 -1.5279000000
C   13.6583000000 -4.8752000000  0.4711000000
C   13.8893000000 -3.7772000000  1.2511000000
H   13.1623000000 -1.2452000000  1.7971000000
H   12.5583000000 -5.3772000000  3.0881000000
H   11.7383000000 -5.5442000000  4.9131000000
H   11.8513000000  0.1658000000  2.5901000000
H   9.4643000000 -1.3292000000  4.6731000000
H   11.4933000000 -0.8182000000  6.2071000000
H   7.9073000000 -0.9712000000  7.1161000000
H   8.2313000000 -0.9072000000  8.8131000000
H   11.1183000000  0.6778000000  8.1811000000
H   11.7213000000 -0.7962000000  8.9311000000
H   10.3263000000 -0.0742000000  9.5301000000
H   17.3553000000 -2.7642000000 -0.6209000000
H   16.3753000000 -6.3042000000 -2.9929000000
H   14.4873000000 -6.7332000000 -1.5779000000
H   12.8783000000 -5.6272000000  0.4831000000
H   18.2613000000 -4.9422000000 -3.2189000000
C   11.0475054986 -4.8278583341  9.4979040584
O   13.3785054986 -5.1798583341  9.9859040584
C   12.4055054986 -4.7578583341  9.1399040584
O   8.8245054986 -4.3118583341  9.0259040584
C   12.8635054986 -4.0858583341  7.9599040584
O   7.5765054986 -2.3558583341  4.8259040584
C   11.8845054986 -3.6068583341  7.1029040584
O   5.8735054986 -3.5918583341  3.2589040584
C   10.4975054986 -3.7168583341  7.3699040584
O   7.7875054986 -5.8718583341 -0.5610959416
C   10.1015054986 -4.2948583341  8.5889040584
C   9.3253054986 -3.3110583341  6.5762040584
C   9.6645054986 -3.2768583341  5.2189040584
C   8.4395054986 -3.0918583341  4.4409040584
C   8.2735054986 -3.8728583341  3.1319040584
C   9.3975054986 -4.4018583341  2.4399040584
C   6.9655054986 -4.0158583341  2.5619040584
C   9.2235054986 -5.1618583341  1.2709040584
C   6.8015054986 -4.7728583341  1.3689040584
C   7.9615054986 -5.1998583341  0.6829040584
C   5.4055054986 -5.1018583341  0.9519040584
C   5.0205054986 -6.5478583341  0.6629040584
C   5.1985054986 -7.6468583341  1.4679040584
C   4.7305054986 -9.0238583341  1.0169040584
C   5.9035054986 -7.5538583341  2.8389040584
H   10.6825054986 -5.0878583341  10.4869040584
H   13.9365054986 -3.9478583341  7.8649040584
H   12.1945054986 -3.1618583341  6.1619040584
H   12.9155054986 -5.6178583341  10.7209040584
H   8.7705054986 -4.8978583341  9.8009040584
H   8.4335054986 -3.2618583341  6.9569040584
H   9.9305054986 -4.3128583341  5.0429040584
H   10.3825054986 -4.3588583341  2.8939040584
H   10.0495054986 -5.4808583341  0.6419040584
H   6.2765054986 -3.1848583341  4.0459040584
H   6.8465054986 -6.0518583341 -0.7280959416
H   4.5405054986 -4.7258583341  1.5119040584
H   5.2865054986 -4.6138583341 -0.0230959416
H   4.3875054986 -6.7278583341 -0.2030959416
H   4.2285054986 -9.5748583341  1.8219040584
H   5.6615054986 -9.5448583341  0.7629040584
H   3.9485054986 -8.9858583341  0.2479040584
H   6.8845054986 -8.0258583341  2.9739040584
H   5.2565054986 -8.0208583341  3.5919040584
H   5.9045054986 -6.5338583341  3.2429040584
84
Scanning combination 245/256: [1.5000, 2.6000]  Energy = -385.7576779123
O   11.1233000000 -4.8002000000  5.0341000000
O   11.3873000000 -0.2652000000  3.3291000000
O   18.1143000000 -4.2382000000 -2.5629000000
O   15.0523000000 -3.1142000000  0.9841000000
C   13.0053000000 -3.3232000000  2.3291000000
C   12.6993000000 -1.9792000000  2.4491000000
C   12.3973000000 -4.3072000000  3.1831000000
C   11.6323000000 -1.5992000000  3.2951000000
C   11.4783000000 -3.8632000000  4.1231000000
C   11.0613000000 -2.4802000000  4.2331000000
C   10.1223000000 -1.9712000000  5.2561000000
C   10.5373000000 -1.3232000000  6.3251000000
C   9.8643000000 -1.0622000000  7.5921000000
C   8.6825000000 -1.0450000000  7.8959000000
C   10.8123000000 -0.2992000000  8.5731000000
C   14.6833000000 -4.8512000000 -0.4449000000
C   15.5183000000 -3.8012000000 -0.0889000000
C   16.6953000000 -3.5982000000 -0.8399000000
C   16.9703000000 -4.4882000000 -1.8899000000
C   16.1523000000 -5.5962000000 -2.2009000000
C   14.9513000000 -5.7522000000 -1.5279000000
C   13.6583000000 -4.8752000000  0.4711000000
C   13.8893000000 -3.7772000000  1.2511000000
H   13.1623000000 -1.2452000000  1.7971000000
H   12.5583000000 -5.3772000000  3.0881000000
H   11.7383000000 -5.5442000000  4.9131000000
H   11.8513000000  0.1658000000  2.5901000000
H   9.4643000000 -1.3292000000  4.6731000000
H   11.4933000000 -0.8182000000  6.2071000000
H   7.9073000000 -0.9712000000  7.1161000000
H   8.2313000000 -0.9072000000  8.8131000000
H   11.1183000000  0.6778000000  8.1811000000
H   11.7213000000 -0.7962000000  8.9311000000
H   10.3263000000 -0.0742000000  9.5301000000
H   17.3553000000 -2.7642000000 -0.6209000000
H   16.3753000000 -6.3042000000 -2.9929000000
H   14.4873000000 -6.7332000000 -1.5779000000
H   12.8783000000 -5.6272000000  0.4831000000
H   18.2613000000 -4.9422000000 -3.2189000000
C   10.9689325103 -4.7791761700  9.5828093107
O   13.2999325103 -5.1311761700  10.0708093107
C   12.3269325103 -4.7091761700  9.2248093107
O   8.7459325103 -4.2631761700  9.1108093107
C   12.7849325103 -4.0371761700  8.0448093107
O   7.4979325103 -2.3071761700  4.9108093107
C   11.8059325103 -3.5581761700  7.1878093107
O   5.7949325103 -3.5431761700  3.3438093107
C   10.4189325103 -3.6681761700  7.4548093107
O   7.7089325103 -5.8231761700 -0.4761906893
C   10.0229325103 -4.2461761700  8.6738093107
C   9.2467325103 -3.2623761700  6.6611093107
C   9.5859325103 -3.2281761700  5.3038093107
C   8.3609325103 -3.0431761700  4.5258093107
C   8.1949325103 -3.8241761700  3.2168093107
C   9.3189325103 -4.3531761700  2.5248093107
C   6.8869325103 -3.9671761700  2.6468093107
C   9.1449325103 -5.1131761700  1.3558093107
C   6.7229325103 -4.7241761700  1.4538093107
C   7.8829325103 -5.1511761700  0.7678093107
C   5.3269325103 -5.0531761700  1.0368093107
C   4.9419325103 -6.4991761700  0.7478093107
C   5.1199325103 -7.5981761700  1.5528093107
C   4.6519325103 -8.9751761700  1.1018093107
C   5.8249325103 -7.5051761700  2.9238093107
H   10.6039325103 -5.0391761700  10.5718093107
H   13.8579325103 -3.8991761700  7.9498093107
H   12.1159325103 -3.1131761700  6.2468093107
H   12.8369325103 -5.5691761700  10.8058093107
H   8.6919325103 -4.8491761700  9.8858093107
H   8.3549325103 -3.2131761700  7.0418093107
H   9.8519325103 -4.2641761700  5.1278093107
H   10.3039325103 -4.3101761700  2.9788093107
H   9.9709325103 -5.4321761700  0.7268093107
H   6.1979325103 -3.1361761700  4.1308093107
H   6.7679325103 -6.0031761700 -0.6431906893
H   4.4619325103 -4.6771761700  1.5968093107
H   5.2079325103 -4.5651761700  0.0618093107
H   4.3089325103 -6.6791761700 -0.1181906893
H   4.1499325103 -9.5261761700  1.9068093107
H   5.5829325103 -9.4961761700  0.8478093107
H   3.8699325103 -8.9371761700  0.3328093107
H   6.8059325103 -7.9771761700  3.0588093107
H   5.1779325103 -7.9721761700  3.6768093107
H   5.8259325103 -6.4851761700  3.3278093107
84
Scanning combination 246/256: [1.5000, 2.5000]  Energy = -385.7991007563
O   11.1233000000 -4.8002000000  5.0341000000
O   11.3873000000 -0.2652000000  3.3291000000
O   18.1143000000 -4.2382000000 -2.5629000000
O   15.0523000000 -3.1142000000  0.9841000000
C   13.0053000000 -3.3232000000  2.3291000000
C   12.6993000000 -1.9792000000  2.4491000000
C   12.3973000000 -4.3072000000  3.1831000000
C   11.6323000000 -1.5992000000  3.2951000000
C   11.4783000000 -3.8632000000  4.1231000000
C   11.0613000000 -2.4802000000  4.2331000000
C   10.1223000000 -1.9712000000  5.2561000000
C   10.5373000000 -1.3232000000  6.3251000000
C   9.8643000000 -1.0622000000  7.5921000000
C   8.6825000000 -1.0450000000  7.8959000000
C   10.8123000000 -0.2992000000  8.5731000000
C   14.6833000000 -4.8512000000 -0.4449000000
C   15.5183000000 -3.8012000000 -0.0889000000
C   16.6953000000 -3.5982000000 -0.8399000000
C   16.9703000000 -4.4882000000 -1.8899000000
C   16.1523000000 -5.5962000000 -2.2009000000
C   14.9513000000 -5.7522000000 -1.5279000000
C   13.6583000000 -4.8752000000  0.4711000000
C   13.8893000000 -3.7772000000  1.2511000000
H   13.1623000000 -1.2452000000  1.7971000000
H   12.5583000000 -5.3772000000  3.0881000000
H   11.7383000000 -5.5442000000  4.9131000000
H   11.8513000000  0.1658000000  2.5901000000
H   9.4643000000 -1.3292000000  4.6731000000
H   11.4933000000 -0.8182000000  6.2071000000
H   7.9073000000 -0.9712000000  7.1161000000
H   8.2313000000 -0.9072000000  8.8131000000
H   11.1183000000  0.6778000000  8.1811000000
H   11.7213000000 -0.7962000000  8.9311000000
H   10.3263000000 -0.0742000000  9.5301000000
H   17.3553000000 -2.7642000000 -0.6209000000
H   16.3753000000 -6.3042000000 -2.9929000000
H   14.4873000000 -6.7332000000 -1.5779000000
H   12.8783000000 -5.6272000000  0.4831000000
H   18.2613000000 -4.9422000000 -3.2189000000
C   10.8803614541 -4.7340411332  9.6752581589
O   13.2113614541 -5.0860411332  10.1632581589
C   12.2383614541 -4.6640411332  9.3172581589
O   8.6573614541 -4.2180411332  9.2032581589
C   12.6963614541 -3.9920411332  8.1372581589
O   7.4093614541 -2.2620411332  5.0032581589
C   11.7173614541 -3.5130411332  7.2802581589
O   5.7063614541 -3.4980411332  3.4362581589
C   10.3303614541 -3.6230411332  7.5472581589
O   7.6203614541 -5.7780411332 -0.3837418411
C   9.9343614541 -4.2010411332  8.7662581589
C   9.1581614541 -3.2172411332  6.7535581589
C   9.4973614541 -3.1830411332  5.3962581589
C   8.2723614541 -2.9980411332  4.6182581589
C   8.1063614541 -3.7790411332  3.3092581589
C   9.2303614541 -4.3080411332  2.6172581589
C   6.7983614541 -3.9220411332  2.7392581589
C   9.0563614541 -5.0680411332  1.4482581589
C   6.6343614541 -4.6790411332  1.5462581589
C   7.7943614541 -5.1060411332  0.8602581589
C   5.2383614541 -5.0080411332  1.1292581589
C   4.8533614541 -6.4540411332  0.8402581589
C   5.0313614541 -7.5530411332  1.6452581589
C   4.5633614541 -8.9300411332  1.1942581589
C   5.7363614541 -7.4600411332  3.0162581589
H   10.5153614541 -4.9940411332  10.6642581589
H   13.7693614541 -3.8540411332  8.0422581589
H   12.0273614541 -3.0680411332  6.3392581589
H   12.7483614541 -5.5240411332  10.8982581589
H   8.6033614541 -4.8040411332  9.9782581589
H   8.2663614541 -3.1680411332  7.1342581589
H   9.7633614541 -4.2190411332  5.2202581589
H   10.2153614541 -4.2650411332  3.0712581589
H   9.8823614541 -5.3870411332  0.8192581589
H   6.1093614541 -3.0910411332  4.2232581589
H   6.6793614541 -5.9580411332 -0.5507418411
H   4.3733614541 -4.6320411332  1.6892581589
H   5.1193614541 -4.5200411332  0.1542581589
H   4.2203614541 -6.6340411332 -0.0257418411
H   4.0613614541 -9.4810411332  1.9992581589
H   5.4943614541 -9.4510411332  0.9402581589
H   3.7813614541 -8.8920411332  0.4252581589
H   6.7173614541 -7.9320411332  3.1512581589
H   5.0893614541 -7.9270411332  3.7692581589
H   5.7373614541 -6.4400411332  3.4202581589
84
Scanning combination 247/256: [1.5000, 2.4000]  Energy = -385.8299092051
O   11.1233000000 -4.8002000000  5.0341000000
O   11.3873000000 -0.2652000000  3.3291000000
O   18.1143000000 -4.2382000000 -2.5629000000
O   15.0523000000 -3.1142000000  0.9841000000
C   13.0053000000 -3.3232000000  2.3291000000
C   12.6993000000 -1.9792000000  2.4491000000
C   12.3973000000 -4.3072000000  3.1831000000
C   11.6323000000 -1.5992000000  3.2951000000
C   11.4783000000 -3.8632000000  4.1231000000
C   11.0613000000 -2.4802000000  4.2331000000
C   10.1223000000 -1.9712000000  5.2561000000
C   10.5373000000 -1.3232000000  6.3251000000
C   9.8643000000 -1.0622000000  7.5921000000
C   8.6825000000 -1.0450000000  7.8959000000
C   10.8123000000 -0.2992000000  8.5731000000
C   14.6833000000 -4.8512000000 -0.4449000000
C   15.5183000000 -3.8012000000 -0.0889000000
C   16.6953000000 -3.5982000000 -0.8399000000
C   16.9703000000 -4.4882000000 -1.8899000000
C   16.1523000000 -5.5962000000 -2.2009000000
C   14.9513000000 -5.7522000000 -1.5279000000
C   13.6583000000 -4.8752000000  0.4711000000
C   13.8893000000 -3.7772000000  1.2511000000
H   13.1623000000 -1.2452000000  1.7971000000
H   12.5583000000 -5.3772000000  3.0881000000
H   11.7383000000 -5.5442000000  4.9131000000
H   11.8513000000  0.1658000000  2.5901000000
H   9.4643000000 -1.3292000000  4.6731000000
H   11.4933000000 -0.8182000000  6.2071000000
H   7.9073000000 -0.9712000000  7.1161000000
H   8.2313000000 -0.9072000000  8.8131000000
H   11.1183000000  0.6778000000  8.1811000000
H   11.7213000000 -0.7962000000  8.9311000000
H   10.3263000000 -0.0742000000  9.5301000000
H   17.3553000000 -2.7642000000 -0.6209000000
H   16.3753000000 -6.3042000000 -2.9929000000
H   14.4873000000 -6.7332000000 -1.5779000000
H   12.8783000000 -5.6272000000  0.4831000000
H   18.2613000000 -4.9422000000 -3.2189000000
C   10.7917003912 -4.6855500778  9.7689087507
O   13.1227003912 -5.0375500778  10.2569087507
C   12.1497003912 -4.6155500778  9.4109087507
O   8.5687003912 -4.1695500778  9.2969087507
C   12.6077003912 -3.9435500778  8.2309087507
O   7.3207003912 -2.2135500778  5.0969087507
C   11.6287003912 -3.4645500778  7.3739087507
O   5.6177003912 -3.4495500778  3.5299087507
C   10.2417003912 -3.5745500778  7.6409087507
O   7.5317003912 -5.7295500778 -0.2900912493
C   9.8457003912 -4.1525500778  8.8599087507
C   9.0695003912 -3.1687500778  6.8472087507
C   9.4087003912 -3.1345500778  5.4899087507
C   8.1837003912 -2.9495500778  4.7119087507
C   8.0177003912 -3.7305500778  3.4029087507
C   9.1417003912 -4.2595500778  2.7109087507
C   6.7097003912 -3.8735500778  2.8329087507
C   8.9677003912 -5.0195500778  1.5419087507
C   6.5457003912 -4.6305500778  1.6399087507
C   7.7057003912 -5.0575500778  0.9539087507
C   5.1497003912 -4.9595500778  1.2229087507
C   4.7647003912 -6.4055500778  0.9339087507
C   4.9427003912 -7.5045500778  1.7389087507
C   4.4747003912 -8.8815500778  1.2879087507
C   5.6477003912 -7.4115500778  3.1099087507
H   10.4267003912 -4.9455500778  10.7579087507
H   13.6807003912 -3.8055500778  8.1359087507
H   11.9387003912 -3.0195500778  6.4329087507
H   12.6597003912 -5.4755500778  10.9919087507
H   8.5147003912 -4.7555500778  10.0719087507
H   8.1777003912 -3.1195500778  7.2279087507
H   9.6747003912 -4.1705500778  5.3139087507
H   10.1267003912 -4.2165500778  3.1649087507
H   9.7937003912 -5.3385500778  0.9129087507
H   6.0207003912 -3.0425500778  4.3169087507
H   6.5907003912 -5.9095500778 -0.4570912493
H   4.2847003912 -4.5835500778  1.7829087507
H   5.0307003912 -4.4715500778  0.2479087507
H   4.1317003912 -6.5855500778  0.0679087507
H   3.9727003912 -9.4325500778  2.0929087507
H   5.4057003912 -9.4025500778  1.0339087507
H   3.6927003912 -8.8435500778  0.5189087507
H   6.6287003912 -7.8835500778  3.2449087507
H   5.0007003912 -7.8785500778  3.8629087507
H   5.6487003912 -6.3915500778  3.5139087507
84
Scanning combination 248/256: [1.5000, 2.3000]  Energy = -385.8476587530
O   11.1233000000 -4.8002000000  5.0341000000
O   11.3873000000 -0.2652000000  3.3291000000
O   18.1143000000 -4.2382000000 -2.5629000000
O   15.0523000000 -3.1142000000  0.9841000000
C   13.0053000000 -3.3232000000  2.3291000000
C   12.6993000000 -1.9792000000  2.4491000000
C   12.3973000000 -4.3072000000  3.1831000000
C   11.6323000000 -1.5992000000  3.2951000000
C   11.4783000000 -3.8632000000  4.1231000000
C   11.0613000000 -2.4802000000  4.2331000000
C   10.1223000000 -1.9712000000  5.2561000000
C   10.5373000000 -1.3232000000  6.3251000000
C   9.8643000000 -1.0622000000  7.5921000000
C   8.6825000000 -1.0450000000  7.8959000000
C   10.8123000000 -0.2992000000  8.5731000000
C   14.6833000000 -4.8512000000 -0.4449000000
C   15.5183000000 -3.8012000000 -0.0889000000
C   16.6953000000 -3.5982000000 -0.8399000000
C   16.9703000000 -4.4882000000 -1.8899000000
C   16.1523000000 -5.5962000000 -2.2009000000
C   14.9513000000 -5.7522000000 -1.5279000000
C   13.6583000000 -4.8752000000  0.4711000000
C   13.8893000000 -3.7772000000  1.2511000000
H   13.1623000000 -1.2452000000  1.7971000000
H   12.5583000000 -5.3772000000  3.0881000000
H   11.7383000000 -5.5442000000  4.9131000000
H   11.8513000000  0.1658000000  2.5901000000
H   9.4643000000 -1.3292000000  4.6731000000
H   11.4933000000 -0.8182000000  6.2071000000
H   7.9073000000 -0.9712000000  7.1161000000
H   8.2313000000 -0.9072000000  8.8131000000
H   11.1183000000  0.6778000000  8.1811000000
H   11.7213000000 -0.7962000000  8.9311000000
H   10.3263000000 -0.0742000000  9.5301000000
H   17.3553000000 -2.7642000000 -0.6209000000
H   16.3753000000 -6.3042000000 -2.9929000000
H   14.4873000000 -6.7332000000 -1.5779000000
H   12.8783000000 -5.6272000000  0.4831000000
H   18.2613000000 -4.9422000000 -3.2189000000
C   10.7097595726 -4.6301087504  9.8590169869
O   13.0407595726 -4.9821087504  10.3470169869
C   12.0677595726 -4.5601087504  9.5010169869
O   8.4867595726 -4.1141087504  9.3870169869
C   12.5257595726 -3.8881087504  8.3210169869
O   7.2387595726 -2.1581087504  5.1870169869
C   11.5467595726 -3.4091087504  7.4640169869
O   5.5357595726 -3.3941087504  3.6200169869
C   10.1597595726 -3.5191087504  7.7310169869
O   7.4497595726 -5.6741087504 -0.1999830131
C   9.7637595726 -4.0971087504  8.9500169869
C   8.9875595726 -3.1133087504  6.9373169869
C   9.3267595726 -3.0791087504  5.5800169869
C   8.1017595726 -2.8941087504  4.8020169869
C   7.9357595726 -3.6751087504  3.4930169869
C   9.0597595726 -4.2041087504  2.8010169869
C   6.6277595726 -3.8181087504  2.9230169869
C   8.8857595726 -4.9641087504  1.6320169869
C   6.4637595726 -4.5751087504  1.7300169869
C   7.6237595726 -5.0021087504  1.0440169869
C   5.0677595726 -4.9041087504  1.3130169869
C   4.6827595726 -6.3501087504  1.0240169869
C   4.8607595726 -7.4491087504  1.8290169869
C   4.3927595726 -8.8261087504  1.3780169869
C   5.5657595726 -7.3561087504  3.2000169869
H   10.3447595726 -4.8901087504  10.8480169869
H   13.5987595726 -3.7501087504  8.2260169869
H   11.8567595726 -2.9641087504  6.5230169869
H   12.5777595726 -5.4201087504  11.0820169869
H   8.4327595726 -4.7001087504  10.1620169869
H   8.0957595726 -3.0641087504  7.3180169869
H   9.5927595726 -4.1151087504  5.4040169869
H   10.0447595726 -4.1611087504  3.2550169869
H   9.7117595726 -5.2831087504  1.0030169869
H   5.9387595726 -2.9871087504  4.4070169869
H   6.5087595726 -5.8541087504 -0.3669830131
H   4.2027595726 -4.5281087504  1.8730169869
H   4.9487595726 -4.4161087504  0.3380169869
H   4.0497595726 -6.5301087504  0.1580169869
H   3.8907595726 -9.3771087504  2.1830169869
H   5.3237595726 -9.3471087504  1.1240169869
H   3.6107595726 -8.7881087504  0.6090169869
H   6.5467595726 -7.8281087504  3.3350169869
H   4.9187595726 -7.8231087504  3.9530169869
H   5.5667595726 -6.3361087504  3.6040169869
84
Scanning combination 249/256: [1.5000, 2.2000]  Energy = -385.8524171110
O   11.1233000000 -4.8002000000  5.0341000000
O   11.3873000000 -0.2652000000  3.3291000000
O   18.1143000000 -4.2382000000 -2.5629000000
O   15.0523000000 -3.1142000000  0.9841000000
C   13.0053000000 -3.3232000000  2.3291000000
C   12.6993000000 -1.9792000000  2.4491000000
C   12.3973000000 -4.3072000000  3.1831000000
C   11.6323000000 -1.5992000000  3.2951000000
C   11.4783000000 -3.8632000000  4.1231000000
C   11.0613000000 -2.4802000000  4.2331000000
C   10.1223000000 -1.9712000000  5.2561000000
C   10.5373000000 -1.3232000000  6.3251000000
C   9.8643000000 -1.0622000000  7.5921000000
C   8.6825000000 -1.0450000000  7.8959000000
C   10.8123000000 -0.2992000000  8.5731000000
C   14.6833000000 -4.8512000000 -0.4449000000
C   15.5183000000 -3.8012000000 -0.0889000000
C   16.6953000000 -3.5982000000 -0.8399000000
C   16.9703000000 -4.4882000000 -1.8899000000
C   16.1523000000 -5.5962000000 -2.2009000000
C   14.9513000000 -5.7522000000 -1.5279000000
C   13.6583000000 -4.8752000000  0.4711000000
C   13.8893000000 -3.7772000000  1.2511000000
H   13.1623000000 -1.2452000000  1.7971000000
H   12.5583000000 -5.3772000000  3.0881000000
H   11.7383000000 -5.5442000000  4.9131000000
H   11.8513000000  0.1658000000  2.5901000000
H   9.4643000000 -1.3292000000  4.6731000000
H   11.4933000000 -0.8182000000  6.2071000000
H   7.9073000000 -0.9712000000  7.1161000000
H   8.2313000000 -0.9072000000  8.8131000000
H   11.1183000000  0.6778000000  8.1811000000
H   11.7213000000 -0.7962000000  8.9311000000
H   10.3263000000 -0.0742000000  9.5301000000
H   17.3553000000 -2.7642000000 -0.6209000000
H   16.3753000000 -6.3042000000 -2.9929000000
H   14.4873000000 -6.7332000000 -1.5779000000
H   12.8783000000 -5.6272000000  0.4831000000
H   18.2613000000 -4.9422000000 -3.2189000000
C   10.6377044834 -4.5669803970  9.9430652099
O   12.9687044834 -4.9189803970  10.4310652099
C   11.9957044834 -4.4969803970  9.5850652099
O   8.4147044834 -4.0509803970  9.4710652099
C   12.4537044834 -3.8249803970  8.4050652099
O   7.1667044834 -2.0949803970  5.2710652099
C   11.4747044834 -3.3459803970  7.5480652099
O   5.4637044834 -3.3309803970  3.7040652099
C   10.0877044834 -3.4559803970  7.8150652099
O   7.3777044834 -5.6109803970 -0.1159347901
C   9.6917044834 -4.0339803970  9.0340652099
C   8.9155044834 -3.0501803970  7.0213652099
C   9.2547044834 -3.0159803970  5.6640652099
C   8.0297044834 -2.8309803970  4.8860652099
C   7.8637044834 -3.6119803970  3.5770652099
C   8.9877044834 -4.1409803970  2.8850652099
C   6.5557044834 -3.7549803970  3.0070652099
C   8.8137044834 -4.9009803970  1.7160652099
C   6.3917044834 -4.5119803970  1.8140652099
C   7.5517044834 -4.9389803970  1.1280652099
C   4.9957044834 -4.8409803970  1.3970652099
C   4.6107044834 -6.2869803970  1.1080652099
C   4.7887044834 -7.3859803970  1.9130652099
C   4.3207044834 -8.7629803970  1.4620652099
C   5.4937044834 -7.2929803970  3.2840652099
H   10.2727044834 -4.8269803970  10.9320652099
H   13.5267044834 -3.6869803970  8.3100652099
H   11.7847044834 -2.9009803970  6.6070652099
H   12.5057044834 -5.3569803970  11.1660652099
H   8.3607044834 -4.6369803970  10.2460652099
H   8.0237044834 -3.0009803970  7.4020652099
H   9.5207044834 -4.0519803970  5.4880652099
H   9.9727044834 -4.0979803970  3.3390652099
H   9.6397044834 -5.2199803970  1.0870652099
H   5.8667044834 -2.9239803970  4.4910652099
H   6.4367044834 -5.7909803970 -0.2829347901
H   4.1307044834 -4.4649803970  1.9570652099
H   4.8767044834 -4.3529803970  0.4220652099
H   3.9777044834 -6.4669803970  0.2420652099
H   3.8187044834 -9.3139803970  2.2670652099
H   5.2517044834 -9.2839803970  1.2080652099
H   3.5387044834 -8.7249803970  0.6930652099
H   6.4747044834 -7.7649803970  3.4190652099
H   4.8467044834 -7.7599803970  4.0370652099
H   5.4947044834 -6.2729803970  3.6880652099
84
Scanning combination 250/256: [1.5000, 2.1000]  Energy = -385.8454326387
O   11.1233000000 -4.8002000000  5.0341000000
O   11.3873000000 -0.2652000000  3.3291000000
O   18.1143000000 -4.2382000000 -2.5629000000
O   15.0523000000 -3.1142000000  0.9841000000
C   13.0053000000 -3.3232000000  2.3291000000
C   12.6993000000 -1.9792000000  2.4491000000
C   12.3973000000 -4.3072000000  3.1831000000
C   11.6323000000 -1.5992000000  3.2951000000
C   11.4783000000 -3.8632000000  4.1231000000
C   11.0613000000 -2.4802000000  4.2331000000
C   10.1223000000 -1.9712000000  5.2561000000
C   10.5373000000 -1.3232000000  6.3251000000
C   9.8643000000 -1.0622000000  7.5921000000
C   8.6825000000 -1.0450000000  7.8959000000
C   10.8123000000 -0.2992000000  8.5731000000
C   14.6833000000 -4.8512000000 -0.4449000000
C   15.5183000000 -3.8012000000 -0.0889000000
C   16.6953000000 -3.5982000000 -0.8399000000
C   16.9703000000 -4.4882000000 -1.8899000000
C   16.1523000000 -5.5962000000 -2.2009000000
C   14.9513000000 -5.7522000000 -1.5279000000
C   13.6583000000 -4.8752000000  0.4711000000
C   13.8893000000 -3.7772000000  1.2511000000
H   13.1623000000 -1.2452000000  1.7971000000
H   12.5583000000 -5.3772000000  3.0881000000
H   11.7383000000 -5.5442000000  4.9131000000
H   11.8513000000  0.1658000000  2.5901000000
H   9.4643000000 -1.3292000000  4.6731000000
H   11.4933000000 -0.8182000000  6.2071000000
H   7.9073000000 -0.9712000000  7.1161000000
H   8.2313000000 -0.9072000000  8.8131000000
H   11.1183000000  0.6778000000  8.1811000000
H   11.7213000000 -0.7962000000  8.9311000000
H   10.3263000000 -0.0742000000  9.5301000000
H   17.3553000000 -2.7642000000 -0.6209000000
H   16.3753000000 -6.3042000000 -2.9929000000
H   14.4873000000 -6.7332000000 -1.5779000000
H   12.8783000000 -5.6272000000  0.4831000000
H   18.2613000000 -4.9422000000 -3.2189000000
C   10.5759644398 -4.4969994447  10.0203992698
O   12.9069644398 -4.8489994447  10.5083992698
C   11.9339644398 -4.4269994447  9.6623992698
O   8.3529644398 -3.9809994447  9.5483992698
C   12.3919644398 -3.7549994447  8.4823992698
O   7.1049644398 -2.0249994447  5.3483992698
C   11.4129644398 -3.2759994447  7.6253992698
O   5.4019644398 -3.2609994447  3.7813992698
C   10.0259644398 -3.3859994447  7.8923992698
O   7.3159644398 -5.5409994447 -0.0386007302
C   9.6299644398 -3.9639994447  9.1113992698
C   8.8537644398 -2.9801994447  7.0986992698
C   9.1929644398 -2.9459994447  5.7413992698
C   7.9679644398 -2.7609994447  4.9633992698
C   7.8019644398 -3.5419994447  3.6543992698
C   8.9259644398 -4.0709994447  2.9623992698
C   6.4939644398 -3.6849994447  3.0843992698
C   8.7519644398 -4.8309994447  1.7933992698
C   6.3299644398 -4.4419994447  1.8913992698
C   7.4899644398 -4.8689994447  1.2053992698
C   4.9339644398 -4.7709994447  1.4743992698
C   4.5489644398 -6.2169994447  1.1853992698
C   4.7269644398 -7.3159994447  1.9903992698
C   4.2589644398 -8.6929994447  1.5393992698
C   5.4319644398 -7.2229994447  3.3613992698
H   10.2109644398 -4.7569994447  11.0093992698
H   13.4649644398 -3.6169994447  8.3873992698
H   11.7229644398 -2.8309994447  6.6843992698
H   12.4439644398 -5.2869994447  11.2433992698
H   8.2989644398 -4.5669994447  10.3233992698
H   7.9619644398 -2.9309994447  7.4793992698
H   9.4589644398 -3.9819994447  5.5653992698
H   9.9109644398 -4.0279994447  3.4163992698
H   9.5779644398 -5.1499994447  1.1643992698
H   5.8049644398 -2.8539994447  4.5683992698
H   6.3749644398 -5.7209994447 -0.2056007302
H   4.0689644398 -4.3949994447  2.0343992698
H   4.8149644398 -4.2829994447  0.4993992698
H   3.9159644398 -6.3969994447  0.3193992698
H   3.7569644398 -9.2439994447  2.3443992698
H   5.1899644398 -9.2139994447  1.2853992698
H   3.4769644398 -8.6549994447  0.7703992698
H   6.4129644398 -7.6949994447  3.4963992698
H   4.7849644398 -7.6899994447  4.1143992698
H   5.4329644398 -6.2029994447  3.7653992698
84
Scanning combination 251/256: [1.5000, 2.0000]  Energy = -385.8290313478
O   11.1233000000 -4.8002000000  5.0341000000
O   11.3873000000 -0.2652000000  3.3291000000
O   18.1143000000 -4.2382000000 -2.5629000000
O   15.0523000000 -3.1142000000  0.9841000000
C   13.0053000000 -3.3232000000  2.3291000000
C   12.6993000000 -1.9792000000  2.4491000000
C   12.3973000000 -4.3072000000  3.1831000000
C   11.6323000000 -1.5992000000  3.2951000000
C   11.4783000000 -3.8632000000  4.1231000000
C   11.0613000000 -2.4802000000  4.2331000000
C   10.1223000000 -1.9712000000  5.2561000000
C   10.5373000000 -1.3232000000  6.3251000000
C   9.8643000000 -1.0622000000  7.5921000000
C   8.6825000000 -1.0450000000  7.8959000000
C   10.8123000000 -0.2992000000  8.5731000000
C   14.6833000000 -4.8512000000 -0.4449000000
C   15.5183000000 -3.8012000000 -0.0889000000
C   16.6953000000 -3.5982000000 -0.8399000000
C   16.9703000000 -4.4882000000 -1.8899000000
C   16.1523000000 -5.5962000000 -2.2009000000
C   14.9513000000 -5.7522000000 -1.5279000000
C   13.6583000000 -4.8752000000  0.4711000000
C   13.8893000000 -3.7772000000  1.2511000000
H   13.1623000000 -1.2452000000  1.7971000000
H   12.5583000000 -5.3772000000  3.0881000000
H   11.7383000000 -5.5442000000  4.9131000000
H   11.8513000000  0.1658000000  2.5901000000
H   9.4643000000 -1.3292000000  4.6731000000
H   11.4933000000 -0.8182000000  6.2071000000
H   7.9073000000 -0.9712000000  7.1161000000
H   8.2313000000 -0.9072000000  8.8131000000
H   11.1183000000  0.6778000000  8.1811000000
H   11.7213000000 -0.7962000000  8.9311000000
H   10.3263000000 -0.0742000000  9.5301000000
H   17.3553000000 -2.7642000000 -0.6209000000
H   16.3753000000 -6.3042000000 -2.9929000000
H   14.4873000000 -6.7332000000 -1.5779000000
H   12.8783000000 -5.6272000000  0.4831000000
H   18.2613000000 -4.9422000000 -3.2189000000
C   10.5237004182 -4.4214322526  10.0913280267
O   12.8547004182 -4.7734322526  10.5793280267
C   11.8817004182 -4.3514322526  9.7333280267
O   8.3007004182 -3.9054322526  9.6193280267
C   12.3397004182 -3.6794322526  8.5533280267
O   7.0527004182 -1.9494322526  5.4193280267
C   11.3607004182 -3.2004322526  7.6963280267
O   5.3497004182 -3.1854322526  3.8523280267
C   9.9737004182 -3.3104322526  7.9633280267
O   7.2637004182 -5.4654322526  0.0323280267
C   9.5777004182 -3.8884322526  9.1823280267
C   8.8015004182 -2.9046322526  7.1696280267
C   9.1407004182 -2.8704322526  5.8123280267
C   7.9157004182 -2.6854322526  5.0343280267
C   7.7497004182 -3.4664322526  3.7253280267
C   8.8737004182 -3.9954322526  3.0333280267
C   6.4417004182 -3.6094322526  3.1553280267
C   8.6997004182 -4.7554322526  1.8643280267
C   6.2777004182 -4.3664322526  1.9623280267
C   7.4377004182 -4.7934322526  1.2763280267
C   4.8817004182 -4.6954322526  1.5453280267
C   4.4967004182 -6.1414322526  1.2563280267
C   4.6747004182 -7.2404322526  2.0613280267
C   4.2067004182 -8.6174322526  1.6103280267
C   5.3797004182 -7.1474322526  3.4323280267
H   10.1587004182 -4.6814322526  11.0803280267
H   13.4127004182 -3.5414322526  8.4583280267
H   11.6707004182 -2.7554322526  6.7553280267
H   12.3917004182 -5.2114322526  11.3143280267
H   8.2467004182 -4.4914322526  10.3943280267
H   7.9097004182 -2.8554322526  7.5503280267
H   9.4067004182 -3.9064322526  5.6363280267
H   9.8587004182 -3.9524322526  3.4873280267
H   9.5257004182 -5.0744322526  1.2353280267
H   5.7527004182 -2.7784322526  4.6393280267
H   6.3227004182 -5.6454322526 -0.1346719733
H   4.0167004182 -4.3194322526  2.1053280267
H   4.7627004182 -4.2074322526  0.5703280267
H   3.8637004182 -6.3214322526  0.3903280267
H   3.7047004182 -9.1684322526  2.4153280267
H   5.1377004182 -9.1384322526  1.3563280267
H   3.4247004182 -8.5794322526  0.8413280267
H   6.3607004182 -7.6194322526  3.5673280267
H   4.7327004182 -7.6144322526  4.1853280267
H   5.3807004182 -6.1274322526  3.8363280267
84
Scanning combination 252/256: [1.5000, 1.9000]  Energy = -385.8049973246
O   11.1233000000 -4.8002000000  5.0341000000
O   11.3873000000 -0.2652000000  3.3291000000
O   18.1143000000 -4.2382000000 -2.5629000000
O   15.0523000000 -3.1142000000  0.9841000000
C   13.0053000000 -3.3232000000  2.3291000000
C   12.6993000000 -1.9792000000  2.4491000000
C   12.3973000000 -4.3072000000  3.1831000000
C   11.6323000000 -1.5992000000  3.2951000000
C   11.4783000000 -3.8632000000  4.1231000000
C   11.0613000000 -2.4802000000  4.2331000000
C   10.1223000000 -1.9712000000  5.2561000000
C   10.5373000000 -1.3232000000  6.3251000000
C   9.8643000000 -1.0622000000  7.5921000000
C   8.6825000000 -1.0450000000  7.8959000000
C   10.8123000000 -0.2992000000  8.5731000000
C   14.6833000000 -4.8512000000 -0.4449000000
C   15.5183000000 -3.8012000000 -0.0889000000
C   16.6953000000 -3.5982000000 -0.8399000000
C   16.9703000000 -4.4882000000 -1.8899000000
C   16.1523000000 -5.5962000000 -2.2009000000
C   14.9513000000 -5.7522000000 -1.5279000000
C   13.6583000000 -4.8752000000  0.4711000000
C   13.8893000000 -3.7772000000  1.2511000000
H   13.1623000000 -1.2452000000  1.7971000000
H   12.5583000000 -5.3772000000  3.0881000000
H   11.7383000000 -5.5442000000  4.9131000000
H   11.8513000000  0.1658000000  2.5901000000
H   9.4643000000 -1.3292000000  4.6731000000
H   11.4933000000 -0.8182000000  6.2071000000
H   7.9073000000 -0.9712000000  7.1161000000
H   8.2313000000 -0.9072000000  8.8131000000
H   11.1183000000  0.6778000000  8.1811000000
H   11.7213000000 -0.7962000000  8.9311000000
H   10.3263000000 -0.0742000000  9.5301000000
H   17.3553000000 -2.7642000000 -0.6209000000
H   16.3753000000 -6.3042000000 -2.9929000000
H   14.4873000000 -6.7332000000 -1.5779000000
H   12.8783000000 -5.6272000000  0.4831000000
H   18.2613000000 -4.9422000000 -3.2189000000
C   10.4798394737 -4.3414202147  10.1564064315
O   12.8108394737 -4.6934202147  10.6444064315
C   11.8378394737 -4.2714202147  9.7984064315
O   8.2568394737 -3.8254202147  9.6844064315
C   12.2958394737 -3.5994202147  8.6184064315
O   7.0088394737 -1.8694202147  5.4844064315
C   11.3168394737 -3.1204202147  7.7614064315
O   5.3058394737 -3.1054202147  3.9174064315
C   9.9298394737 -3.2304202147  8.0284064315
O   7.2198394737 -5.3854202147  0.0974064315
C   9.5338394737 -3.8084202147  9.2474064315
C   8.7576394737 -2.8246202147  7.2347064315
C   9.0968394737 -2.7904202147  5.8774064315
C   7.8718394737 -2.6054202147  5.0994064315
C   7.7058394737 -3.3864202147  3.7904064315
C   8.8298394737 -3.9154202147  3.0984064315
C   6.3978394737 -3.5294202147  3.2204064315
C   8.6558394737 -4.6754202147  1.9294064315
C   6.2338394737 -4.2864202147  2.0274064315
C   7.3938394737 -4.7134202147  1.3414064315
C   4.8378394737 -4.6154202147  1.6104064315
C   4.4528394737 -6.0614202147  1.3214064315
C   4.6308394737 -7.1604202147  2.1264064315
C   4.1628394737 -8.5374202147  1.6754064315
C   5.3358394737 -7.0674202147  3.4974064315
H   10.1148394737 -4.6014202147  11.1454064315
H   13.3688394737 -3.4614202147  8.5234064315
H   11.6268394737 -2.6754202147  6.8204064315
H   12.3478394737 -5.1314202147  11.3794064315
H   8.2028394737 -4.4114202147  10.4594064315
H   7.8658394737 -2.7754202147  7.6154064315
H   9.3628394737 -3.8264202147  5.7014064315
H   9.8148394737 -3.8724202147  3.5524064315
H   9.4818394737 -4.9944202147  1.3004064315
H   5.7088394737 -2.6984202147  4.7044064315
H   6.2788394737 -5.5654202147 -0.0695935685
H   3.9728394737 -4.2394202147  2.1704064315
H   4.7188394737 -4.1274202147  0.6354064315
H   3.8198394737 -6.2414202147  0.4554064315
H   3.6608394737 -9.0884202147  2.4804064315
H   5.0938394737 -9.0584202147  1.4214064315
H   3.3808394737 -8.4994202147  0.9064064315
H   6.3168394737 -7.5394202147  3.6324064315
H   4.6888394737 -7.5344202147  4.2504064315
H   5.3368394737 -6.0474202147  3.9014064315
84
Scanning combination 253/256: [1.5000, 1.8000]  Energy = -385.7728077169
O   11.1233000000 -4.8002000000  5.0341000000
O   11.3873000000 -0.2652000000  3.3291000000
O   18.1143000000 -4.2382000000 -2.5629000000
O   15.0523000000 -3.1142000000  0.9841000000
C   13.0053000000 -3.3232000000  2.3291000000
C   12.6993000000 -1.9792000000  2.4491000000
C   12.3973000000 -4.3072000000  3.1831000000
C   11.6323000000 -1.5992000000  3.2951000000
C   11.4783000000 -3.8632000000  4.1231000000
C   11.0613000000 -2.4802000000  4.2331000000
C   10.1223000000 -1.9712000000  5.2561000000
C   10.5373000000 -1.3232000000  6.3251000000
C   9.8643000000 -1.0622000000  7.5921000000
C   8.6825000000 -1.0450000000  7.8959000000
C   10.8123000000 -0.2992000000  8.5731000000
C   14.6833000000 -4.8512000000 -0.4449000000
C   15.5183000000 -3.8012000000 -0.0889000000
C   16.6953000000 -3.5982000000 -0.8399000000
C   16.9703000000 -4.4882000000 -1.8899000000
C   16.1523000000 -5.5962000000 -2.2009000000
C   14.9513000000 -5.7522000000 -1.5279000000
C   13.6583000000 -4.8752000000  0.4711000000
C   13.8893000000 -3.7772000000  1.2511000000
H   13.1623000000 -1.2452000000  1.7971000000
H   12.5583000000 -5.3772000000  3.0881000000
H   11.7383000000 -5.5442000000  4.9131000000
H   11.8513000000  0.1658000000  2.5901000000
H   9.4643000000 -1.3292000000  4.6731000000
H   11.4933000000 -0.8182000000  6.2071000000
H   7.9073000000 -0.9712000000  7.1161000000
H   8.2313000000 -0.9072000000  8.8131000000
H   11.1183000000  0.6778000000  8.1811000000
H   11.7213000000 -0.7962000000  8.9311000000
H   10.3263000000 -0.0742000000  9.5301000000
H   17.3553000000 -2.7642000000 -0.6209000000
H   16.3753000000 -6.3042000000 -2.9929000000
H   14.4873000000 -6.7332000000 -1.5779000000
H   12.8783000000 -5.6272000000  0.4831000000
H   18.2613000000 -4.9422000000 -3.2189000000
C   10.4434840058 -4.2578530742  10.2161205366
O   12.7744840058 -4.6098530742  10.7041205366
C   11.8014840058 -4.1878530742  9.8581205366
O   8.2204840058 -3.7418530742  9.7441205366
C   12.2594840058 -3.5158530742  8.6781205366
O   6.9724840058 -1.7858530742  5.5441205366
C   11.2804840058 -3.0368530742  7.8211205366
O   5.2694840058 -3.0218530742  3.9771205366
C   9.8934840058 -3.1468530742  8.0881205366
O   7.1834840058 -5.3018530742  0.1571205366
C   9.4974840058 -3.7248530742  9.3071205366
C   8.7212840058 -2.7410530742  7.2944205366
C   9.0604840058 -2.7068530742  5.9371205366
C   7.8354840058 -2.5218530742  5.1591205366
C   7.6694840058 -3.3028530742  3.8501205366
C   8.7934840058 -3.8318530742  3.1581205366
C   6.3614840058 -3.4458530742  3.2801205366
C   8.6194840058 -4.5918530742  1.9891205366
C   6.1974840058 -4.2028530742  2.0871205366
C   7.3574840058 -4.6298530742  1.4011205366
C   4.8014840058 -4.5318530742  1.6701205366
C   4.4164840058 -5.9778530742  1.3811205366
C   4.5944840058 -7.0768530742  2.1861205366
C   4.1264840058 -8.4538530742  1.7351205366
C   5.2994840058 -6.9838530742  3.5571205366
H   10.0784840058 -4.5178530742  11.2051205366
H   13.3324840058 -3.3778530742  8.5831205366
H   11.5904840058 -2.5918530742  6.8801205366
H   12.3114840058 -5.0478530742  11.4391205366
H   8.1664840058 -4.3278530742  10.5191205366
H   7.8294840058 -2.6918530742  7.6751205366
H   9.3264840058 -3.7428530742  5.7611205366
H   9.7784840058 -3.7888530742  3.6121205366
H   9.4454840058 -4.9108530742  1.3601205366
H   5.6724840058 -2.6148530742  4.7641205366
H   6.2424840058 -5.4818530742 -0.0098794634
H   3.9364840058 -4.1558530742  2.2301205366
H   4.6824840058 -4.0438530742  0.6951205366
H   3.7834840058 -6.1578530742  0.5151205366
H   3.6244840058 -9.0048530742  2.5401205366
H   5.0574840058 -8.9748530742  1.4811205366
H   3.3444840058 -8.4158530742  0.9661205366
H   6.2804840058 -7.4558530742  3.6921205366
H   4.6524840058 -7.4508530742  4.3101205366
H   5.3004840058 -5.9638530742  3.9611205366
84
Scanning combination 254/256: [1.5000, 1.7000]  Energy = -385.7319720980
O   11.1233000000 -4.8002000000  5.0341000000
O   11.3873000000 -0.2652000000  3.3291000000
O   18.1143000000 -4.2382000000 -2.5629000000
O   15.0523000000 -3.1142000000  0.9841000000
C   13.0053000000 -3.3232000000  2.3291000000
C   12.6993000000 -1.9792000000  2.4491000000
C   12.3973000000 -4.3072000000  3.1831000000
C   11.6323000000 -1.5992000000  3.2951000000
C   11.4783000000 -3.8632000000  4.1231000000
C   11.0613000000 -2.4802000000  4.2331000000
C   10.1223000000 -1.9712000000  5.2561000000
C   10.5373000000 -1.3232000000  6.3251000000
C   9.8643000000 -1.0622000000  7.5921000000
C   8.6825000000 -1.0450000000  7.8959000000
C   10.8123000000 -0.2992000000  8.5731000000
C   14.6833000000 -4.8512000000 -0.4449000000
C   15.5183000000 -3.8012000000 -0.0889000000
C   16.6953000000 -3.5982000000 -0.8399000000
C   16.9703000000 -4.4882000000 -1.8899000000
C   16.1523000000 -5.5962000000 -2.2009000000
C   14.9513000000 -5.7522000000 -1.5279000000
C   13.6583000000 -4.8752000000  0.4711000000
C   13.8893000000 -3.7772000000  1.2511000000
H   13.1623000000 -1.2452000000  1.7971000000
H   12.5583000000 -5.3772000000  3.0881000000
H   11.7383000000 -5.5442000000  4.9131000000
H   11.8513000000  0.1658000000  2.5901000000
H   9.4643000000 -1.3292000000  4.6731000000
H   11.4933000000 -0.8182000000  6.2071000000
H   7.9073000000 -0.9712000000  7.1161000000
H   8.2313000000 -0.9072000000  8.8131000000
H   11.1183000000  0.6778000000  8.1811000000
H   11.7213000000 -0.7962000000  8.9311000000
H   10.3263000000 -0.0742000000  9.5301000000
H   17.3553000000 -2.7642000000 -0.6209000000
H   16.3753000000 -6.3042000000 -2.9929000000
H   14.4873000000 -6.7332000000 -1.5779000000
H   12.8783000000 -5.6272000000  0.4831000000
H   18.2613000000 -4.9422000000 -3.2189000000
C   10.4139616271 -4.1714092254  10.2708304611
O   12.7449616271 -4.5234092254  10.7588304611
C   11.7719616271 -4.1014092254  9.9128304611
O   8.1909616271 -3.6554092254  9.7988304611
C   12.2299616271 -3.4294092254  8.7328304611
O   6.9429616271 -1.6994092254  5.5988304611
C   11.2509616271 -2.9504092254  7.8758304611
O   5.2399616271 -2.9354092254  4.0318304611
C   9.8639616271 -3.0604092254  8.1428304611
O   7.1539616271 -5.2154092254  0.2118304611
C   9.4679616271 -3.6384092254  9.3618304611
C   8.6917616271 -2.6546092254  7.3491304611
C   9.0309616271 -2.6204092254  5.9918304611
C   7.8059616271 -2.4354092254  5.2138304611
C   7.6399616271 -3.2164092254  3.9048304611
C   8.7639616271 -3.7454092254  3.2128304611
C   6.3319616271 -3.3594092254  3.3348304611
C   8.5899616271 -4.5054092254  2.0438304611
C   6.1679616271 -4.1164092254  2.1418304611
C   7.3279616271 -4.5434092254  1.4558304611
C   4.7719616271 -4.4454092254  1.7248304611
C   4.3869616271 -5.8914092254  1.4358304611
C   4.5649616271 -6.9904092254  2.2408304611
C   4.0969616271 -8.3674092254  1.7898304611
C   5.2699616271 -6.8974092254  3.6118304611
H   10.0489616271 -4.4314092254  11.2598304611
H   13.3029616271 -3.2914092254  8.6378304611
H   11.5609616271 -2.5054092254  6.9348304611
H   12.2819616271 -4.9614092254  11.4938304611
H   8.1369616271 -4.2414092254  10.5738304611
H   7.7999616271 -2.6054092254  7.7298304611
H   9.2969616271 -3.6564092254  5.8158304611
H   9.7489616271 -3.7024092254  3.6668304611
H   9.4159616271 -4.8244092254  1.4148304611
H   5.6429616271 -2.5284092254  4.8188304611
H   6.2129616271 -5.3954092254  0.0448304611
H   3.9069616271 -4.0694092254  2.2848304611
H   4.6529616271 -3.9574092254  0.7498304611
H   3.7539616271 -6.0714092254  0.5698304611
H   3.5949616271 -8.9184092254  2.5948304611
H   5.0279616271 -8.8884092254  1.5358304611
H   3.3149616271 -8.3294092254  1.0208304611
H   6.2509616271 -7.3694092254  3.7468304611
H   4.6229616271 -7.3644092254  4.3648304611
H   5.2709616271 -5.8774092254  4.0158304611
84
Scanning combination 255/256: [1.5000, 1.6000]  Energy = -385.6781271692
O   11.1233000000 -4.8002000000  5.0341000000
O   11.3873000000 -0.2652000000  3.3291000000
O   18.1143000000 -4.2382000000 -2.5629000000
O   15.0523000000 -3.1142000000  0.9841000000
C   13.0053000000 -3.3232000000  2.3291000000
C   12.6993000000 -1.9792000000  2.4491000000
C   12.3973000000 -4.3072000000  3.1831000000
C   11.6323000000 -1.5992000000  3.2951000000
C   11.4783000000 -3.8632000000  4.1231000000
C   11.0613000000 -2.4802000000  4.2331000000
C   10.1223000000 -1.9712000000  5.2561000000
C   10.5373000000 -1.3232000000  6.3251000000
C   9.8643000000 -1.0622000000  7.5921000000
C   8.6825000000 -1.0450000000  7.8959000000
C   10.8123000000 -0.2992000000  8.5731000000
C   14.6833000000 -4.8512000000 -0.4449000000
C   15.5183000000 -3.8012000000 -0.0889000000
C   16.6953000000 -3.5982000000 -0.8399000000
C   16.9703000000 -4.4882000000 -1.8899000000
C   16.1523000000 -5.5962000000 -2.2009000000
C   14.9513000000 -5.7522000000 -1.5279000000
C   13.6583000000 -4.8752000000  0.4711000000
C   13.8893000000 -3.7772000000  1.2511000000
H   13.1623000000 -1.2452000000  1.7971000000
H   12.5583000000 -5.3772000000  3.0881000000
H   11.7383000000 -5.5442000000  4.9131000000
H   11.8513000000  0.1658000000  2.5901000000
H   9.4643000000 -1.3292000000  4.6731000000
H   11.4933000000 -0.8182000000  6.2071000000
H   7.9073000000 -0.9712000000  7.1161000000
H   8.2313000000 -0.9072000000  8.8131000000
H   11.1183000000  0.6778000000  8.1811000000
H   11.7213000000 -0.7962000000  8.9311000000
H   10.3263000000 -0.0742000000  9.5301000000
H   17.3553000000 -2.7642000000 -0.6209000000
H   16.3753000000 -6.3042000000 -2.9929000000
H   14.4873000000 -6.7332000000 -1.5779000000
H   12.8783000000 -5.6272000000  0.4831000000
H   18.2613000000 -4.9422000000 -3.2189000000
C   10.3907669131 -4.0826180013  10.3208004113
O   12.7217669131 -4.4346180013  10.8088004113
C   11.7487669131 -4.0126180013  9.9628004113
O   8.1677669131 -3.5666180013  9.8488004113
C   12.2067669131 -3.3406180013  8.7828004113
O   6.9197669131 -1.6106180013  5.6488004113
C   11.2277669131 -2.8616180013  7.9258004113
O   5.2167669131 -2.8466180013  4.0818004113
C   9.8407669131 -2.9716180013  8.1928004113
O   7.1307669131 -5.1266180013  0.2618004113
C   9.4447669131 -3.5496180013  9.4118004113
C   8.6685669131 -2.5658180013  7.3991004113
C   9.0077669131 -2.5316180013  6.0418004113
C   7.7827669131 -2.3466180013  5.2638004113
C   7.6167669131 -3.1276180013  3.9548004113
C   8.7407669131 -3.6566180013  3.2628004113
C   6.3087669131 -3.2706180013  3.3848004113
C   8.5667669131 -4.4166180013  2.0938004113
C   6.1447669131 -4.0276180013  2.1918004113
C   7.3047669131 -4.4546180013  1.5058004113
C   4.7487669131 -4.3566180013  1.7748004113
C   4.3637669131 -5.8026180013  1.4858004113
C   4.5417669131 -6.9016180013  2.2908004113
C   4.0737669131 -8.2786180013  1.8398004113
C   5.2467669131 -6.8086180013  3.6618004113
H   10.0257669131 -4.3426180013  11.3098004113
H   13.2797669131 -3.2026180013  8.6878004113
H   11.5377669131 -2.4166180013  6.9848004113
H   12.2587669131 -4.8726180013  11.5438004113
H   8.1137669131 -4.1526180013  10.6238004113
H   7.7767669131 -2.5166180013  7.7798004113
H   9.2737669131 -3.5676180013  5.8658004113
H   9.7257669131 -3.6136180013  3.7168004113
H   9.3927669131 -4.7356180013  1.4648004113
H   5.6197669131 -2.4396180013  4.8688004113
H   6.1897669131 -5.3066180013  0.0948004113
H   3.8837669131 -3.9806180013  2.3348004113
H   4.6297669131 -3.8686180013  0.7998004113
H   3.7307669131 -5.9826180013  0.6198004113
H   3.5717669131 -8.8296180013  2.6448004113
H   5.0047669131 -8.7996180013  1.5858004113
H   3.2917669131 -8.2406180013  1.0708004113
H   6.2277669131 -7.2806180013  3.7968004113
H   4.5997669131 -7.2756180013  4.4148004113
H   5.2477669131 -5.7886180013  4.0658004113
84
Scanning combination 256/256: [1.5000, 1.5000]  Energy = -385.6069401499
O   11.1233000000 -4.8002000000  5.0341000000
O   11.3873000000 -0.2652000000  3.3291000000
O   18.1143000000 -4.2382000000 -2.5629000000
O   15.0523000000 -3.1142000000  0.9841000000
C   13.0053000000 -3.3232000000  2.3291000000
C   12.6993000000 -1.9792000000  2.4491000000
C   12.3973000000 -4.3072000000  3.1831000000
C   11.6323000000 -1.5992000000  3.2951000000
C   11.4783000000 -3.8632000000  4.1231000000
C   11.0613000000 -2.4802000000  4.2331000000
C   10.1223000000 -1.9712000000  5.2561000000
C   10.5373000000 -1.3232000000  6.3251000000
C   9.8643000000 -1.0622000000  7.5921000000
C   8.6825000000 -1.0450000000  7.8959000000
C   10.8123000000 -0.2992000000  8.5731000000
C   14.6833000000 -4.8512000000 -0.4449000000
C   15.5183000000 -3.8012000000 -0.0889000000
C   16.6953000000 -3.5982000000 -0.8399000000
C   16.9703000000 -4.4882000000 -1.8899000000
C   16.1523000000 -5.5962000000 -2.2009000000
C   14.9513000000 -5.7522000000 -1.5279000000
C   13.6583000000 -4.8752000000  0.4711000000
C   13.8893000000 -3.7772000000  1.2511000000
H   13.1623000000 -1.2452000000  1.7971000000
H   12.5583000000 -5.3772000000  3.0881000000
H   11.7383000000 -5.5442000000  4.9131000000
H   11.8513000000  0.1658000000  2.5901000000
H   9.4643000000 -1.3292000000  4.6731000000
H   11.4933000000 -0.8182000000  6.2071000000
H   7.9073000000 -0.9712000000  7.1161000000
H   8.2313000000 -0.9072000000  8.8131000000
H   11.1183000000  0.6778000000  8.1811000000
H   11.7213000000 -0.7962000000  8.9311000000
H   10.3263000000 -0.0742000000  9.5301000000
H   17.3553000000 -2.7642000000 -0.6209000000
H   16.3753000000 -6.3042000000 -2.9929000000
H   14.4873000000 -6.7332000000 -1.5779000000
H   12.8783000000 -5.6272000000  0.4831000000
H   18.2613000000 -4.9422000000 -3.2189000000
C   10.3735032780 -3.9919029683  10.3662349480
O   12.7045032780 -4.3439029683  10.8542349480
C   11.7315032780 -3.9219029683  10.0082349480
O   8.1505032780 -3.4759029683  9.8942349480
C   12.1895032780 -3.2499029683  8.8282349480
O   6.9025032780 -1.5199029683  5.6942349480
C   11.2105032780 -2.7709029683  7.9712349480
O   5.1995032780 -2.7559029683  4.1272349480
C   9.8235032780 -2.8809029683  8.2382349480
O   7.1135032780 -5.0359029683  0.3072349480
C   9.4275032780 -3.4589029683  9.4572349480
C   8.6513032780 -2.4751029683  7.4445349480
C   8.9905032780 -2.4409029683  6.0872349480
C   7.7655032780 -2.2559029683  5.3092349480
C   7.5995032780 -3.0369029683  4.0002349480
C   8.7235032780 -3.5659029683  3.3082349480
C   6.2915032780 -3.1799029683  3.4302349480
C   8.5495032780 -4.3259029683  2.1392349480
C   6.1275032780 -3.9369029683  2.2372349480
C   7.2875032780 -4.3639029683  1.5512349480
C   4.7315032780 -4.2659029683  1.8202349480
C   4.3465032780 -5.7119029683  1.5312349480
C   4.5245032780 -6.8109029683  2.3362349480
C   4.0565032780 -8.1879029683  1.8852349480
C   5.2295032780 -6.7179029683  3.7072349480
H   10.0085032780 -4.2519029683  11.3552349480
H   13.2625032780 -3.1119029683  8.7332349480
H   11.5205032780 -2.3259029683  7.0302349480
H   12.2415032780 -4.7819029683  11.5892349480
H   8.0965032780 -4.0619029683  10.6692349480
H   7.7595032780 -2.4259029683  7.8252349480
H   9.2565032780 -3.4769029683  5.9112349480
H   9.7085032780 -3.5229029683  3.7622349480
H   9.3755032780 -4.6449029683  1.5102349480
H   5.6025032780 -2.3489029683  4.9142349480
H   6.1725032780 -5.2159029683  0.1402349480
H   3.8665032780 -3.8899029683  2.3802349480
H   4.6125032780 -3.7779029683  0.8452349480
H   3.7135032780 -5.8919029683  0.6652349480
H   3.5545032780 -8.7389029683  2.6902349480
H   4.9875032780 -8.7089029683  1.6312349480
H   3.2745032780 -8.1499029683  1.1162349480
H   6.2105032780 -7.1899029683  3.8422349480
H   4.5825032780 -7.1849029683  4.4602349480
H   5.2305032780 -5.6979029683  4.1112349480
