22
Image 0  Energy = -383.6564059941
C  -0.8266298411 -0.3378660280  0.5338117818
C   1.5612084505  0.0877821705  0.1235596497
C  -1.4617593486  1.0512686207  0.6018689433
C   2.2349608039 -0.9751342416  0.9822904783
C   2.4462383859  0.4692324189 -1.0526379535
N   0.2861233905 -0.4124300850 -0.3940292676
N  -1.8601641253 -1.2531900297  0.0480805385
O  -1.9633512551  1.4248819483 -0.6660791447
H  -2.4296207650  0.6421374182 -0.9961642340
H   0.0278440205  0.1043622999 -1.2287729316
H  -0.4537545473 -0.6042270751  1.5301044193
H   1.4113514775  0.9883679566  0.7396203654
H  -2.5404782540 -1.4616103804  0.7688413225
H  -1.4250208638 -2.1170722778 -0.2494478111
H  -0.7196355411  1.7962781982  0.8917741960
H  -2.2572513366  1.0570531780  1.3590100255
H   3.1648112763 -0.5937612632  1.4074521562
H   1.9921709956  1.2664534087 -1.6444106973
H   2.4610018330 -1.8514687934  0.3725110380
H   1.5983330267 -1.2939912912  1.8085887213
H   3.4202571612  0.8166759029 -0.7076804839
H   2.5990894041 -0.3964340152 -1.7003844619
