7
Iter 0 Image 0  Energy = -29.6796137011
C   0.8260657415  0.5508603911 -0.1261794589
H   0.4554445983  1.2417513435 -0.8784317668
O   0.5680753083  1.0246514429  1.1187434847
C   1.4411098584 -0.5873603774 -0.4363613732
H   0.9099091373  0.3932317500  1.7666320721
H   1.5916834696 -0.8592929697 -1.4741885892
H   1.8089534565 -1.2734747403  0.3237244514
7
Iter 0 Image 1  Energy = -29.6780228680
C   0.8575395456  0.5885510476 -0.1529377696
H   0.5846037880  1.3355993173 -0.8976901913
O   0.6133715726  1.0129163685  1.1461875176
C   1.4443968399 -0.5805053547 -0.4443945028
H   0.6891870731  0.2555922711  1.7601282440
H   1.3377076117 -1.0528646730 -1.4121882134
H   2.0744351701 -1.0689221726  0.2948339017
7
Iter 0 Image 2  Energy = -29.6692912346
C   0.8782347783  0.6329512981 -0.1823213791
H   0.6831253872  1.4376777128 -0.8992602290
O   0.5874393257  0.9782778855  1.1350389327
C   1.4405206590 -0.5736931574 -0.4320868286
H   0.6158237939  0.1513490537  1.6614602972
H   1.1554175646 -1.2480653702 -1.2291048624
H   2.2406801313 -0.8881309250  0.2402129862
7
Iter 0 Image 3  Energy = -29.6554804212
C   0.8941053415  0.6861039604 -0.2135782687
H   0.7504539160  1.5322207358 -0.9036047063
O   0.5579541619  0.9444437483  1.1123657583
C   1.4233638816 -0.5615245514 -0.3986345490
H   0.6506494929  0.0354399956  1.4815266122
H   1.0259911159 -1.3608339006 -1.0107356663
H   2.2987238913 -0.7854835885  0.2265997116
7
Iter 0 Image 4  Energy = -29.6306105918
C   0.8959995646  0.7418141158 -0.2068710219
H   0.7564422513  1.5786377997 -0.9146162568
O   0.5629810208  0.9224056897  1.1168572240
C   1.3755367578 -0.5570089768 -0.3048165050
H   0.7431934276 -0.0797801916  1.2426912573
H   0.9718966317 -1.3589896368 -0.9084390441
H   2.2951920386 -0.7567122969  0.2691332464
7
Iter 0 Image 5  Energy = -29.6106141573
C   0.8911727368  0.7810665814 -0.1879983974
H   0.7542255359  1.5875869552 -0.9222879742
O   0.5583650795  0.9536826751  1.1147219233
C   1.3434278367 -0.5649162686 -0.2157767306
H   0.7818162384 -0.1701461560  1.1087633064
H   0.9570832880 -1.3433908195 -0.8738520867
H   2.3151509641 -0.7535164712  0.2703688411
7
Iter 0 Image 6  Energy = -29.6123511708
C   0.8755126849  0.8061691284 -0.1522321688
H   0.7540690763  1.5833933961 -0.9257011413
O   0.5461732804  1.0502424419  1.0923201246
C   1.3233355083 -0.5736731174 -0.1534827347
H   0.8216921246 -0.2901183458  1.0271124148
H   0.9569416559 -1.3312823367 -0.8613020019
H   2.3235173729 -0.7543646580  0.2672243896
7
Iter 0 Image 7  Energy = -29.6484836555
C   0.8609521437  0.8444080295 -0.1168609118
H   0.7563091702  1.5778791078 -0.9332872615
O   0.5361280282  1.1636345350  1.0579805890
C   1.3032107911 -0.5784138736 -0.0892753390
H   0.8507232500 -0.4526010811  0.9682736725
H   0.9580783318 -1.3132200677 -0.8442331240
H   2.3358399942 -0.7513201361  0.2513412628
7
Iter 0 Image 8  Energy = -29.6892815447
C   0.8543434573  0.8789124335 -0.0744626540
H   0.7626397037  1.5499116753 -0.9532168106
O   0.5448634696  1.3136259986  1.0333555967
C   1.2927365708 -0.5732149158 -0.0370856930
H   0.8306521474 -0.6804420854  0.9464034457
H   0.9616431050 -1.2607266419 -0.8299499904
H   2.3543632998 -0.7376999575  0.2088949437
7
Iter 0 Image 9  Energy = -29.7073473996
C   0.8441272611  0.8966698027 -0.0372739059
H   0.7949670907  1.4439396381 -1.0056239939
O   0.5402053066  1.4876999271  0.9859756505
C   1.2776187671 -0.5642485028  0.0379901701
H   0.8286236505 -0.9074409506  0.9700454552
H   0.9519594106 -1.1743342139 -0.8087427433
H   2.3637401873 -0.6919193221  0.1515682241
7
Iter 0 Image 10  Energy = -29.7098370260
C   0.8103038152  0.8901459761 -0.0289282302
H   0.8958588959  1.3635112567 -1.0352180979
O   0.3526078077  1.5363650790  0.8953600107
C   1.2908417262 -0.5554833974  0.0962616623
H   0.9603401787 -0.9666768966  1.0525759202
H   0.9076575152 -1.1653732962 -0.7255315014
H   2.3836316732 -0.6121219061  0.0394190682
7
Iter 0 Image 11  Energy = -29.7096971637
C   0.7840367852  0.8656586589 -0.0371164025
H   0.9809293880  1.3403901038 -1.0231241499
O   0.1875804579  1.4681235287  0.8223429327
C   1.3100769769 -0.5359012779  0.1153731248
H   1.0639489065 -0.9236344469  1.1059940899
H   0.8779311114 -1.1816924395 -0.6582837811
H   2.3967379442 -0.5425772870 -0.0312469938
7
Iter 1 Image 0  Energy = -29.6796137011
C   0.8260657415  0.5508603911 -0.1261794589
H   0.4554445983  1.2417513435 -0.8784317668
O   0.5680753083  1.0246514429  1.1187434847
C   1.4411098584 -0.5873603774 -0.4363613732
H   0.9099091373  0.3932317500  1.7666320721
H   1.5916834696 -0.8592929697 -1.4741885892
H   1.8089534565 -1.2734747403  0.3237244514
7
Iter 1 Image 1  Energy = -29.6780639058
C   0.8577994395  0.5885833305 -0.1527364666
H   0.5835907111  1.3347202680 -0.8977265445
O   0.6134329773  1.0131739019  1.1461965266
C   1.4442880723 -0.5807503722 -0.4442195104
H   0.6898814511  0.2562558829  1.7602996077
H   1.3389595063 -1.0512677224 -1.4131376998
H   2.0732894488 -1.0703485124  0.2952630912
7
Iter 1 Image 2  Energy = -29.6693747109
C   0.8785191486  0.6329562160 -0.1821161361
H   0.6822071991  1.4368492519 -0.8992443330
O   0.5876624702  0.9786176093  1.1349736560
C   1.4402381320 -0.5741284105 -0.4318893362
H   0.6161208694  0.1523747148  1.6621329207
H   1.1565260512 -1.2471912922 -1.2305092985
H   2.2399677753 -0.8891115836  0.2405914609
7
Iter 1 Image 3  Energy = -29.6556361383
C   0.8945467239  0.6858741152 -0.2136422937
H   0.7498822889  1.5316647861 -0.9035494606
O   0.5583826394  0.9445247894  1.1120803264
C   1.4232556922 -0.5616036762 -0.3991127659
H   0.6506611044  0.0364842906  1.4835156247
H   1.0268083805 -1.3606200407 -1.0122922540
H   2.2977049784 -0.7859578783  0.2269396863
7
Iter 1 Image 4  Energy = -29.6309723473
C   0.8967811850  0.7413489296 -0.2071413091
H   0.7561820688  1.5782745975 -0.9145370889
O   0.5632830957  0.9223324377  1.1165710039
C   1.3759762341 -0.5566043942 -0.3063791447
H   0.7424538425 -0.0793905569  1.2456383328
H   0.9721102495 -1.3590072847 -0.9093082353
H   2.2944550121 -0.7565872293  0.2690953305
7
Iter 1 Image 5  Energy = -29.6099753743
C   0.8915405946  0.7824602961 -0.1870722327
H   0.7540915418  1.5874594588 -0.9225379545
O   0.5580411911  0.9557382497  1.1145484181
C   1.3421756330 -0.5650161416 -0.2123270586
H   0.7833623066 -0.1745882000  1.1037633064
H   0.9565593524 -1.3427614604 -0.8726670725
H   2.3154710591 -0.7529256995  0.2702314891
7
Iter 1 Image 6  Energy = -29.6125297463
C   0.8760534468  0.8065964416 -0.1517765472
H   0.7540345540  1.5831363042 -0.9258650187
O   0.5461838957  1.0508828630  1.0920327228
C   1.3230010179 -0.5735755775 -0.1527966330
H   0.8217479116 -0.2917531435  1.0261806279
H   0.9566965818 -1.3310960296 -0.8608537557
H   2.3235242949 -0.7538243627  0.2670175033
7
Iter 1 Image 7  Energy = -29.6489291853
C   0.8613856451  0.8448823038 -0.1162872253
H   0.7564270775  1.5776260754 -0.9336574092
O   0.5362034019  1.1644335397  1.0573041214
C   1.3029561985 -0.5783360377 -0.0887456007
H   0.8505066144 -0.4545925167  0.9681319623
H   0.9579289741 -1.3130207358 -0.8437527840
H   2.3358337977 -0.7506260766  0.2509458424
7
Iter 1 Image 8  Energy = -29.6894590920
C   0.8545671723  0.8791436811 -0.0742020700
H   0.7631042751  1.5495798197 -0.9536492539
O   0.5444865487  1.3141762644  1.0327765964
C   1.2924850202 -0.5731040970 -0.0367179243
H   0.8307879003 -0.6819988015  0.9467954349
H   0.9615576334 -1.2607338675 -0.8295354007
H   2.3542531945 -0.7366964679  0.2084714627
7
Iter 1 Image 9  Energy = -29.7073586649
C   0.8442076537  0.8966738693 -0.0369581159
H   0.7952184875  1.4437195064 -1.0055512355
O   0.5404651781  1.4872733965  0.9860527671
C   1.2773433790 -0.5642385436  0.0378746871
H   0.8284564214 -0.9076415077  0.9700265731
H   0.9520263572 -1.1742393031 -0.8090109095
H   2.3635242144 -0.6911810409  0.1515050849
7
Iter 1 Image 10  Energy = -29.7098367876
C   0.8103163117  0.8901388992 -0.0286894080
H   0.8954822195  1.3635626328 -1.0350959242
O   0.3542446499  1.5358587717  0.8959374643
C   1.2905560474 -0.5555377318  0.0958625298
H   0.9593118966 -0.9663611879  1.0521449611
H   0.9079053355 -1.1651593878 -0.7263096521
H   2.3834251908 -0.6121351409  0.0400888532
7
Iter 1 Image 11  Energy = -29.7096971637
C   0.7840367852  0.8656586589 -0.0371164025
H   0.9809293880  1.3403901038 -1.0231241499
O   0.1875804579  1.4681235287  0.8223429327
C   1.3100769769 -0.5359012779  0.1153731248
H   1.0639489065 -0.9236344469  1.1059940899
H   0.8779311114 -1.1816924395 -0.6582837811
H   2.3967379442 -0.5425772870 -0.0312469938
7
Iter 2 Image 0  Energy = -29.6796137011
C   0.8260657415  0.5508603911 -0.1261794589
H   0.4554445983  1.2417513435 -0.8784317668
O   0.5680753083  1.0246514429  1.1187434847
C   1.4411098584 -0.5873603774 -0.4363613732
H   0.9099091373  0.3932317500  1.7666320721
H   1.5916834696 -0.8592929697 -1.4741885892
H   1.8089534565 -1.2734747403  0.3237244514
7
Iter 2 Image 1  Energy = -29.6781098163
C   0.8581299969  0.5883449145 -0.1524743587
H   0.5824434860  1.3338177905 -0.8978216557
O   0.6134749448  1.0136522574  1.1460519956
C   1.4441507652 -0.5808283069 -0.4440002368
H   0.6907215203  0.2568173397  1.7605666476
H   1.3403742269 -1.0494755451 -1.4140834544
H   2.0719466706 -1.0719617005  0.2957000774
7
Iter 2 Image 2  Energy = -29.6694880790
C   0.8789009644  0.6323664105 -0.1817631091
H   0.6810412408  1.4359053499 -0.8993404716
O   0.5879440602  0.9794179656  1.1347621924
C   1.4398344830 -0.5742905863 -0.4316803398
H   0.6165198280  0.1534448922  1.6631931792
H   1.1579517534 -1.2460347356 -1.2323509937
H   2.2390493210 -0.8904427799  0.2411184907
7
Iter 2 Image 3  Energy = -29.6558357990
C   0.8949151331  0.6854323607 -0.2136260058
H   0.7491768550  1.5309659122 -0.9035299059
O   0.5588976348  0.9449435886  1.1118415154
C   1.4231978551 -0.5618187368 -0.3997644168
H   0.6506720230  0.0377615447  1.4860407794
H   1.0279083044 -1.3602791344 -1.0143835439
H   2.2964740104 -0.7866391608  0.2273604131
7
Iter 2 Image 4  Energy = -29.6312291092
C   0.8973939397  0.7414826645 -0.2074651836
H   0.7559167860  1.5778145838 -0.9144870454
O   0.5636354071  0.9222439887  1.1165348296
C   1.3763261119 -0.5566120231 -0.3074223241
H   0.7419162039 -0.0793100036  1.2478307582
H   0.9723141360 -1.3588357721 -0.9101414711
H   2.2937390996 -0.7564169472  0.2690893151
7
Iter 2 Image 5  Energy = -29.6094640559
C   0.8921127501  0.7834123720 -0.1863159822
H   0.7540235580  1.5874296226 -0.9228373997
O   0.5576999266  0.9570060977  1.1147255038
C   1.3408897354 -0.5651140957 -0.2091991726
H   0.7848802223 -0.1780601719  1.0987633064
H   0.9559961135 -1.3422477183 -0.8714283564
H   2.3156393722 -0.7520596043  0.2702310146
7
Iter 2 Image 6  Energy = -29.6128416276
C   0.8765203613  0.8074299119 -0.1512646295
H   0.7540221895  1.5828570152 -0.9260469636
O   0.5461734328  1.0520732662  1.0917264268
C   1.3226069702 -0.5736129332 -0.1515439193
H   0.8219959246 -0.2944497023  1.0244508275
H   0.9563096686 -1.3307721450 -0.8601431595
H   2.3236131562 -0.7531589223  0.2667603341
7
Iter 2 Image 7  Energy = -29.6494902140
C   0.8619959885  0.8453873997 -0.1166221982
H   0.7565908214  1.5772378484 -0.9339660906
O   0.5360826234  1.1658025226  1.0574608164
C   1.3027013267 -0.5783731020 -0.0879622683
H   0.8502676561 -0.4571368869  0.9677369801
H   0.9577065785 -1.3127150234 -0.8431738261
H   2.3358967147 -0.7498361822  0.2504655136
7
Iter 2 Image 8  Energy = -29.6896694368
C   0.8548564022  0.8792426035 -0.0745926280
H   0.7637016734  1.5490748016 -0.9540515518
O   0.5439214576  1.3151070127  1.0326831568
C   1.2922165615 -0.5730716382 -0.0362723589
H   0.8309031574 -0.6838101395  0.9472072915
H   0.9614546630 -1.2606570460 -0.8289918656
H   2.3541878216 -0.7355190359  0.2079568102
7
Iter 2 Image 9  Energy = -29.7073754734
C   0.8444463910  0.8963176446 -0.0373340244
H   0.7955315820  1.4435048679 -1.0053883455
O   0.5405697867  1.4871374322  0.9868262385
C   1.2770491784 -0.5643034306  0.0377506367
H   0.8282707881 -0.9078576868  0.9699563232
H   0.9521113776 -1.1741318048 -0.8093112692
H   2.3632626031 -0.6903006433  0.1514392879
7
Iter 2 Image 10  Energy = -29.7098473376
C   0.8107564371  0.8895776490 -0.0293149971
H   0.8951407326  1.3635049838 -1.0349349177
O   0.3555596056  1.5359402073  0.8973731556
C   1.2902330842 -0.5556361566  0.0955296872
H   0.9582404462 -0.9661452575  1.0516868292
H   0.9081479821 -1.1648734144 -0.7271458751
H   2.3831633990 -0.6120011233  0.0407449353
7
Iter 2 Image 11  Energy = -29.7096971637
C   0.7840367852  0.8656586589 -0.0371164025
H   0.9809293880  1.3403901038 -1.0231241499
O   0.1875804579  1.4681235287  0.8223429327
C   1.3100769769 -0.5359012779  0.1153731248
H   1.0639489065 -0.9236344469  1.1059940899
H   0.8779311114 -1.1816924395 -0.6582837811
H   2.3967379442 -0.5425772870 -0.0312469938
7
Iter 3 Image 0  Energy = -29.6796137011
C   0.8260657415  0.5508603911 -0.1261794589
H   0.4554445983  1.2417513435 -0.8784317668
O   0.5680753083  1.0246514429  1.1187434847
C   1.4411098584 -0.5873603774 -0.4363613732
H   0.9099091373  0.3932317500  1.7666320721
H   1.5916834696 -0.8592929697 -1.4741885892
H   1.8089534565 -1.2734747403  0.3237244514
7
Iter 3 Image 1  Energy = -29.6781633264
C   0.8583692300  0.5883260722 -0.1521897171
H   0.5811046716  1.3326558212 -0.8978889619
O   0.6135503786  1.0141238611  1.1458968450
C   1.4440871271 -0.5810460846 -0.4437404428
H   0.6917472839  0.2575385757  1.7608397183
H   1.3420765844 -1.0473256206 -1.4151963404
H   2.0703063392 -1.0739058979  0.2962179260
7
Iter 3 Image 2  Energy = -29.6696263915
C   0.8791384207  0.6320502256 -0.1813590984
H   0.6796262466  1.4345821215 -0.8993987591
O   0.5883356240  0.9803504895  1.1344996220
C   1.4395045044 -0.5748091281 -0.4315041264
H   0.6170323215  0.1548096756  1.6645154602
H   1.1597485350 -1.2444957414 -1.2346015374
H   2.2378560028 -0.8921211157  0.2417873957
7
Iter 3 Image 3  Energy = -29.6560728318
C   0.8952499276  0.6849966418 -0.2135556707
H   0.7483112804  1.5300411450 -0.9034849587
O   0.5595591875  0.9455957989  1.1115047955
C   1.4231209359 -0.5621062299 -0.4004183787
H   0.6507593235  0.0392097333  1.4890242339
H   1.0292734198 -1.3598484466 -1.0170298728
H   2.2949677472 -0.7875222746  0.2278986656
7
Iter 3 Image 4  Energy = -29.6315096086
C   0.8982164024  0.7412938647 -0.2078030593
H   0.7556080516  1.5773543314 -0.9144802145
O   0.5640690402  0.9218587529  1.1166210304
C   1.3765220131 -0.5562797597 -0.3084754996
H   0.7413294126 -0.0789788505  1.2500341830
H   0.9725087800 -1.3586800023 -0.9111015242
H   2.2929879824 -0.7562018523  0.2691439620
7
Iter 3 Image 5  Energy = -29.6089830911
C   0.8927804930  0.7843530402 -0.1854244435
H   0.7539967727  1.5873864634 -0.9231181156
O   0.5573547672  0.9584479211  1.1146675637
C   1.3395627818 -0.5651183993 -0.2062284685
H   0.7864892730 -0.1819464498  1.0937633064
H   0.9553457819 -1.3417998823 -0.8700393890
H   2.3157118070 -0.7509561980  0.2703184787
7
Iter 3 Image 6  Energy = -29.6132336623
C   0.8770967316  0.8082988178 -0.1505153307
H   0.7540218876  1.5826218001 -0.9263048134
O   0.5461904988  1.0534665625  1.0912616329
C   1.3221052398 -0.5735342241 -0.1500943119
H   0.8222875290 -0.2977712091  1.0223423261
H   0.9558036230 -1.3304109984 -0.8592195769
H   2.3237361930 -0.7523042569  0.2664690035
7
Iter 3 Image 7  Energy = -29.6501954114
C   0.8625294447  0.8459434864 -0.1158075448
H   0.7567541474  1.5769935837 -0.9345550057
O   0.5362124297  1.1672007282  1.0567766647
C   1.3023747750 -0.5783340413 -0.0870686939
H   0.8499419797 -0.4602230361  0.9671018060
H   0.9574095394 -1.3123336616 -0.8423976857
H   2.3360193918 -0.7488804896  0.2498894035
7
Iter 3 Image 8  Energy = -29.6899171537
C   0.8550215519  0.8795523955 -0.0744380089
H   0.7644255225  1.5484717939 -0.9545850432
O   0.5434132025  1.3160026252  1.0320377971
C   1.2919410117 -0.5730313627 -0.0358479574
H   0.8309773931 -0.6859576445  0.9477477702
H   0.9613309423 -1.2605575970 -0.8283113202
H   2.3541321051 -0.7341136268  0.2073356284
7
Iter 3 Image 9  Energy = -29.7073920137
C   0.8444938834  0.8962694056 -0.0369014836
H   0.7959232204  1.4432838200 -1.0052817868
O   0.5409092906  1.4865816760  0.9870063010
C   1.2766604910 -0.5643441821  0.0374512161
H   0.8280164629 -0.9081860078  0.9699268228
H   0.9522390201 -1.1739960272 -0.8096243890
H   2.3629993498 -0.6892423017  0.1513621643
7
Iter 3 Image 10  Energy = -29.7098501688
C   0.8107260855  0.8896061341 -0.0288886060
H   0.8948083646  1.3634067707 -1.0348530306
O   0.3575394783  1.5353936900  0.8980269886
C   1.2898827048 -0.5557335736  0.0950330382
H   0.9570016172 -0.9659749707  1.0512365404
H   0.9084354065 -1.1645370864 -0.7280868726
H   2.3828480597 -0.6117940496  0.0414707558
7
Iter 3 Image 11  Energy = -29.7096971637
C   0.7840367852  0.8656586589 -0.0371164025
H   0.9809293880  1.3403901038 -1.0231241499
O   0.1875804579  1.4681235287  0.8223429327
C   1.3100769769 -0.5359012779  0.1153731248
H   1.0639489065 -0.9236344469  1.1059940899
H   0.8779311114 -1.1816924395 -0.6582837811
H   2.3967379442 -0.5425772870 -0.0312469938
7
Iter 4 Image 0  Energy = -29.6796137011
C   0.8260657415  0.5508603911 -0.1261794589
H   0.4554445983  1.2417513435 -0.8784317668
O   0.5680753083  1.0246514429  1.1187434847
C   1.4411098584 -0.5873603774 -0.4363613732
H   0.9099091373  0.3932317500  1.7666320721
H   1.5916834696 -0.8592929697 -1.4741885892
H   1.8089534565 -1.2734747403  0.3237244514
7
Iter 4 Image 1  Energy = -29.6782357460
C   0.8587203075  0.5881054750 -0.1518980893
H   0.5792112573  1.3310684865 -0.8980435277
O   0.6136535185  1.0145841258  1.1459694229
C   1.4439681237 -0.5811703134 -0.4433877509
H   0.6932358140  0.2587723975  1.7610264752
H   1.3445147561 -1.0442993228 -1.4166844745
H   2.0679378424 -1.0766941519  0.2969569834
7
Iter 4 Image 2  Energy = -29.6698264694
C   0.8793969864  0.6314619563 -0.1809567433
H   0.6775288732  1.4325319873 -0.8995416991
O   0.5889625557  0.9811756463  1.1346404290
C   1.4391022661 -0.5754211713 -0.4311467641
H   0.6178241930  0.1574583853  1.6661459670
H   1.1624385184 -1.2421218212 -1.2380152633
H   2.2359882675 -0.8947184497  0.2428130455
7
Iter 4 Image 3  Energy = -29.6563957399
C   0.8956648936  0.6841914933 -0.2134560456
H   0.7470153464  1.5286545181 -0.9034976309
O   0.5606112644  0.9460504039  1.1115354885
C   1.4227388013 -0.5624394792 -0.4011727761
H   0.6509908598  0.0419410762  1.4927318606
H   1.0313661966 -1.3590798172 -1.0210180101
H   2.2928544619 -0.7889518414  0.2288158994
7
Iter 4 Image 4  Energy = -29.6318699336
C   0.8992736482  0.7407788730 -0.2078486890
H   0.7552184022  1.5768419221 -0.9145337734
O   0.5646348221  0.9216414490  1.1165481896
C   1.3767472166 -0.5559454565 -0.3101634193
H   0.7406605236 -0.0787701734  1.2529207627
H   0.9727946224 -1.3584073670 -0.9123077424
H   2.2919124439 -0.7557727605  0.2693235560
7
Iter 4 Image 5  Energy = -29.6085175788
C   0.8934824147  0.7858085540 -0.1846980119
H   0.7541114535  1.5871068213 -0.9231626754
O   0.5569561063  0.9604462955  1.1144363220
C   1.3385953666 -0.5654342064 -0.2034361311
H   0.7882001384 -0.1867700045  1.0887633064
H   0.9544507782 -1.3415323527 -0.8684299889
H   2.3154454204 -0.7492586078  0.2704661420
7
Iter 4 Image 6  Energy = -29.6138294703
C   0.8778809274  0.8095116710 -0.1494294181
H   0.7540874430  1.5824131360 -0.9266441789
O   0.5462366344  1.0554606928  1.0904969724
C   1.3213414548 -0.5734007048 -0.1482220284
H   0.8227461045 -0.3027266020  1.0193435323
H   0.9550201624 -1.3299467564 -0.8577440514
H   2.3239289724 -0.7509449335  0.2661381137
7
Iter 4 Image 7  Energy = -29.6512797540
C   0.8632507284  0.8472157989 -0.1155010724
H   0.7570584197  1.5764061988 -0.9350630317
O   0.5363352285  1.1694335919  1.0563094432
C   1.3019826793 -0.5783483824 -0.0856610280
H   0.8494543625 -0.4651365788  0.9659699133
H   0.9568709877 -1.3117353970 -0.8411732615
H   2.3362893101 -0.7474686606  0.2490580066
7
Iter 4 Image 8  Energy = -29.6902686274
C   0.8552588635  0.8797119821 -0.0742333145
H   0.7654578998  1.5476735756 -0.9554411770
O   0.5426921180  1.3174110845  1.0312891742
C   1.2915153229 -0.5728174917 -0.0349026958
H   0.8310968960 -0.6889900701  0.9482425206
H   0.9610804293 -1.2604836331 -0.8274434706
H   2.3541401900 -0.7321388547  0.2064278435
7
Iter 4 Image 9  Energy = -29.7074200875
C   0.8446979851  0.8958822317 -0.0371622487
H   0.7965237612  1.4429327919 -1.0050054365
O   0.5411786922  1.4862435820  0.9879640306
C   1.2761767260 -0.5644015639  0.0373997734
H   0.8277083482 -0.9087408430  0.9697257353
H   0.9523722281 -1.1738593102 -0.8101927705
H   2.3625839943 -0.6876905010  0.1512097613
7
Iter 4 Image 10  Energy = -29.7098615831
C   0.8112673542  0.8888965681 -0.0295960082
H   0.8944260892  1.3631258257 -1.0346251834
O   0.3596237987  1.5355008505  0.9000078162
C   1.2893001071 -0.5559026581  0.0946618678
H   0.9554184319 -0.9658708943  1.0505222059
H   0.9087788172 -1.1640400785 -0.7294004776
H   2.3824271457 -0.6113426775  0.0423685861
7
Iter 4 Image 11  Energy = -29.7096971935
C   0.7840367852  0.8656586589 -0.0371164025
H   0.9809293880  1.3403901038 -1.0231241499
O   0.1875804579  1.4681235287  0.8223429327
C   1.3100769769 -0.5359012779  0.1153731248
H   1.0639489065 -0.9236344469  1.1059940899
H   0.8779311114 -1.1816924395 -0.6582837811
H   2.3967379442 -0.5425772870 -0.0312469938
7
Iter 5 Image 0  Energy = -29.6796137011
C   0.8260657415  0.5508603911 -0.1261794589
H   0.4554445983  1.2417513435 -0.8784317668
O   0.5680753083  1.0246514429  1.1187434847
C   1.4411098584 -0.5873603774 -0.4363613732
H   0.9099091373  0.3932317500  1.7666320721
H   1.5916834696 -0.8592929697 -1.4741885892
H   1.8089534565 -1.2734747403  0.3237244514
7
Iter 5 Image 1  Energy = -29.6783047980
C   0.8589770842  0.5878865186 -0.1514655943
H   0.5774018833  1.3295912305 -0.8982158900
O   0.6137193636  1.0153624253  1.1456533648
C   1.4439365914 -0.5813125128 -0.4430924976
H   0.6947467212  0.2595954849  1.7614583675
H   1.3468713320 -1.0414062622 -1.4180298020
H   2.0655886485 -1.0793502137  0.2976311029
7
Iter 5 Image 2  Energy = -29.6700326717
C   0.8796969071  0.6304330641 -0.1803015390
H   0.6754151568  1.4306071413 -0.8998052085
O   0.5895741307  0.9827579544  1.1342322855
C   1.4386097005 -0.5757773349 -0.4309082576
H   0.6186985228  0.1594108976  1.6681468619
H   1.1651238731 -1.2396955218 -1.2413483473
H   2.2341233729 -0.8973696658  0.2439231883
7
Iter 5 Image 3  Energy = -29.6567111826
C   0.8959065422  0.6834404688 -0.2131841670
H   0.7457126541  1.5272641115 -0.9035294032
O   0.5616392729  0.9472000320  1.1113438574
C   1.4223670562 -0.5630099033 -0.4018735430
H   0.6513902964  0.0440482585  1.4964147261
H   1.0335141342 -1.3581694289 -1.0250056403
H   2.2907118732 -0.7904071929  0.2297729337
7
Iter 5 Image 4  Energy = -29.6322023636
C   0.8999789440  0.7410126151 -0.2083235313
H   0.7549457766  1.5761113128 -0.9143536477
O   0.5651965462  0.9213996228  1.1166031979
C   1.3772769936 -0.5560143970 -0.3116235717
H   0.7400556983 -0.0786187601  1.2556507196
H   0.9730129401 -1.3582418929 -0.9134999401
H   2.2907747777 -0.7552820119  0.2694856631
7
Iter 5 Image 5  Energy = -29.6081923312
C   0.8942127109  0.7864380163 -0.1838525815
H   0.7542436525  1.5870885394 -0.9233321518
O   0.5566333074  0.9620688589  1.1141691066
C   1.3376723346 -0.5652731630 -0.2013288078
H   0.7895487559 -0.1907078860  1.0847005193
H   0.9536076845 -1.3415552900 -0.8670856718
H   2.3153232341 -0.7476925773  0.2706685758
7
Iter 5 Image 6  Energy = -29.6144455588
C   0.8784851588  0.8109494480 -0.1487304943
H   0.7542375988  1.5821687473 -0.9268162599
O   0.5462635870  1.0575349607  1.0898398056
C   1.3208648166 -0.5734228283 -0.1464079464
H   0.8232158905 -0.3077129686  1.0165783723
H   0.9541919171 -1.3296286390 -0.8563512083
H   2.3239827259 -0.7495222115  0.2658266870
7
Iter 5 Image 7  Energy = -29.6523539341
C   0.8639775311  0.8480176305 -0.1147228837
H   0.7573527040  1.5761260744 -0.9357563854
O   0.5364954971  1.1717430541  1.0556900826
C   1.3015590445 -0.5781629191 -0.0845440806
H   0.8489126741 -0.4701365788  0.9649229038
H   0.9563111474 -1.3111770679 -0.8399063503
H   2.3366331209 -0.7460436133  0.2482556943
7
Iter 5 Image 8  Energy = -29.6906161225
C   0.8554964036  0.8799540991 -0.0745546104
H   0.7664836335  1.5467508698 -0.9561116962
O   0.5419383970  1.3189955789  1.0309638432
C   1.2911620066 -0.5728103685 -0.0341986776
H   0.8311128939 -0.6920487617  0.9487467834
H   0.9608547745 -1.2602455698 -0.8264489613
H   2.3541936044 -0.7302292485  0.2055422172
7
Iter 5 Image 9  Energy = -29.7074481314
C   0.8446834320  0.8957818827 -0.0366173512
H   0.7971298503  1.4426448533 -1.0048555492
O   0.5415950647  1.4856608626  0.9882642921
C   1.2756797316 -0.5644658841  0.0371437809
H   0.8273768900 -0.9093974557  0.9695878767
H   0.9525427213 -1.1736770151 -0.8106397842
H   2.3622340598 -0.6861808531  0.1510555820
7
Iter 5 Image 10  Energy = -29.7098684675
C   0.8111222521  0.8889978656 -0.0288041743
H   0.8941948566  1.3628164237 -1.0345975383
O   0.3620196127  1.5348900962  0.9006019952
C   1.2888090930 -0.5560348888  0.0941935720
H   0.9540003019 -0.9659263689  1.0499815790
H   0.9090907512 -1.1635645992 -0.7305532526
H   2.3820049011 -0.6108115723  0.0431166189
7
Iter 5 Image 11  Energy = -29.7096971637
C   0.7840367852  0.8656586589 -0.0371164025
H   0.9809293880  1.3403901038 -1.0231241499
O   0.1875804579  1.4681235287  0.8223429327
C   1.3100769769 -0.5359012779  0.1153731248
H   1.0639489065 -0.9236344469  1.1059940899
H   0.8779311114 -1.1816924395 -0.6582837811
H   2.3967379442 -0.5425772870 -0.0312469938
7
Iter 6 Image 0  Energy = -29.6796137011
C   0.8260657415  0.5508603911 -0.1261794589
H   0.4554445983  1.2417513435 -0.8784317668
O   0.5680753083  1.0246514429  1.1187434847
C   1.4411098584 -0.5873603774 -0.4363613732
H   0.9099091373  0.3932317500  1.7666320721
H   1.5916834696 -0.8592929697 -1.4741885892
H   1.8089534565 -1.2734747403  0.3237244514
7
Iter 6 Image 1  Energy = -29.6783686942
C   0.8591140382  0.5878322560 -0.1512019667
H   0.5756880844  1.3281014042 -0.8983437744
O   0.6138071749  1.0158369968  1.1456153940
C   1.4439730031 -0.5814853346 -0.4427734717
H   0.6962227198  0.2606350552  1.7616893741
H   1.3491712717 -1.0386284713 -1.4193182999
H   2.0632653346 -1.0819252540  0.2982718056
7
Iter 6 Image 2  Energy = -29.6702303952
C   0.8796669084  0.6300818157 -0.1798518916
H   0.6733638327  1.4284576413 -0.8999824257
O   0.5902373403  0.9838919999  1.1341435486
C   1.4384172134 -0.5766265770 -0.4307006573
H   0.6196089399  0.1617297888  1.6698884464
H   1.1678041424 -1.2371470368 -1.2445819704
H   2.2321432914 -0.9000210945  0.2450239386
7
Iter 6 Image 3  Energy = -29.6570123351
C   0.8960500671  0.6827626333 -0.2129654851
H   0.7444190321  1.5258220527 -0.9035590734
O   0.5627214743  0.9481987390  1.1112877356
C   1.4219723061 -0.5635204431 -0.4023547048
H   0.6518760479  0.0462483752  1.4998081093
H   1.0356468610 -1.3572482760 -1.0290472919
H   2.2885560407 -0.7918967422  0.2307694652
7
Iter 6 Image 4  Energy = -29.6325289226
C   0.9008462264  0.7403596356 -0.2085345258
H   0.7546769597  1.5756927239 -0.9143427914
O   0.5657512677  0.9210595847  1.1165847358
C   1.3774895365 -0.5553200735 -0.3130260133
H   0.7394661756 -0.0783301594  1.2581917951
H   0.9731632284 -1.3582687584 -0.9146713698
H   2.2898482840 -0.7548264636  0.2697370671
7
Iter 6 Image 5  Energy = -29.6079504257
C   0.8947796042  0.7872294249 -0.1832800301
H   0.7544264873  1.5870231863 -0.9234169199
O   0.5563280130  0.9636661578  1.1139237185
C   1.3369715168 -0.5653467835 -0.1998677349
H   0.7906166662 -0.1943291162  1.0815659283
H   0.9528713194 -1.3416345185 -0.8658562004
H   2.3152480756 -0.7462418451  0.2708702453
7
Iter 6 Image 6  Energy = -29.6150568193
C   0.8790714508  0.8118980837 -0.1477139809
H   0.7544085155  1.5821774855 -0.9271090200
O   0.5463494885  1.0594464686  1.0889577426
C   1.3202006585 -0.5731485250 -0.1447657454
H   0.8237154470 -0.3124228383  1.0140033158
H   0.9533996179 -1.3294839090 -0.8550402005
H   2.3240965130 -0.7481002604  0.2656068524
7
Iter 6 Image 7  Energy = -29.6534123784
C   0.8645208661  0.8490837467 -0.1139299303
H   0.7576935578  1.5758366771 -0.9363192173
O   0.5367494608  1.1739305911  1.0548819974
C   1.3013006239 -0.5780790058 -0.0834036464
H   0.8483852794 -0.4751365788  0.9639468504
H   0.9557190228 -1.3106971387 -0.8386973288
H   2.3368729065 -0.7445717168  0.2474602587
7
Iter 6 Image 8  Energy = -29.6909552282
C   0.8554909475  0.8803529707 -0.0737997800
H   0.7674643861  1.5459511342 -0.9568968575
O   0.5414889473  1.3202380733  1.0298151842
C   1.2908510016 -0.5726715432 -0.0335580260
H   0.8310535618 -0.6950596956  0.9492028273
H   0.9606019730 -1.2600486898 -0.8255015920
H   2.3542908945 -0.7283956459  0.2046771543
7
Iter 6 Image 9  Energy = -29.7074795729
C   0.8447376493  0.8955342158 -0.0364866973
H   0.7977479748  1.4423181580 -1.0046600484
O   0.5418788630  1.4853780052  0.9888826447
C   1.2752002787 -0.5645518875  0.0369362564
H   0.8270571564 -0.9101656800  0.9694392624
H   0.9527095106 -1.1734568080 -0.8110513581
H   2.3619103278 -0.6846896098  0.1508787882
7
Iter 6 Image 10  Energy = -29.7098788685
C   0.8114535572  0.8884962993 -0.0291393816
H   0.8940200093  1.3624085282 -1.0344449339
O   0.3637792724  1.5350097623  0.9020586113
C   1.2883332268 -0.5561910624  0.0938373536
H   0.9527173577 -0.9660925888  1.0494727605
H   0.9093640069 -1.1630601400 -0.7316143178
H   2.3815743570 -0.6102038298  0.0437687007
7
Iter 6 Image 11  Energy = -29.7096971637
C   0.7840367852  0.8656586589 -0.0371164025
H   0.9809293880  1.3403901038 -1.0231241499
O   0.1875804579  1.4681235287  0.8223429327
C   1.3100769769 -0.5359012779  0.1153731248
H   1.0639489065 -0.9236344469  1.1059940899
H   0.8779311114 -1.1816924395 -0.6582837811
H   2.3967379442 -0.5425772870 -0.0312469938
7
Iter 7 Image 0  Energy = -29.6796137011
C   0.8260657415  0.5508603911 -0.1261794589
H   0.4554445983  1.2417513435 -0.8784317668
O   0.5680753083  1.0246514429  1.1187434847
C   1.4411098584 -0.5873603774 -0.4363613732
H   0.9099091373  0.3932317500  1.7666320721
H   1.5916834696 -0.8592929697 -1.4741885892
H   1.8089534565 -1.2734747403  0.3237244514
7
Iter 7 Image 1  Energy = -29.6784288055
C   0.8593239837  0.5875210139 -0.1509436154
H   0.5740160437  1.3267451840 -0.8985246841
O   0.6138688611  1.0163025459  1.1456086049
C   1.4439106007 -0.5814274117 -0.4424997080
H   0.6976904483  0.2616479883  1.7619061861
H   1.3514253236 -1.0359833054 -1.4205314668
H   2.0610063667 -1.0844393805  0.2989237542
7
Iter 7 Image 2  Energy = -29.6704240507
C   0.8798554483  0.6290710128 -0.1794408154
H   0.6713026749  1.4264533391 -0.9003014872
O   0.5908865137  0.9848984355  1.1342083252
C   1.4380199565 -0.5768150203 -0.4303326371
H   0.6205708501  0.1641818229  1.6714543294
H   1.1704106654 -1.2346998969 -1.2478397339
H   2.2301955642 -0.9027231478  0.2461910150
7
Iter 7 Image 3  Energy = -29.6572991824
C   0.8961978768  0.6819391954 -0.2127652477
H   0.7431172674  1.5244144383 -0.9036548429
O   0.5638546697  0.9488823121  1.1114774556
C   1.4213822719 -0.5639045791 -0.4027643940
H   0.6524357130  0.0487104070  1.5028343585
H   1.0377947017 -1.3562450007 -1.0330607246
H   2.2864593307 -0.7934304366  0.2318721361
7
Iter 7 Image 4  Energy = -29.6328562415
C   0.9014388704  0.7402465662 -0.2087863351
H   0.7544753157  1.5752143095 -0.9142475815
O   0.5662761314  0.9208061608  1.1165518732
C   1.3778026785 -0.5554125396 -0.3147675317
H   0.7388733234 -0.0780572921  1.2608088878
H   0.9734348651 -1.3581040569 -0.9156245965
H   2.2889404925 -0.7543266582  0.2700042051
7
Iter 7 Image 5  Energy = -29.6077781385
C   0.8951781809  0.7879844420 -0.1828726573
H   0.7546453892  1.5869396009 -0.9234435663
O   0.5560401229  0.9652810651  1.1137050682
C   1.3366712927 -0.5655104132 -0.1988822355
H   0.7914261924 -0.1975585259  1.0793181798
H   0.9522228129 -1.3418513344 -0.8648802187
H   2.3150576931 -0.7449183292  0.2709944575
7
Iter 7 Image 6  Energy = -29.6156612104
C   0.8795259650  0.8131300024 -0.1471945502
H   0.7546500395  1.5821313395 -0.9272668347
O   0.5463857198  1.0612579000  1.0882949083
C   1.3195179395 -0.5732009533 -0.1432295257
H   0.8242969640 -0.3169202126  1.0116273107
H   0.9527034894 -1.3293572029 -0.8537432795
H   2.3241615688 -0.7466743734  0.2654509514
7
Iter 7 Image 7  Energy = -29.6544468916
C   0.8650619281  0.8500929218 -0.1135587165
H   0.7580816651  1.5755718111 -0.9367693521
O   0.5369349534  1.1761918777  1.0543290254
C   1.3008849282 -0.5779442597 -0.0822664620
H   0.8479421219 -0.4801365788  0.9630229538
H   0.9551451740 -1.3103136549 -0.8375479586
H   2.3371909384 -0.7430955424  0.2467295041
7
Iter 7 Image 8  Energy = -29.6912944531
C   0.8557438955  0.8803929588 -0.0742918668
H   0.7684338008  1.5451010159 -0.9575258367
O   0.5407979104  1.3219884973  1.0297868606
C   1.2905706036 -0.5725030449 -0.0326356235
H   0.8310135298 -0.6981516024  0.9494679011
H   0.9602922699 -1.2598597195 -0.8246659549
H   2.3543897006 -0.7266014952  0.2038034419
7
Iter 7 Image 9  Energy = -29.7075135773
C   0.8447061899  0.8953923210 -0.0362000181
H   0.7983803305  1.4419638172 -1.0044817303
O   0.5421842676  1.4851239999  0.9893078757
C   1.2747652818 -0.5645897471  0.0369509893
H   0.8267747477 -0.9110489955  0.9692149034
H   0.9528421341 -1.1732574044 -0.8115182277
H   2.3615888157 -0.6832175925  0.1506650554
7
Iter 7 Image 10  Energy = -29.7098866767
C   0.8113895293  0.8884799969 -0.0286426767
H   0.8939459290  1.3619715270 -1.0343911964
O   0.3656716806  1.5347282053  0.9026838430
C   1.2878397579 -0.5563305838  0.0936091975
H   0.9516011296 -0.9663405652  1.0489833036
H   0.9095942109 -1.1625959899 -0.7326061812
H   2.3811995678 -0.6095456095  0.0443024966
7
Iter 7 Image 11  Energy = -29.7096971637
C   0.7840367852  0.8656586589 -0.0371164025
H   0.9809293880  1.3403901038 -1.0231241499
O   0.1875804579  1.4681235287  0.8223429327
C   1.3100769769 -0.5359012779  0.1153731248
H   1.0639489065 -0.9236344469  1.1059940899
H   0.8779311114 -1.1816924395 -0.6582837811
H   2.3967379442 -0.5425772870 -0.0312469938
7
Iter 8 Image 0  Energy = -29.6796137011
C   0.8260657415  0.5508603911 -0.1261794589
H   0.4554445983  1.2417513435 -0.8784317668
O   0.5680753083  1.0246514429  1.1187434847
C   1.4411098584 -0.5873603774 -0.4363613732
H   0.9099091373  0.3932317500  1.7666320721
H   1.5916834696 -0.8592929697 -1.4741885892
H   1.8089534565 -1.2734747403  0.3237244514
7
Iter 8 Image 1  Energy = -29.6784874564
C   0.8593508089  0.5874687347 -0.1505794563
H   0.5723914892  1.3253839222 -0.8986829995
O   0.6139161534  1.0169362971  1.1453465080
C   1.4440246407 -0.5816251797 -0.4423036225
H   0.6992062088  0.2624345688  1.7622872746
H   1.3536745690 -1.0333615525 -1.4216456677
H   2.0586777605 -1.0868701710  0.2995170372
7
Iter 8 Image 2  Energy = -29.6706211633
C   0.8798183638  0.6284178498 -0.1788753115
H   0.6692273400  1.4243497487 -0.9006306439
O   0.5915606556  0.9863720984  1.1338827885
C   1.4377958049 -0.5774550135 -0.4301946702
H   0.6216399373  0.1661986338  1.6732765989
H   1.1730744741 -1.2320538356 -1.2509436527
H   2.2281251024 -0.9054629287  0.2474238994
7
Iter 8 Image 3  Energy = -29.6575868642
C   0.8962077654  0.6812418472 -0.2124581391
H   0.7417853856  1.5229712859 -0.9037590481
O   0.5650065702  0.9500763575  1.1114663749
C   1.4208085402 -0.5645753012 -0.4032043012
H   0.6531449257  0.0507121979  1.5059405166
H   1.0400269446 -1.3550701653 -1.0370896454
H   2.2842617027 -0.7949898911  0.2330429696
7
Iter 8 Image 4  Energy = -29.6331841266
C   0.9019532686  0.7399986569 -0.2091855815
H   0.7543188408  1.5747608603 -0.9141100170
O   0.5667845358  0.9206586837  1.1165240782
C   1.3783814716 -0.5551323775 -0.3161980707
H   0.7382803325 -0.0778445093  1.2635016833
H   0.9735948244 -1.3582391417 -0.9167610777
H   2.2879284019 -0.7538356845  0.2701679254
7
Iter 8 Image 5  Energy = -29.6076510763
C   0.8955860622  0.7881524251 -0.1823114600
H   0.7548581472  1.5870125061 -0.9235661518
O   0.5557878055  0.9667384333  1.1134869672
C   1.3362984594 -0.5652939034 -0.1980841892
H   0.7920920752 -0.2002596726  1.0774319169
H   0.9516547395 -1.3422363576 -0.8641267631
H   2.3149643964 -0.7437469289  0.2711087213
7
Iter 8 Image 6  Energy = -29.6162777013
C   0.8798383798  0.8142280522 -0.1465742394
H   0.7549300792  1.5821915557 -0.9274601448
O   0.5464359464  1.0630802736  1.0875356732
C   1.3190121764 -0.5732016623 -0.1416357723
H   0.8249125979 -0.3212830456  1.0093762033
H   0.9520208360 -1.3293889111 -0.8525730388
H   2.3240916751 -0.7452597661  0.2652703195
7
Iter 8 Image 7  Energy = -29.6554720318
C   0.8654975174  0.8509351623 -0.1128047524
H   0.7584980297  1.5754837488 -0.9373312537
O   0.5371674944  1.1784776625  1.0535379895
C   1.3004353231 -0.5778554932 -0.0813404759
H   0.8475207308 -0.4851365788  0.9622122213
H   0.9546282573 -1.3099529624 -0.8363596299
H   2.3374943505 -0.7415849637  0.2460249085
7
Iter 8 Image 8  Energy = -29.6916355109
C   0.8556592088  0.8808201893 -0.0734212949
H   0.7693915237  1.5443322713 -0.9582642637
O   0.5404843315  1.3233106637  1.0286306160
C   1.2902272790 -0.5724180366 -0.0320268959
H   0.8308820780 -0.7012682310  0.9497942000
H   0.9600303197 -1.2595863916 -0.8237224633
H   2.3545669663 -0.7248238526  0.2029490366
7
Iter 8 Image 9  Energy = -29.7075523502
C   0.8446537393  0.8952353523 -0.0358551677
H   0.7990381070  1.4415807999 -1.0043398808
O   0.5424589125  1.4850054389  0.9897102924
C   1.2743199677 -0.5646548066  0.0368790994
H   0.8264795745 -0.9120957419  0.9690234591
H   0.9529951423 -1.1729732075 -0.8119051487
H   2.3612963293 -0.6817314265  0.1504261945
7
Iter 8 Image 10  Energy = -29.7098962432
C   0.8115604985  0.8881164865 -0.0286815449
H   0.8939395514  1.3614621308 -1.0343060314
O   0.3671791252  1.5348733736  0.9037258689
C   1.2873869643 -0.5564658157  0.0933943046
H   0.9505826659 -0.9667087795  1.0485645114
H   0.9097957775 -1.1621001100 -0.7335129589
H   2.3807972402 -0.6088102920  0.0447546369
7
Iter 8 Image 11  Energy = -29.7096971637
C   0.7840367852  0.8656586589 -0.0371164025
H   0.9809293880  1.3403901038 -1.0231241499
O   0.1875804579  1.4681235287  0.8223429327
C   1.3100769769 -0.5359012779  0.1153731248
H   1.0639489065 -0.9236344469  1.1059940899
H   0.8779311114 -1.1816924395 -0.6582837811
H   2.3967379442 -0.5425772870 -0.0312469938
7
Iter 9 Image 0  Energy = -29.6796137011
C   0.8260657415  0.5508603911 -0.1261794589
H   0.4554445983  1.2417513435 -0.8784317668
O   0.5680753083  1.0246514429  1.1187434847
C   1.4411098584 -0.5873603774 -0.4363613732
H   0.9099091373  0.3932317500  1.7666320721
H   1.5916834696 -0.8592929697 -1.4741885892
H   1.8089534565 -1.2734747403  0.3237244514
7
Iter 9 Image 1  Energy = -29.6785432464
C   0.8594575710  0.5871938696 -0.1504504087
H   0.5707873301  1.3240585171 -0.8988406081
O   0.6139672155  1.0172664119  1.1454547928
C   1.4440218516 -0.5815137215 -0.4419736318
H   0.7007195570  0.2635185799  1.7624420658
H   1.3559321250 -1.0308501113 -1.4228194475
H   2.0563559771 -1.0893069387  0.3001263159
7
Iter 9 Image 2  Energy = -29.6708154446
C   0.8797185305  0.6278521276 -0.1785365833
H   0.6671451171  1.4221176461 -0.9009638145
O   0.5922756977  0.9874031436  1.1339257618
C   1.4376475861 -0.5780152797 -0.4298868594
H   0.6227907771  0.1686675249  1.6748032079
H   1.1757297202 -1.2293846479 -1.2541030418
H   2.2259342498 -0.9082739620  0.2487003490
7
Iter 9 Image 3  Energy = -29.6578713721
C   0.8961817522  0.6804583024 -0.2122322799
H   0.7404266389  1.5214701891 -0.9038782337
O   0.5662423303  0.9510936422  1.1116228327
C   1.4202409795 -0.5650104755 -0.4033670510
H   0.6539511232  0.0529019965  1.5088516546
H   1.0422562839 -1.3539346178 -1.0413157316
H   2.2819427256 -0.7966127071  0.2342575304
7
Iter 9 Image 4  Energy = -29.6335235006
C   0.9025625278  0.7392298613 -0.2094057164
H   0.7541623314  1.5744975726 -0.9140904130
O   0.5672895873  0.9203878644  1.1164598581
C   1.3785905573 -0.5545034704 -0.3177874664
H   0.7376607933 -0.0774283084  1.2661711284
H   0.9738164329 -1.3583959561 -0.9178388157
H   2.2871594460 -0.7534210699  0.2704303744
7
Iter 9 Image 5  Energy = -29.6075472599
C   0.8957859697  0.7887562891 -0.1819965610
H   0.7551169794  1.5869049014 -0.9235479541
O   0.5555547138  0.9681298159  1.1133606952
C   1.3358842439 -0.5655702726 -0.1975666857
H   0.7926696008 -0.2026638964  1.0758575237
H   0.9512706302 -1.3425003150 -0.8633973267
H   2.3149595443 -0.7426900127  0.2712293638
7
Iter 9 Image 6  Energy = -29.6168884105
C   0.8801278947  0.8148808214 -0.1456958201
H   0.7552209050  1.5824098040 -0.9277526138
O   0.5464784186  1.0648952328  1.0866595664
C   1.3182488646 -0.5729700653 -0.1401932383
H   0.8255395077 -0.3253826564  1.0072625761
H   0.9514430913 -1.3295247445 -0.8514750882
H   2.3241830126 -0.7439418926  0.2651336452
7
Iter 9 Image 7  Energy = -29.6564913756
C   0.8657633157  0.8519724163 -0.1123435436
H   0.7589853975  1.5753493673 -0.9377805415
O   0.5373787399  1.1808063222  1.0528451159
C   1.3002528203 -0.5778626139 -0.0801710922
H   0.8471788769 -0.4901365788  0.9614096526
H   0.9541013959 -1.3097240546 -0.8352991728
H   2.3375811568 -0.7400383010  0.2452785991
7
Iter 9 Image 8  Energy = -29.6919854498
C   0.8558096536  0.8809470275 -0.0738136223
H   0.7703799292  1.5434610884 -0.9588276703
O   0.5399224127  1.3251879660  1.0285568454
C   1.2899790129 -0.5723330693 -0.0312592716
H   0.8307319970 -0.7045803346  0.9500713573
H   0.9597331922 -1.2592930301 -0.8228465507
H   2.3546855092 -0.7230230312  0.2020578567
7
Iter 9 Image 9  Energy = -29.7075971133
C   0.8445931077  0.8950616031 -0.0355530297
H   0.7997301969  1.4411260137 -1.0042008321
O   0.5426904069  1.4850723374  0.9901386924
C   1.2738596045 -0.5647323572  0.0368255047
H   0.8261864609 -0.9133363652  0.9688350022
H   0.9531537127 -1.1726069236 -0.8122558262
H   2.3610282876 -0.6802178932  0.1501493402
7
Iter 9 Image 10  Energy = -29.7099052435
C   0.8115230423  0.8880111128 -0.0283170866
H   0.8940178009  1.3608907175 -1.0342532655
O   0.3687028384  1.5348573191  0.9043291720
C   1.2869598402 -0.5566051384  0.0931856031
H   0.9496709323 -0.9671825956  1.0482129890
H   0.9099735509 -1.1615932723 -0.7343388531
H   2.3803938313 -0.6080111354  0.0451202262
7
Iter 9 Image 11  Energy = -29.7096971637
C   0.7840367852  0.8656586589 -0.0371164025
H   0.9809293880  1.3403901038 -1.0231241499
O   0.1875804579  1.4681235287  0.8223429327
C   1.3100769769 -0.5359012779  0.1153731248
H   1.0639489065 -0.9236344469  1.1059940899
H   0.8779311114 -1.1816924395 -0.6582837811
H   2.3967379442 -0.5425772870 -0.0312469938
7
Iter 10 Image 0  Energy = -29.6796137011
C   0.8260657415  0.5508603911 -0.1261794589
H   0.4554445983  1.2417513435 -0.8784317668
O   0.5680753083  1.0246514429  1.1187434847
C   1.4411098584 -0.5873603774 -0.4363613732
H   0.9099091373  0.3932317500  1.7666320721
H   1.5916834696 -0.8592929697 -1.4741885892
H   1.8089534565 -1.2734747403  0.3237244514
7
Iter 10 Image 1  Energy = -29.6785986191
C   0.8594503309  0.5870717460 -0.1501569830
H   0.5691849441  1.3227414726 -0.8990113952
O   0.6139986582  1.0177573502  1.1453204064
C   1.4440947978 -0.5815835575 -0.4418303033
H   0.7022986886  0.2644229987  1.7627510008
H   1.3582310418 -1.0283106939 -1.4238863025
H   2.0539831656 -1.0917327240  0.3007526563
7
Iter 10 Image 2  Energy = -29.6710121101
C   0.8797973783  0.6267654640 -0.1781150905
H   0.6649934641  1.4199721712 -0.9014352802
O   0.5929913427  0.9885958202  1.1338742884
C   1.4373027717 -0.5781425327 -0.4295506535
H   0.6240431642  0.1710674031  1.6763608912
H   1.1783990527 -1.2267073461 -1.2572918224
H   2.2237145060 -0.9111844262  0.2500966918
7
Iter 10 Image 3  Energy = -29.6581554180
C   0.8961366926  0.6796506070 -0.2119699250
H   0.7390225895  1.5199405771 -0.9040511592
O   0.5675484522  0.9519435362  1.1119219006
C   1.4194735826 -0.5655294181 -0.4036496533
H   0.6548402729  0.0552937756  1.5116146062
H   1.0445950847 -1.3526207109 -1.0455516611
H   2.2796251598 -0.7983120361  0.2356246050
7
Iter 10 Image 4  Energy = -29.6338713831
C   0.9028492635  0.7393046656 -0.2098213001
H   0.7540671125  1.5740239403 -0.9139096617
O   0.5677882054  0.9201298607  1.1164632102
C   1.3790050149 -0.5548626783 -0.3196258201
H   0.7370265324 -0.0769315103  1.2689805799
H   0.9742022468 -1.3583244337 -0.9187964759
H   2.2863033011 -0.7529733492  0.2706484252
7
Iter 10 Image 5  Energy = -29.6074641711
C   0.8959350666  0.7890525943 -0.1815840675
H   0.7553717012  1.5868615582 -0.9235726207
O   0.5553551873  0.9695434812  1.1131985594
C   1.3356435292 -0.5656252909 -0.1969854512
H   0.7931860154 -0.2048559510  1.0745014716
H   0.9509154544 -1.3429033788 -0.8628873107
H   2.3148347247 -0.7417064955  0.2712684856
7
Iter 10 Image 6  Energy = -29.6175083882
C   0.8802296506  0.8162263495 -0.1455229464
H   0.7555841172  1.5823354827 -0.9277842010
O   0.5464439605  1.0667214321  1.0861292638
C   1.3175697625 -0.5733369543 -0.1387092056
H   0.8261935623 -0.3293825689  1.0052071322
H   0.9509840038 -1.3295408689 -0.8503474521
H   2.3242366346 -0.7426563704  0.2649664596
7
Iter 10 Image 7  Energy = -29.6575079775
C   0.8660258160  0.8527789183 -0.1116638743
H   0.7594929878  1.5753025351 -0.9383096708
O   0.5375656136  1.1832131774  1.0520464468
C   1.2996363754 -0.5777275765 -0.0791844185
H   0.8468814149 -0.4951365788  0.9606516887
H   0.9536763431 -1.3095133006 -0.8341948863
H   2.3379631550 -0.7385506103  0.2445937493
7
Iter 10 Image 8  Energy = -29.6923401272
C   0.8556857910  0.8812639161 -0.0729936638
H   0.7713678144  1.5427153833 -0.9595640820
O   0.5396733122  1.3267309042  1.0275195452
C   1.2896773524 -0.5721337858 -0.0303983755
H   0.8305798001 -0.7079281244  0.9502685789
H   0.9594301749 -1.2590619160 -0.8220417075
H   2.3548274637 -0.7212197645  0.2011486666
7
Iter 10 Image 9  Energy = -29.7076468831
C   0.8444680714  0.8949694732 -0.0351348047
H   0.8004601859  1.4405986878 -1.0040720667
O   0.5429437890  1.4851983632  0.9904337384
C   1.2734238705 -0.5647657361  0.0369968527
H   0.8259238078 -0.9147400149  0.9685746569
H   0.9532818713 -1.1722283633 -0.8126841087
H   2.3607401865 -0.6786659914  0.1498245836
7
Iter 10 Image 10  Energy = -29.7099146611
C   0.8115820517  0.8877661417 -0.0281998137
H   0.8941490872  1.3602606663 -1.0341796320
O   0.3700279775  1.5350453691  0.9050882896
C   1.2864916214 -0.5567485889  0.0931317819
H   0.9488592917 -0.9677193715  1.0478310574
H   0.9101166643 -1.1610849641 -0.7351516235
H   2.3800151497 -0.6071522356  0.0454187228
7
Iter 10 Image 11  Energy = -29.7096971637
C   0.7840367852  0.8656586589 -0.0371164025
H   0.9809293880  1.3403901038 -1.0231241499
O   0.1875804579  1.4681235287  0.8223429327
C   1.3100769769 -0.5359012779  0.1153731248
H   1.0639489065 -0.9236344469  1.1059940899
H   0.8779311114 -1.1816924395 -0.6582837811
H   2.3967379442 -0.5425772870 -0.0312469938
7
Iter 11 Image 0  Energy = -29.6796137011
C   0.8260657415  0.5508603911 -0.1261794589
H   0.4554445983  1.2417513435 -0.8784317668
O   0.5680753083  1.0246514429  1.1187434847
C   1.4411098584 -0.5873603774 -0.4363613732
H   0.9099091373  0.3932317500  1.7666320721
H   1.5916834696 -0.8592929697 -1.4741885892
H   1.8089534565 -1.2734747403  0.3237244514
7
Iter 11 Image 1  Energy = -29.6786526209
C   0.8594289385  0.5869029600 -0.1498622394
H   0.5675858418  1.3214652616 -0.8991916838
O   0.6140085048  1.0182982243  1.1451329037
C   1.4441873354 -0.5816277661 -0.4416506771
H   0.7039208599  0.2652729405  1.7631105115
H   1.3605498649 -1.0258209645 -1.4249557465
H   2.0515602825 -1.0941240817  0.3013560162
7
Iter 11 Image 2  Energy = -29.6712106234
C   0.8795850335  0.6262778425 -0.1776249793
H   0.6628350641  1.4176563654 -0.9018808301
O   0.5937485359  0.9900035367  1.1336054167
C   1.4372160589 -0.5789055612 -0.4294272280
H   0.6254104253  0.1732679206  1.6780496347
H   1.1811291659 -1.2238193578 -1.2603254002
H   2.2213173979 -0.9141141881  0.2515424161
7
Iter 11 Image 3  Energy = -29.6584419525
C   0.8960144093  0.6788992131 -0.2116358532
H   0.7375810033  1.5183773407 -0.9042391628
O   0.5688834837  0.9531516214  1.1120663153
C   1.4187098121 -0.5662059363 -0.4039454739
H   0.6558593985  0.0573625480  1.5144609788
H   1.0470036800 -1.3511721542 -1.0498210234
H   2.2771900439 -0.8000463052  0.2370529254
7
Iter 11 Image 4  Energy = -29.6342196530
C   0.9032671813  0.7385422287 -0.2101110502
H   0.7539594985  1.5737445330 -0.9138309907
O   0.5682620529  0.9200732558  1.1163801949
C   1.3795345336 -0.5542674788 -0.3209946985
H   0.7364247507 -0.0764891925  1.2718257978
H   0.9744575058 -1.3586565971 -0.9200699595
H   2.2853361525 -0.7525802544  0.2707396706
7
Iter 11 Image 5  Energy = -29.6074024952
C   0.8960801331  0.7890948115 -0.1812011197
H   0.7556164825  1.5868441763 -0.9236285531
O   0.5551581636  0.9709508647  1.1130907315
C   1.3353673090 -0.5655476755 -0.1965321708
H   0.7936595203 -0.2067890523  1.0734542203
H   0.9506581336 -1.3433610833 -0.8625544989
H   2.3147019324 -0.7408255150  0.2713104728
7
Iter 11 Image 6  Energy = -29.6181398398
C   0.8802823665  0.8169319033 -0.1446156338
H   0.7559142916  1.5825211215 -0.9280755663
O   0.5464893780  1.0685360811  1.0852359911
C   1.3169745480 -0.5732709031 -0.1370832264
H   0.8268105953 -0.3331706133  1.0031651319
H   0.9505403209 -1.3297255152 -0.8494053920
H   2.3242301878 -0.7414555607  0.2647177680
7
Iter 11 Image 7  Energy = -29.6585161305
C   0.8661740575  0.8538286937 -0.1113417485
H   0.7600567012  1.5751214767 -0.9387325841
O   0.5376815767  1.1857233522  1.0514527017
C   1.2991653323 -0.5778428937 -0.0781647271
H   0.8465905372 -0.5001365788  0.9599631003
H   0.9533224840 -1.3092578912 -0.8330916623
H   2.3382510181 -0.7370696013  0.2438539781
7
Iter 11 Image 8  Energy = -29.6927017784
C   0.8556979422  0.8814543600 -0.0729481760
H   0.7723892593  1.5418685823 -0.9601779946
O   0.5392611590  1.3286538125  1.0271441481
C   1.2892850728 -0.5720724887 -0.0296386979
H   0.8304076652 -0.7114289222  0.9504944607
H   0.9591803986 -1.2587079636 -0.8211610758
H   2.3550202108 -0.7194007715  0.2002263139
7
Iter 11 Image 9  Energy = -29.7077021068
C   0.8443346863  0.8948437265 -0.0346873143
H   0.8012244499  1.4400067430 -1.0039742113
O   0.5431676177  1.4854857913  0.9907312445
C   1.2729735896 -0.5648163373  0.0371360137
H   0.8256569660 -0.9163224818  0.9683351028
H   0.9534224015 -1.1717528992 -0.8130688840
H   2.3604620738 -0.6770781206  0.1494668998
7
Iter 11 Image 10  Energy = -29.7099241382
C   0.8115531236  0.8875900422 -0.0278867893
H   0.8943462575  1.3595899545 -1.0341465307
O   0.3713031458  1.5352102712  0.9056452812
C   1.2860512766 -0.5568750280  0.0930643503
H   0.9481233393 -0.9683430705  1.0475134947
H   0.9102383523 -1.1605634626 -0.7359047083
H   2.3796263583 -0.6062416771  0.0456536807
7
Iter 11 Image 11  Energy = -29.7096971935
C   0.7840367852  0.8656586589 -0.0371164025
H   0.9809293880  1.3403901038 -1.0231241499
O   0.1875804579  1.4681235287  0.8223429327
C   1.3100769769 -0.5359012779  0.1153731248
H   1.0639489065 -0.9236344469  1.1059940899
H   0.8779311114 -1.1816924395 -0.6582837811
H   2.3967379442 -0.5425772870 -0.0312469938
7
Iter 12 Image 0  Energy = -29.6796137011
C   0.8260657415  0.5508603911 -0.1261794589
H   0.4554445983  1.2417513435 -0.8784317668
O   0.5680753083  1.0246514429  1.1187434847
C   1.4411098584 -0.5873603774 -0.4363613732
H   0.9099091373  0.3932317500  1.7666320721
H   1.5916834696 -0.8592929697 -1.4741885892
H   1.8089534565 -1.2734747403  0.3237244514
7
Iter 12 Image 1  Energy = -29.6787063396
C   0.8594499535  0.5866049367 -0.1497974752
H   0.5659450987  1.3201479710 -0.8993517031
O   0.6140236588  1.0185666007  1.1452854194
C   1.4442016257 -0.5814661010 -0.4413245630
H   0.7056082606  0.2664482799  1.7632796424
H   1.3629780510 -1.0233359292 -1.4261436596
H   2.0490349800 -1.0965991944  0.3019914244
7
Iter 12 Image 2  Energy = -29.6714132941
C   0.8796235727  0.6251502960 -0.1773207254
H   0.6605649736  1.4153196826 -0.9024423334
O   0.5945404350  0.9911882347  1.1336021219
C   1.4369142099 -0.5789284715 -0.4289435120
H   0.6269340473  0.1758607211  1.6795443887
H   1.1838848300 -1.2209948134 -1.2636227742
H   2.2187796146 -0.9172290921  0.2531218637
7
Iter 12 Image 3  Energy = -29.6587370551
C   0.8958910567  0.6779797645 -0.2113933012
H   0.7360595856  1.5167232197 -0.9044443056
O   0.5703339435  0.9543189131  1.1123043171
C   1.4180194044 -0.5665619812 -0.4038921424
H   0.6570203734  0.0595677453  1.5172936203
H   1.0494444182 -1.3497749495 -1.0544509220
H   2.2744730441 -0.8018863850  0.2385214467
7
Iter 12 Image 4  Energy = -29.6345946109
C   0.9035639818  0.7381757969 -0.2105130795
H   0.7538759071  1.5733040510 -0.9136668669
O   0.5687519016  0.9198606566  1.1163987025
C   1.3797224421 -0.5543012365 -0.3228545561
H   0.7357940454 -0.0757427854  1.2748070000
H   0.9749750239 -1.3586875788 -0.9212168649
H   2.2845583694 -0.7522424038  0.2709846392
7
Iter 12 Image 5  Energy = -29.6073535150
C   0.8960560965  0.7895635365 -0.1809210810
H   0.7558753169  1.5866287186 -0.9235972582
O   0.5550042225  0.9723488142  1.1129683537
C   1.3348949640 -0.5659652945 -0.1963855862
H   0.7941296987 -0.2085366752  1.0727121041
H   0.9506386123 -1.3436264663 -0.8622595059
H   2.3146427629 -0.7400461060  0.2714220758
7
Iter 12 Image 6  Energy = -29.6187860584
C   0.8803537158  0.8177544103 -0.1442155553
H   0.7562732254  1.5825446443 -0.9282770080
O   0.5463648461  1.0707159513  1.0847360538
C   1.3162303250 -0.5734063329 -0.1357190579
H   0.8273919078 -0.3370788440  1.0014115370
H   0.9502455741 -1.3298193453 -0.8484614540
H   2.3243820913 -0.7403439620  0.2644645639
7
Iter 12 Image 7  Energy = -29.6595454878
C   0.8661597474  0.8545097077 -0.1101222186
H   0.7606220128  1.5751788959 -0.9394584068
O   0.5379266659  1.1882182465  1.0502963754
C   1.2990009155 -0.5776541307 -0.0767904166
H   0.8462612604 -0.5051365788  0.9592365910
H   0.9529500761 -1.3091756054 -0.8321762751
H   2.3383210205 -0.7355739781  0.2429534213
7
Iter 12 Image 8  Energy = -29.6930834866
C   0.8555481794  0.8818257756 -0.0725217121
H   0.7734748078  1.5409525235 -0.9608156093
O   0.5389659273  1.3306022096  1.0264225447
C   1.2889790642 -0.5720057797 -0.0288501135
H   0.8301810123 -0.7151717494  0.9507763045
H   0.9589463026 -1.2583263938 -0.8202964181
H   2.3551464123 -0.7175099807  0.1992239941
7
Iter 12 Image 9  Energy = -29.7077665395
C   0.8442171046  0.8946552732 -0.0343062678
H   0.8020581396  1.4392790953 -1.0038836514
O   0.5433375701  1.4860336859  0.9911268458
C   1.2724590953 -0.5649098700  0.0372039926
H   0.8253738050 -0.9181911078  0.9681338562
H   0.9535920512 -1.1711094712 -0.8133942627
H   2.3602040168 -0.6753911789  0.1490583428
7
Iter 12 Image 10  Energy = -29.7099341518
C   0.8115717371  0.8873338194 -0.0277270822
H   0.8946078174  1.3588268031 -1.0340825144
O   0.3724437400  1.5355364598  0.9062928039
C   1.2856417288 -0.5570176034  0.0929588419
H   0.9474361153 -0.9690773126  1.0472630553
H   0.9103457901 -1.1599867455 -0.7366048034
H   2.3791949363 -0.6052483876  0.0458384771
7
Iter 12 Image 11  Energy = -29.7096971637
C   0.7840367852  0.8656586589 -0.0371164025
H   0.9809293880  1.3403901038 -1.0231241499
O   0.1875804579  1.4681235287  0.8223429327
C   1.3100769769 -0.5359012779  0.1153731248
H   1.0639489065 -0.9236344469  1.1059940899
H   0.8779311114 -1.1816924395 -0.6582837811
H   2.3967379442 -0.5425772870 -0.0312469938
7
Iter 13 Image 0  Energy = -29.6796137011
C   0.8260657415  0.5508603911 -0.1261794589
H   0.4554445983  1.2417513435 -0.8784317668
O   0.5680753083  1.0246514429  1.1187434847
C   1.4411098584 -0.5873603774 -0.4363613732
H   0.9099091373  0.3932317500  1.7666320721
H   1.5916834696 -0.8592929697 -1.4741885892
H   1.8089534565 -1.2734747403  0.3237244514
7
Iter 13 Image 1  Energy = -29.6787582403
C   0.8593145536  0.5865763498 -0.1495077687
H   0.5643684546  1.3188696628 -0.8995087384
O   0.6140165365  1.0190476943  1.1450885674
C   1.4443259564 -0.5816082184 -0.4412608804
H   0.7073028253  0.2673337868  1.7636518425
H   1.3653553273 -1.0208907973 -1.4271472536
H   2.0465579741 -1.0989619220  0.3026233130
7
Iter 13 Image 2  Energy = -29.6716094977
C   0.8794041221  0.6246325252 -0.1769499191
H   0.6583741761  1.4129193204 -0.9029677384
O   0.5953447570  0.9923778793  1.1334952870
C   1.4368058208 -0.5795433264 -0.4287431036
H   0.6284961616  0.1783192926  1.6810240424
H   1.1866031328 -1.2180838733 -1.2666339524
H   2.2162135152 -0.9202552616  0.2547144136
7
Iter 13 Image 3  Energy = -29.6590212798
C   0.8957119975  0.6772818176 -0.2111269406
H   0.7345634535  1.5150739291 -0.9046664490
O   0.5717893554  0.9552258001  1.1126678471
C   1.4171574650 -0.5672293375 -0.4041394879
H   0.6581923330  0.0619131783  1.5199023724
H   1.0519213185 -1.3481801617 -1.0588029040
H   2.2719058995 -0.8037188978  0.2401042828
7
Iter 13 Image 4  Energy = -29.6349627143
C   0.9038111473  0.7376615106 -0.2108280964
H   0.7537916881  1.5729094615 -0.9135357047
O   0.5692350387  0.9197200631  1.1163691074
C   1.3800230349 -0.5542173848 -0.3244951030
H   0.7352045039 -0.0749551020  1.2777601640
H   0.9754866212 -1.3588157879 -0.9224752373
H   2.2836896346 -0.7519362548  0.2711438574
7
Iter 13 Image 5  Energy = -29.6073177075
C   0.8960469113  0.7895890398 -0.1805499363
H   0.7560908286  1.5865114367 -0.9236559489
O   0.5549079820  0.9736772282  1.1128248641
C   1.3346177064 -0.5659347441 -0.1959929706
H   0.7945569884 -0.2100490754  1.0721144729
H   0.9506055282 -1.3440591509 -0.8622498971
H   2.3144157303 -0.7393682053  0.2714485362
7
Iter 13 Image 6  Energy = -29.6194129652
C   0.8802323427  0.8188104772 -0.1435899921
H   0.7566289652  1.5824612128 -0.9284334856
O   0.5463692072  1.0726479404  1.0839362019
C   1.3155159505 -0.5736898875 -0.1343337104
H   0.8279207846 -0.3406443607  0.9998247094
H   0.9500507869 -1.3298812658 -0.8476527721
H   2.3245236481 -0.7393375884  0.2641881375
7
Iter 13 Image 7  Energy = -29.6605384564
C   0.8663245277  0.8554724041 -0.1102521038
H   0.7612151852  1.5748927213 -0.9398445103
O   0.5378533012  1.1910246689  1.0500916988
C   1.2983361686 -0.5778392689 -0.0757943988
H   0.8459939783 -0.5101365788  0.9586750760
H   0.9527685041 -1.3088428077 -0.8310985485
H   2.3387500265 -0.7342045742  0.2421618671
7
Iter 13 Image 8  Energy = -29.6934532440
C   0.8553916243  0.8820292618 -0.0719521681
H   0.7745276572  1.5401147928 -0.9615177640
O   0.5387022487  1.3325551252  1.0256862465
C   1.2886580683 -0.5718151406 -0.0278647366
H   0.8299823022 -0.7188226852  0.9509454105
H   0.9587101872 -1.2580060647 -0.8195716957
H   2.3552696176 -0.7156886801  0.1982137099
7
Iter 13 Image 9  Energy = -29.7078323728
C   0.8439819968  0.8946586916 -0.0335953916
H   0.8028951059  1.4385074753 -1.0038271559
O   0.5435914316  1.4864828974  0.9911741127
C   1.2719923073 -0.5649331718  0.0375249521
H   0.8251378547 -0.9201188490  0.9678619091
H   0.9537190199 -1.1704965003 -0.8138212643
H   2.3599240672 -0.6737341097  0.1486216994
7
Iter 13 Image 10  Energy = -29.7099434203
C   0.8114710276  0.8872364089 -0.0273334283
H   0.8949050289  1.3580629773 -1.0340478525
O   0.3735690485  1.5357380776  0.9066565830
C   1.2852003129 -0.5571555349  0.0929975963
H   0.9468580863 -0.9698073349  1.0469844213
H   0.9104198229 -1.1594481657 -0.7372836811
H   2.3788185495 -0.6042593900  0.0459651374
7
Iter 13 Image 11  Energy = -29.7096971637
C   0.7840367852  0.8656586589 -0.0371164025
H   0.9809293880  1.3403901038 -1.0231241499
O   0.1875804579  1.4681235287  0.8223429327
C   1.3100769769 -0.5359012779  0.1153731248
H   1.0639489065 -0.9236344469  1.1059940899
H   0.8779311114 -1.1816924395 -0.6582837811
H   2.3967379442 -0.5425772870 -0.0312469938
7
Iter 14 Image 0  Energy = -29.6796137011
C   0.8260657415  0.5508603911 -0.1261794589
H   0.4554445983  1.2417513435 -0.8784317668
O   0.5680753083  1.0246514429  1.1187434847
C   1.4411098584 -0.5873603774 -0.4363613732
H   0.9099091373  0.3932317500  1.7666320721
H   1.5916834696 -0.8592929697 -1.4741885892
H   1.8089534565 -1.2734747403  0.3237244514
7
Iter 14 Image 1  Energy = -29.6788103497
C   0.8592985698  0.5862226332 -0.1492541993
H   0.5627154629  1.3176453111 -0.8997164607
O   0.6139774253  1.0195621481  1.1449159684
C   1.4443438112 -0.5814886851 -0.4410900740
H   0.7090950986  0.2682604259  1.7640365041
H   1.3678369009 -1.0184454743 -1.4282297126
H   2.0439743598 -1.1013898075  0.3032770557
7
Iter 14 Image 2  Energy = -29.6718130177
C   0.8793185246  0.6236787991 -0.1764762344
H   0.6560570786  1.4105239268 -0.9036323693
O   0.5961750510  0.9938980719  1.1331838495
C   1.4365551926 -0.5798497793 -0.4285105588
H   0.6302397690  0.1806550276  1.6826615075
H   1.1894100666 -1.2150924917 -1.2697482322
H   2.2134860055 -0.9234470002  0.2564610642
7
Iter 14 Image 3  Energy = -29.6593168443
C   0.8955624506  0.6763347592 -0.2107579814
H   0.7329692413  1.5134113254 -0.9049570269
O   0.5733160730  0.9564401299  1.1129204523
C   1.4161951188 -0.5677743933 -0.4043766224
H   0.6595217672  0.0640964637  1.5226531759
H   1.0545063312 -1.3464764331 -1.0633569219
H   2.2691708361 -0.8056655189  0.2418136557
7
Iter 14 Image 4  Energy = -29.6353483117
C   0.9039997813  0.7369915951 -0.2111475160
H   0.7536998939  1.5724984343 -0.9134024390
O   0.5697338355  0.9197524417  1.1162984115
C   1.3805132471 -0.5539860502 -0.3259549603
H   0.7346303513 -0.0741463771  1.2809363364
H   0.9760299339 -1.3590808447 -0.9239958732
H   2.2826346264 -0.7516626936  0.2712050457
7
Iter 14 Image 5  Energy = -29.6072907960
C   0.8959974079  0.7895512289 -0.1802295277
H   0.7562876548  1.5863461366 -0.9237227780
O   0.5548404118  0.9750307731  1.1127456566
C   1.3343214570 -0.5659591801 -0.1956388444
H   0.7949696213 -0.2113880560  1.0716931516
H   0.9506881417 -1.3444573817 -0.8623827282
H   2.3141369826 -0.7387569882  0.2714742079
7
Iter 14 Image 6  Energy = -29.6200667387
C   0.8800750953  0.8195407553 -0.1427768989
H   0.7569737699  1.5824461177 -0.9287296358
O   0.5463895666  1.0746991391  1.0831111262
C   1.3149077602 -0.5737301555 -0.1326155240
H   0.8284756767 -0.3441562785  0.9982154115
H   0.9498871800 -1.3300467130 -0.8470817577
H   2.3245326336 -0.7383863344  0.2638163804
7
Iter 14 Image 7  Energy = -29.6615527040
C   0.8661559477  0.8564576236 -0.1088823358
H   0.7618035939  1.5747312651 -0.9404695118
O   0.5381389741  1.1935325953  1.0486194665
C   1.2977463412 -0.5777410510 -0.0747522785
H   0.8456175224 -0.5151365788  0.9583018355
H   0.9526226576 -1.3086098609 -0.8301604482
H   2.3391566593 -0.7328674206  0.2412823669
7
Iter 14 Image 8  Energy = -29.6938431478
C   0.8553145435  0.8822063067 -0.0718823494
H   0.7756466285  1.5391158936 -0.9621532744
O   0.5383053021  1.3348771004  1.0253665674
C   1.2881774946 -0.5717796558 -0.0269510283
H   0.8297575023 -0.7227354034  0.9511541914
H   0.9585482976 -1.2575128998 -0.8187385152
H   2.3554919350 -0.7138047320  0.1971434256
7
Iter 14 Image 9  Energy = -29.7079056865
C   0.8438374638  0.8944422647 -0.0332809382
H   0.8038000801  1.4376011509 -1.0037453367
O   0.5437184248  1.4873241846  0.9916028914
C   1.2715109536 -0.5649809194  0.0379206514
H   0.8249064939 -0.9222886797  0.9675742633
H   0.9538489182 -1.1697577604 -0.8142629049
H   2.3596194514 -0.6719738056  0.1481302400
7
Iter 14 Image 10  Energy = -29.7099528676
C   0.8114980211  0.8869254208 -0.0272226465
H   0.8952625519  1.3572230669 -1.0340014493
O   0.3745000724  1.5361934889  0.9072550709
C   1.2847487276 -0.5572870053  0.0930824151
H   0.9463392917 -0.9706256801  1.0467292372
H   0.9104674124 -1.1588738541 -0.7379437266
H   2.3784258074 -0.6031883886  0.0460398739
7
Iter 14 Image 11  Energy = -29.7096971637
C   0.7840367852  0.8656586589 -0.0371164025
H   0.9809293880  1.3403901038 -1.0231241499
O   0.1875804579  1.4681235287  0.8223429327
C   1.3100769769 -0.5359012779  0.1153731248
H   1.0639489065 -0.9236344469  1.1059940899
H   0.8779311114 -1.1816924395 -0.6582837811
H   2.3967379442 -0.5425772870 -0.0312469938
7
Iter 15 Image 0  Energy = -29.6796137011
C   0.8260657415  0.5508603911 -0.1261794589
H   0.4554445983  1.2417513435 -0.8784317668
O   0.5680753083  1.0246514429  1.1187434847
C   1.4411098584 -0.5873603774 -0.4363613732
H   0.9099091373  0.3932317500  1.7666320721
H   1.5916834696 -0.8592929697 -1.4741885892
H   1.8089534565 -1.2734747403  0.3237244514
7
Iter 15 Image 1  Energy = -29.6788602686
C   0.8591806819  0.5860536051 -0.1491596921
H   0.5611173631  1.3163764705 -0.8998666289
O   0.6139569229  1.0198463304  1.1449656609
C   1.4444396231 -0.5814792317 -0.4408548929
H   0.7108718027  0.2693798381  1.7642722608
H   1.3703003579 -1.0160617823 -1.4293106252
H   2.0413748797 -1.1037486909  0.3038929992
7
Iter 15 Image 2  Energy = -29.6720115608
C   0.8791541168  0.6229106127 -0.1761686019
H   0.6537784428  1.4080653366 -0.9042726081
O   0.5970276644  0.9951742963  1.1330634042
C   1.4364072112 -0.5802173017 -0.4281704363
H   0.6320421770  0.1831887929  1.6841245780
H   1.1921667225 -1.2121403974 -1.2728371327
H   2.2106653543 -0.9266147903  0.2581998226
7
Iter 15 Image 3  Energy = -29.6596088922
C   0.8953415193  0.6754912509 -0.2104741272
H   0.7313871905  1.5116961132 -0.9052098707
O   0.5748629158  0.9576680562  1.1131713817
C   1.4154315954 -0.5682601868 -0.4043899631
H   0.6609004584  0.0662176474  1.5253670566
H   1.0570247831 -1.3448404976 -1.0679775961
H   2.2662933507 -0.8076060458  0.2434518618
7
Iter 15 Image 4  Energy = -29.6357320464
C   0.9041569493  0.7363944007 -0.2114983677
H   0.7536001771  1.5720403520 -0.9132615968
O   0.5702202671  0.9197960988  1.1162771095
C   1.3807566535 -0.5539365378 -0.3275595817
H   0.7340839810 -0.0732576091  1.2840933088
H   0.9767025025 -1.3592018998 -0.9254655707
H   2.2817211386 -0.7514682964  0.2713537218
7
Iter 15 Image 5  Energy = -29.6072698450
C   0.8958855011  0.7897189187 -0.1799795245
H   0.7564668594  1.5860716916 -0.9237532408
O   0.5548023128  0.9763437468  1.1126955292
C   1.3338473789 -0.5662804468 -0.1954873115
H   0.7953684963 -0.2125804782  1.0714102581
H   0.9509212358 -1.3446790765 -0.8625110124
H   2.3139498934 -0.7382278191  0.2715644544
7
Iter 15 Image 6  Energy = -29.6207154459
C   0.8799633637  0.8201629794 -0.1421643644
H   0.7572981459  1.5823567787 -0.9290138320
O   0.5463145358  1.0769559045  1.0825495488
C   1.3141479450 -0.5739180636 -0.1311471959
H   0.8290385222 -0.3475871513  0.9967653413
H   0.9498599167 -1.3300811385 -0.8465361531
H   2.3246192514 -0.7375227719  0.2634857731
7
Iter 15 Image 7  Energy = -29.6625464028
C   0.8661608843  0.8571955653 -0.1087290181
H   0.7624061414  1.5744746536 -0.9410263712
O   0.5381231262  1.1964573160  1.0482234651
C   1.2975491854 -0.5776793913 -0.0732246312
H   0.8453011076 -0.5201365788  0.9578479287
H   0.9524595024 -1.3083978249 -0.8294304812
H   2.3392417510 -0.7315471679  0.2402782161
7
Iter 15 Image 8  Energy = -29.6942303544
C   0.8550440512  0.8825924210 -0.0711495067
H   0.7767607494  1.5381069012 -0.9628334738
O   0.5380912682  1.3370000467  1.0244717981
C   1.2877691055 -0.5717181941 -0.0261076317
H   0.8294777943 -0.7266578442  0.9514519643
H   0.9584182079 -1.2569998466 -0.8179467450
H   2.3556805242 -0.7119568753  0.1960526262
7
Iter 15 Image 9  Energy = -29.7079820401
C   0.8435887313  0.8943883209 -0.0325156350
H   0.8047223069  1.4366460508 -1.0037360688
O   0.5439236262  1.4880901528  0.9916693833
C   1.2709807620 -0.5650489711  0.0381595272
H   0.8246600726 -0.9245884249  0.9673570008
H   0.9540115783 -1.1689084775 -0.8146219945
H   2.3593547093 -0.6702122143  0.1476266573
7
Iter 15 Image 10  Energy = -29.7099621958
C   0.8113643482  0.8868099023 -0.0267723867
H   0.8956641682  1.3563665503 -1.0339921127
O   0.3754672239  1.5364861841  0.9075129421
C   1.2843541836 -0.5574120754  0.0930818794
H   0.9458709191 -0.9714875123  1.0465634685
H   0.9105057875 -1.1582901511 -0.7385294969
H   2.3780152645 -0.6021058438  0.0460744805
7
Iter 15 Image 11  Energy = -29.7096971637
C   0.7840367852  0.8656586589 -0.0371164025
H   0.9809293880  1.3403901038 -1.0231241499
O   0.1875804579  1.4681235287  0.8223429327
C   1.3100769769 -0.5359012779  0.1153731248
H   1.0639489065 -0.9236344469  1.1059940899
H   0.8779311114 -1.1816924395 -0.6582837811
H   2.3967379442 -0.5425772870 -0.0312469938
7
Iter 16 Image 0  Energy = -29.6796137011
C   0.8260657415  0.5508603911 -0.1261794589
H   0.4554445983  1.2417513435 -0.8784317668
O   0.5680753083  1.0246514429  1.1187434847
C   1.4411098584 -0.5873603774 -0.4363613732
H   0.9099091373  0.3932317500  1.7666320721
H   1.5916834696 -0.8592929697 -1.4741885892
H   1.8089534565 -1.2734747403  0.3237244514
7
Iter 16 Image 1  Energy = -29.6789114243
C   0.8589761902  0.5859717364 -0.1488669075
H   0.5594639650  1.3150885148 -0.9000361314
O   0.6138969099  1.0203790882  1.1446637216
C   1.4445393716 -0.5815848562 -0.4408503048
H   0.7127981376  0.2702872420  1.7647350721
H   1.3728894861 -1.0135990791 -1.4302994677
H   2.0386775706 -1.1061761106  0.3045931027
7
Iter 16 Image 2  Energy = -29.6722163624
C   0.8788691979  0.6223698544 -0.1758838043
H   0.6514147703  1.4054287044 -0.9049561320
O   0.5979549436  0.9964454024  1.1329448173
C   1.4362942993 -0.5808270289 -0.4279479084
H   0.6340596498  0.1858837827  1.6855777687
H   1.1950408690 -1.2089984851 -1.2759062458
H   2.2076079621 -0.9299356822  0.2601105273
7
Iter 16 Image 3  Energy = -29.6599106854
C   0.8950610199  0.6747914374 -0.2102286919
H   0.7297191061  1.5098297141 -0.9054809478
O   0.5765287611  0.9585951754  1.1136584593
C   1.4145142452 -0.5689798191 -0.4046346404
H   0.6623898187  0.0687524581  1.5280033013
H   1.0597191226 -1.3429205019 -1.0726672999
H   2.2633097313 -0.8097021224  0.2452885706
7
Iter 16 Image 4  Energy = -29.6361381626
C   0.9042885826  0.7357541412 -0.2118690787
H   0.7534689626  1.5715282629 -0.9131465678
O   0.5707501464  0.9198092119  1.1162883213
C   1.3808311585 -0.5539558688 -0.3292377857
H   0.7335478860 -0.0721656328  1.2874147000
H   0.9775357643 -1.3592428275 -0.9270629757
H   2.2808191710 -0.7513607746  0.2715524332
7
Iter 16 Image 5  Energy = -29.6072551674
C   0.8957740772  0.7895340455 -0.1795683079
H   0.7565866156  1.5858198277 -0.9238807418
O   0.5548606936  0.9776833418  1.1125712995
C   1.3334257065 -0.5662243621 -0.1950843508
H   0.7957647147 -0.2136506562  1.0712232943
H   0.9511986693 -1.3450039733 -0.8629440893
H   2.3136312032 -0.7377916888  0.2716220613
7
Iter 16 Image 6  Energy = -29.6213821387
C   0.8796324635  0.8212639098 -0.1413837571
H   0.7576144212  1.5819860250 -0.9291579766
O   0.5463842335  1.0792295300  1.0816356900
C   1.3132462900 -0.5744380067 -0.1298341132
H   0.8295569738 -0.3509720025  0.9955730498
H   0.9500230386 -1.3299535602 -0.8460822467
H   2.3247842611 -0.7367493446  0.2631884894
7
Iter 16 Image 7  Energy = -29.6635627812
C   0.8660474891  0.8579795775 -0.1075502605
H   0.7629935515  1.5741657623 -0.9417436186
O   0.5382462670  1.1994197410  1.0471182197
C   1.2965622615 -0.5779762918 -0.0723907188
H   0.8449521270 -0.5251365788  0.9575732659
H   0.9526216083 -1.3077835973 -0.8284084603
H   2.3398183896 -0.7303020328  0.2393406926
7
Iter 16 Image 8  Energy = -29.6946378416
C   0.8548775523  0.8827040410 -0.0710154456
H   0.7779359622  1.5369748156 -0.9635297882
O   0.5377136156  1.3395999419  1.0241311447
C   1.2875192154 -0.5715057841 -0.0247784072
H   0.8292079814 -0.7308423204  0.9516808493
H   0.9582531273 -1.2565129005 -0.8173682132
H   2.3557342420 -0.7100511824  0.1948188978
7
Iter 16 Image 9  Energy = -29.7080672747
C   0.8433362213  0.8942951855 -0.0318823487
H   0.8057279215  1.4354948712 -1.0037033846
O   0.5440871149  1.4891317947  0.9918353174
C   1.2704408738 -0.5650921209  0.0386807534
H   0.8244516170 -0.9271802758  0.9670612732
H   0.9541497305 -1.1679472727 -0.8150983852
H   2.3590483018 -0.6683357389  0.1470456566
7
Iter 16 Image 10  Energy = -29.7099711365
C   0.8113547769  0.8865325530 -0.0266749087
H   0.8961294584  1.3554130759 -1.0339303267
O   0.3762242371  1.5370175101  0.9080006406
C   1.2839187496 -0.5575666972  0.0932331636
H   0.9454998874 -0.9724077150  1.0463733181
H   0.9105049576 -1.1576797879 -0.7391081691
H   2.3776098374 -0.6009418847  0.0460450582
7
Iter 16 Image 11  Energy = -29.7096971637
C   0.7840367852  0.8656586589 -0.0371164025
H   0.9809293880  1.3403901038 -1.0231241499
O   0.1875804579  1.4681235287  0.8223429327
C   1.3100769769 -0.5359012779  0.1153731248
H   1.0639489065 -0.9236344469  1.1059940899
H   0.8779311114 -1.1816924395 -0.6582837811
H   2.3967379442 -0.5425772870 -0.0312469938
