7
Image 0  Energy = -29.67961370
C   0.8260657415  0.5508603911 -0.1261794589
H   0.4554445983  1.2417513435 -0.8784317668
O   0.5680753083  1.0246514429  1.1187434847
C   1.4411098584 -0.5873603774 -0.4363613732
H   0.9099091373  0.3932317500  1.7666320721
H   1.5916834696 -0.8592929697 -1.4741885892
H   1.8089534565 -1.2734747403  0.3237244514
7
Image 1  Energy = -29.67891142
C   0.8589761902  0.5859717364 -0.1488669075
H   0.5594639650  1.3150885148 -0.9000361314
O   0.6138969099  1.0203790882  1.1446637216
C   1.4445393716 -0.5815848562 -0.4408503048
H   0.7127981376  0.2702872420  1.7647350721
H   1.3728894861 -1.0135990791 -1.4302994677
H   2.0386775706 -1.1061761106  0.3045931027
7
Image 2  Energy = -29.67221636
C   0.8788691979  0.6223698544 -0.1758838043
H   0.6514147703  1.4054287044 -0.9049561320
O   0.5979549436  0.9964454024  1.1329448173
C   1.4362942993 -0.5808270289 -0.4279479084
H   0.6340596498  0.1858837827  1.6855777687
H   1.1950408690 -1.2089984851 -1.2759062458
H   2.2076079621 -0.9299356822  0.2601105273
7
Image 3  Energy = -29.65991069
C   0.8950610199  0.6747914374 -0.2102286919
H   0.7297191061  1.5098297141 -0.9054809478
O   0.5765287611  0.9585951754  1.1136584593
C   1.4145142452 -0.5689798191 -0.4046346404
H   0.6623898187  0.0687524581  1.5280033013
H   1.0597191226 -1.3429205019 -1.0726672999
H   2.2633097313 -0.8097021224  0.2452885706
7
Image 4  Energy = -29.63613816
C   0.9042885826  0.7357541412 -0.2118690787
H   0.7534689626  1.5715282629 -0.9131465678
O   0.5707501464  0.9198092119  1.1162883213
C   1.3808311585 -0.5539558688 -0.3292377857
H   0.7335478860 -0.0721656328  1.2874147000
H   0.9775357643 -1.3592428275 -0.9270629757
H   2.2808191710 -0.7513607746  0.2715524332
7
Image 5  Energy = -29.60725517
C   0.8957740772  0.7895340455 -0.1795683079
H   0.7565866156  1.5858198277 -0.9238807418
O   0.5548606936  0.9776833418  1.1125712995
C   1.3334257065 -0.5662243621 -0.1950843508
H   0.7957647147 -0.2136506562  1.0712232943
H   0.9511986693 -1.3450039733 -0.8629440893
H   2.3136312032 -0.7377916888  0.2716220613
7
Image 6  Energy = -29.60735143
C   0.8956718553  0.7771454553 -0.1817941369
H   0.7534471219  1.5682078448 -0.9303738913
O   0.5542229984  0.9717847623  1.1071121831
C   1.3177234591 -0.5806186599 -0.2144438873
H   0.7686833239 -0.2501029494  1.0471450721
H   0.9873727042 -1.3256031226 -0.9495252285
H   2.2744308339 -0.7715640111  0.2915630123
7
Image 7  Energy = -29.62138214
C   0.8796324635  0.8212639098 -0.1413837571
H   0.7576144212  1.5819860250 -0.9291579766
O   0.5463842335  1.0792295300  1.0816356900
C   1.3132462900 -0.5744380067 -0.1298341132
H   0.8295569738 -0.3509720025  0.9955730498
H   0.9500230386 -1.3299535602 -0.8460822467
H   2.3247842611 -0.7367493446  0.2631884894
7
Image 8  Energy = -29.66356278
C   0.8660474891  0.8579795775 -0.1075502605
H   0.7629935515  1.5741657623 -0.9417436186
O   0.5382462670  1.1994197410  1.0471182197
C   1.2965622615 -0.5779762918 -0.0723907188
H   0.8449521270 -0.5251365788  0.9575732659
H   0.9526216083 -1.3077835973 -0.8284084603
H   2.3398183896 -0.7303020328  0.2393406926
7
Image 9  Energy = -29.69463784
C   0.8548775523  0.8827040410 -0.0710154456
H   0.7779359622  1.5369748156 -0.9635297882
O   0.5377136156  1.3395999419  1.0241311447
C   1.2875192154 -0.5715057841 -0.0247784072
H   0.8292079814 -0.7308423204  0.9516808493
H   0.9582531273 -1.2565129005 -0.8173682132
H   2.3557342420 -0.7100511824  0.1948188978
7
Image 10  Energy = -29.70806727
C   0.8433362213  0.8942951855 -0.0318823487
H   0.8057279215  1.4354948712 -1.0037033846
O   0.5440871149  1.4891317947  0.9918353174
C   1.2704408738 -0.5650921209  0.0386807534
H   0.8244516170 -0.9271802758  0.9670612732
H   0.9541497305 -1.1679472727 -0.8150983852
H   2.3590483018 -0.6683357389  0.1470456566
7
Image 11  Energy = -29.70997114
C   0.8113547769  0.8865325530 -0.0266749087
H   0.8961294584  1.3554130759 -1.0339303267
O   0.3762242371  1.5370175101  0.9080006406
C   1.2839187496 -0.5575666972  0.0932331636
H   0.9454998874 -0.9724077150  1.0463733181
H   0.9105049576 -1.1576797879 -0.7391081691
H   2.3776098374 -0.6009418847  0.0460450582
7
Image 12  Energy = -29.70969716
C   0.7840367852  0.8656586589 -0.0371164025
H   0.9809293880  1.3403901038 -1.0231241499
O   0.1875804579  1.4681235287  0.8223429327
C   1.3100769769 -0.5359012779  0.1153731248
H   1.0639489065 -0.9236344469  1.1059940899
H   0.8779311114 -1.1816924395 -0.6582837811
H   2.3967379442 -0.5425772870 -0.0312469938
