7
Image 0  Energy = -29.67961370
C   0.8260657415  0.5508603911 -0.1261794589
H   0.4554445983  1.2417513435 -0.8784317668
O   0.5680753083  1.0246514429  1.1187434847
C   1.4411098584 -0.5873603774 -0.4363613732
H   0.9099091373  0.3932317500  1.7666320721
H   1.5916834696 -0.8592929697 -1.4741885892
H   1.8089534565 -1.2734747403  0.3237244514
7
Image 1  Energy = -29.67801728
C   0.8574980108  0.5885523124 -0.1529786856
H   0.5847325234  1.3357101815 -0.8976880261
O   0.6133646733  1.0128553456  1.1462287544
C   1.4444273447 -0.5804969171 -0.4444240925
H   0.6890999567  0.2555396377  1.7600773759
H   1.3375514206 -1.0530557778 -1.4120456275
H   2.0745676715 -1.0687379784  0.2947692874
7
Image 2  Energy = -29.66928046
C   0.8781755608  0.6329800667 -0.1823745043
H   0.6832348130  1.4377592285 -0.8992603387
O   0.5874169648  0.9781667937  1.1351228495
C   1.4405863618 -0.5736825462 -0.4321127156
H   0.6157867237  0.1513112556  1.6613451865
H   1.1552957799 -1.2481482519 -1.2289440255
H   2.2407454359 -0.8880200490  0.2401624650
7
Image 3  Energy = -29.65546212
C   0.8940515857  0.6860998394 -0.2135857047
H   0.7505211865  1.5322887958 -0.9036202394
O   0.5579051653  0.9443760038  1.1124649283
C   1.4233723836 -0.5615151536 -0.3985928934
H   0.6506351835  0.0354036269  1.4812745681
H   1.0259044999 -1.3608496851 -1.0105633641
H   2.2988517968 -0.7854370279  0.2265615968
7
Image 4  Energy = -29.63055072
C   0.8958946092  0.7418363574 -0.2067589191
H   0.7564698903  1.5787171873 -0.9146593932
O   0.5629383298  0.9224919812  1.1168664292
C   1.3754615891 -0.5570450831 -0.3045732978
H   0.7433194572 -0.0799264585  1.2422469825
H   0.9718643197 -1.3589798302 -0.9083237555
H   2.2952934971 -0.7567276510  0.2691408538
7
Image 5  Energy = -29.61070818
C   0.8911333904  0.7808967310 -0.1882062594
H   0.7542517288  1.5875936215 -0.9222446873
O   0.5584001788  0.9533228922  1.1148296558
C   1.3436123675 -0.5649350156 -0.2162139541
H   0.7816115783 -0.1694568517  1.1093975769
H   0.9571460118 -1.3434826242 -0.8740123855
H   2.3150864238 -0.7535722568  0.2703889355
7
Image 6  Energy = -29.61233907
C   0.8754336366  0.8061223523 -0.1522482784
H   0.7540721711  1.5834382858 -0.9256934435
O   0.5461721866  1.0502099550  1.0923391020
C   1.3233547807 -0.5736923158 -0.1535297122
H   0.8217063956 -0.2899880208  1.0271567512
H   0.9569673203 -1.3312914927 -0.8613377418
H   2.3235352124 -0.7544322550  0.2672522052
7
Image 7  Energy = -29.64842728
C   0.8608635298  0.8443896868 -0.1168361129
H   0.7562972072  1.5778986035 -0.9332341660
O   0.5361572910  1.1634907348  1.0579634849
C   1.3032302659 -0.5784039846 -0.0893484480
H   0.8507345112 -0.4523444035  0.9683026435
H   0.9580951129 -1.3132517956 -0.8442992419
H   2.3358637912 -0.7514123274  0.2513907286
7
Image 8  Energy = -29.68925892
C   0.8542970737  0.8788667418 -0.0744057876
H   0.7625832543  1.5499703974 -0.9531881087
O   0.5449274667  1.3135383361  1.0333670603
C   1.2927546975 -0.5732093266 -0.0370951567
H   0.8306430440 -0.6802379539  0.9463270823
H   0.9616488730 -1.2607368346 -0.8300120579
H   2.3543873445 -0.7378248534  0.2089458062
7
Image 9  Energy = -29.70734505
C   0.8440928579  0.8967026124 -0.0372455025
H   0.7949377298  1.4439749004 -1.0056391046
O   0.5401934993  1.4877125665  0.9859066809
C   1.2776607709 -0.5642448638  0.0380413677
H   0.8286510753 -0.9074087169  0.9700284029
H   0.9519458919 -1.1743609345 -0.8087279006
H   2.3637598488 -0.6920091857  0.1515749130
7
Image 10  Energy = -29.70983607
C   0.8102621589  0.8901947784 -0.0288656187
H   0.8959163379  1.3635026330 -1.0352534221
O   0.3524262584  1.5363857796  0.8952101035
C   1.2908682364 -0.5554791563  0.0963396800
H   0.9604818616 -0.9667215712  1.0526211419
H   0.9076217450 -1.1654049740 -0.7254372132
H   2.3836650139 -0.6121106736  0.0393241605
7
Image 11  Energy = -29.70969716
C   0.7840367852  0.8656586589 -0.0371164025
H   0.9809293880  1.3403901038 -1.0231241499
O   0.1875804579  1.4681235287  0.8223429327
C   1.3100769769 -0.5359012779  0.1153731248
H   1.0639489065 -0.9236344469  1.1059940899
H   0.8779311114 -1.1816924395 -0.6582837811
H   2.3967379442 -0.5425772870 -0.0312469938
