7
Iter 0 Image 0  Energy = -29.6796137011
C   0.8260657415  0.5508603911 -0.1261794589
H   0.4554445983  1.2417513435 -0.8784317668
O   0.5680753083  1.0246514429  1.1187434847
C   1.4411098584 -0.5873603774 -0.4363613732
H   0.9099091373  0.3932317500  1.7666320721
H   1.5916834696 -0.8592929697 -1.4741885892
H   1.8089534565 -1.2734747403  0.3237244514
7
Iter 0 Image 1  Energy = -29.6618448561
C   1.0001975305  0.6793785265 -0.1302608745
H   0.5563133166  1.3034882874 -0.9028175093
O   0.5543622139  1.0156887897  1.1007035702
C   1.3861727904 -0.5914236713 -0.3622705070
H   0.7099736782  0.1663091274  1.6579100720
H   1.2792457445 -1.0101917967 -1.3573034890
H   2.1149762960 -1.0728824230  0.2879775575
7
Iter 0 Image 2  Energy = -29.6380032814
C   1.0493407089  0.7382748925 -0.1301843339
H   0.5944350049  1.3264235731 -0.9260971171
O   0.5429669934  1.0153037003  1.0841859290
C   1.3619470026 -0.5825035149 -0.2944300326
H   0.6739354784  0.0351564468  1.5596823038
H   1.1662337763 -1.0547414627 -1.2528964709
H   2.2123826056 -0.9875467951  0.2536785418
7
Iter 0 Image 3  Energy = -29.6105038589
C   1.0741405414  0.7827226587 -0.1260872923
H   0.6241146895  1.3399723977 -0.9485039012
O   0.5288084814  1.0220912483  1.0685529152
C   1.3447689444 -0.5734011164 -0.2327485906
H   0.6666644804 -0.0759114183  1.4720355154
H   1.0899494293 -1.0814244891 -1.1599975797
H   2.2727950036 -0.9236824408  0.2206877532
7
Iter 0 Image 4  Energy = -29.5866715378
C   1.0840275823  0.8184698356 -0.1183287843
H   0.6515967780  1.3474395933 -0.9702930359
O   0.5108856422  1.0372968767  1.0531209999
C   1.3321870658 -0.5653309585 -0.1771105865
H   0.6750232675 -0.1770081661  1.3952291050
H   1.0333710170 -1.0999548605 -1.0772014962
H   2.3141502172 -0.8705454805  0.1885226179
7
Iter 0 Image 5  Energy = -29.5743779308
C   1.0819136748  0.8475041201 -0.1074288050
H   0.6802272289  1.3504267710 -0.9915918155
O   0.4879387695  1.0623849341  1.0370570414
C   1.3232114295 -0.5585338204 -0.1272727155
H   0.6947441001 -0.2737226681  1.3294690220
H   0.9893628371 -1.1145238697 -1.0028852980
H   2.3438435301 -0.8231686270  0.1565913906
7
Iter 0 Image 6  Energy = -29.5817126548
C   1.0681679691  0.8702301339 -0.0941262487
H   0.7128800832  1.3501666040 -1.0122765507
O   0.4580780106  1.0987041858  1.0191681147
C   1.3172272056 -0.5528875501 -0.0826452947
H   0.7250811723 -0.3700277728  1.2748996787
H   0.9540175389 -1.1273817645 -0.9352093779
H   2.3657895902 -0.7784369963  0.1241284986
7
Iter 0 Image 7  Energy = -29.6112173861
C   1.0411506244  0.8859175469 -0.0794540203
H   0.7529279013  1.3480545336 -1.0316481812
O   0.4185292241  1.1471387076  0.9975834696
C   1.3137136007 -0.5481957384 -0.0420607515
H   0.7677097895 -0.4688646659  1.2315439363
H   0.9249968582 -1.1398089284 -0.8721242333
H   2.3822135718 -0.7338746154  0.0900986004
7
Iter 0 Image 8  Energy = -29.6479373193
C   0.9964002091  0.8924958638 -0.0651701304
H   0.8047643915  1.3461979653 -1.0474504537
O   0.3661090898  1.2079079003  0.9695863789
C   1.3122696605 -0.5444040795 -0.0037427659
H   0.8261884561 -0.5721758250  1.1988362231
H   0.9012961748 -1.1527227410 -0.8115117713
H   2.3942135881 -0.6869322440  0.0533913392
7
Iter 0 Image 9  Energy = -29.6817423916
C   0.9235553859  0.8851007631 -0.0556978044
H   0.8728502092  1.3483198306 -1.0533907893
O   0.3021326179  1.2816999028  0.9330886404
C   1.3125738458 -0.5417036668  0.0340510731
H   0.9032030803 -0.6813246845  1.1736037517
H   0.8851474732 -1.1676663242 -0.7525363581
H   2.4017789576 -0.6340589811  0.0148203066
7
Iter 0 Image 10  Energy = -29.7033978170
C   0.8151547293  0.8599861649 -0.0581793128
H   0.9477600153  1.3547779485 -1.0375963707
O   0.2507661577  1.3740020991  0.8907351887
C   1.3122322335 -0.5394742348  0.0713123692
H   0.9862393494 -0.8002723911  1.1437547493
H   0.8863226417 -1.1848416923 -0.7023401366
H   2.4027664432 -0.5738110543 -0.0137476671
7
Iter 0 Image 11  Energy = -29.7096971637
C   0.7840367852  0.8656586589 -0.0371164025
H   0.9809293880  1.3403901038 -1.0231241499
O   0.1875804579  1.4681235287  0.8223429327
C   1.3100769769 -0.5359012779  0.1153731248
H   1.0639489065 -0.9236344469  1.1059940899
H   0.8779311114 -1.1816924395 -0.6582837811
H   2.3967379442 -0.5425772870 -0.0312469938
7
Iter 1 Image 0  Energy = -29.6796137011
C   0.8260657415  0.5508603911 -0.1261794589
H   0.4554445983  1.2417513435 -0.8784317668
O   0.5680753083  1.0246514429  1.1187434847
C   1.4411098584 -0.5873603774 -0.4363613732
H   0.9099091373  0.3932317500  1.7666320721
H   1.5916834696 -0.8592929697 -1.4741885892
H   1.8089534565 -1.2734747403  0.3237244514
7
Iter 1 Image 1  Energy = -29.6621835893
C   0.9994048847  0.6786974619 -0.1308063896
H   0.5567568267  1.3038219702 -0.9030356821
O   0.5545550691  1.0152905252  1.1019509382
C   1.3867562963 -0.5911891856 -0.3626387500
H   0.7097077927  0.1668687610  1.6575114659
H   1.2789888789 -1.0103850744 -1.3570336804
H   2.1150718216 -1.0727376183  0.2879909180
7
Iter 1 Image 2  Energy = -29.6386984652
C   1.0484180136  0.7373814836 -0.1307300363
H   0.5950487162  1.3269323008 -0.9264325998
O   0.5431012180  1.0144044720  1.0858677557
C   1.3626939652 -0.5821867027 -0.2949833857
H   0.6735686553  0.0361454503  1.5588578599
H   1.1657642062 -1.0550674845 -1.2522734674
H   2.2126467956 -0.9872426794  0.2536326934
7
Iter 1 Image 3  Energy = -29.6114429748
C   1.0731036817  0.7818523874 -0.1266282714
H   0.6248115562  1.3405649090 -0.9489242427
O   0.5288318390  1.0208674658  1.0704217643
C   1.3455941357 -0.5731774707 -0.2332198286
H   0.6663701111 -0.0746117876  1.4708928244
H   1.0894193484 -1.0817995659 -1.1591907223
H   2.2731108978 -0.9233290980  0.2205872964
7
Iter 1 Image 4  Energy = -29.5873968518
C   1.0828154605  0.8175575325 -0.1187736402
H   0.6522872467  1.3480578041 -0.9707039056
O   0.5107822615  1.0366768303  1.0547634117
C   1.3330955698 -0.5652492940 -0.1774457992
H   0.6749276464 -0.1760257141  1.3942205715
H   1.0329490147 -1.1003277059 -1.0765639068
H   2.3143843706 -0.8703226128  0.1884420886
7
Iter 1 Image 5  Energy = -29.5748894504
C   1.0805278330  0.8467109228 -0.1078145557
H   0.6807236371  1.3510625129 -0.9918135688
O   0.4879996826  1.0623847537  1.0382781447
C   1.3240084102 -0.5586131794 -0.1270706245
H   0.6948800039 -0.2730375504  1.3284166654
H   0.9891838857 -1.1148168716 -1.0027744458
H   2.3439181175 -0.8233237476  0.1567172047
7
Iter 1 Image 6  Energy = -29.5822287267
C   1.0666447502  0.8696128421 -0.0943261191
H   0.7130198803  1.3508358157 -1.0122278322
O   0.4585224812  1.0994689754  1.0197248613
C   1.3178039777 -0.5531639688 -0.0819354081
H   0.7254055046 -0.3697853970  1.2738417751
H   0.9541649213 -1.1275065946 -0.9357007691
H   2.3656800548 -0.7790948326  0.1245623120
7
Iter 1 Image 7  Energy = -29.6118514156
C   1.0397871073  0.8854087903 -0.0794905321
H   0.7527170142  1.3487239216 -1.0314190231
O   0.4193487941  1.1481799223  0.9976926969
C   1.3141056172 -0.5485196096 -0.0410278938
H   0.7679567199 -0.4688102324  1.2303989818
H   0.9252682352 -1.1398143538 -0.8729174750
H   2.3820580821 -0.7348015982  0.0907020654
7
Iter 1 Image 8  Energy = -29.6485211766
C   0.9954037981  0.8921064362 -0.0651426542
H   0.8044087145  1.3467710604 -1.0472457772
O   0.3670478144  1.2086357286  0.9695445734
C   1.3124447651 -0.5446097079 -0.0023908462
H   0.8263164865 -0.5720588647  1.1974545151
H   0.9014917164 -1.1527009324 -0.8121811705
H   2.3941282751 -0.6877768801  0.0539001795
7
Iter 1 Image 9  Energy = -29.6820564336
C   0.9230791862  0.8848613381 -0.0556387526
H   0.8725458390  1.3487050691 -1.0533502809
O   0.3027607689  1.2820669585  0.9330750012
C   1.3126331419 -0.5418521808  0.0352353826
H   0.9032516046 -0.6811418476  1.1723840399
H   0.8852166800 -1.1676588263 -0.7528629443
H   2.4017543495 -0.6346136712  0.0150963742
7
Iter 1 Image 10  Energy = -29.7034922308
C   0.8153403883  0.8600207456 -0.0581354985
H   0.9475434001  1.3549468703 -1.0377159303
O   0.2507924835  1.3742073909  0.8908241155
C   1.3121520261 -0.5397723347  0.0720131491
H   0.9863265694 -0.8001462615  1.1430290898
H   0.8863420262 -1.1848509637 -0.7023938705
H   2.4027446764 -0.5740386068 -0.0136822351
7
Iter 1 Image 11  Energy = -29.7096971935
C   0.7840367852  0.8656586589 -0.0371164025
H   0.9809293880  1.3403901038 -1.0231241499
O   0.1875804579  1.4681235287  0.8223429327
C   1.3100769769 -0.5359012779  0.1153731248
H   1.0639489065 -0.9236344469  1.1059940899
H   0.8779311114 -1.1816924395 -0.6582837811
H   2.3967379442 -0.5425772870 -0.0312469938
7
Iter 2 Image 0  Energy = -29.6796137011
C   0.8260657415  0.5508603911 -0.1261794589
H   0.4554445983  1.2417513435 -0.8784317668
O   0.5680753083  1.0246514429  1.1187434847
C   1.4411098584 -0.5873603774 -0.4363613732
H   0.9099091373  0.3932317500  1.7666320721
H   1.5916834696 -0.8592929697 -1.4741885892
H   1.8089534565 -1.2734747403  0.3237244514
7
Iter 2 Image 1  Energy = -29.6653165585
C   0.9861452649  0.6710025246 -0.1315296797
H   0.5621448381  1.3085500356 -0.9058496667
O   0.5582894221  1.0128539091  1.1100049120
C   1.3952230601 -0.5886689561 -0.3686762701
H   0.7072321362  0.1717034936  1.6569956270
H   1.2767169116 -1.0135380661 -1.3558524767
H   2.1154899674 -1.0715361038  0.2888464108
7
Iter 2 Image 2  Energy = -29.6456471300
C   1.0327276290  0.7277008482 -0.1312661062
H   0.6030278240  1.3340206201 -0.9300139906
O   0.5469393681  1.0043048894  1.0988984575
C   1.3731066969 -0.5782421348 -0.3033895590
H   0.6692299820  0.0473723269  1.5525558149
H   1.1601899248 -1.0609539010 -1.2468390709
H   2.2160200995 -0.9838357758  0.2539933295
7
Iter 2 Image 3  Energy = -29.6215095884
C   1.0570848521  0.7730530376 -0.1278009146
H   0.6346569477  1.3495703910 -0.9543023006
O   0.5312066051  1.0029218669  1.0870120556
C   1.3556284491 -0.5693241596 -0.2398680883
H   0.6621307692 -0.0588777907  1.4572771458
H   1.0807524082 -1.0894487417 -1.1479318178
H   2.2797815537 -0.9175278009  0.2195527774
7
Iter 2 Image 4  Energy = -29.5961323893
C   1.0646353770  0.8081740467 -0.1195192595
H   0.6625645111  1.3572750906 -0.9764754443
O   0.5111968643  1.0240279466  1.0713313563
C   1.3421120945 -0.5634408291 -0.1817385877
H   0.6736734714 -0.1621570930  1.3784931462
H   1.0256335518 -1.1075354961 -1.0653475769
H   2.3214256325 -0.8659768690  0.1871951997
7
Iter 2 Image 5  Energy = -29.5809346205
C   1.0608530912  0.8371865515 -0.1076517120
H   0.6875873604  1.3602784077 -0.9954151415
O   0.4903026226  1.0595296650  1.0509756237
C   1.3290839781 -0.5597724789 -0.1272117351
H   0.6971478143 -0.2625619739  1.3121873855
H   0.9872595228 -1.1189821864 -0.9976994172
H   2.3490072044 -0.8253112091  0.1587538168
7
Iter 2 Image 6  Energy = -29.5879094517
C   1.0466447502  0.8602601514 -0.0945682734
H   0.7143254513  1.3601533325 -1.0119383198
O   0.4653452862  1.1092444588  1.0270892179
C   1.3194341496 -0.5571402955 -0.0793582901
H   0.7296103608 -0.3653476916  1.2604528844
H   0.9586252722 -1.1276699358 -0.9396786729
H   2.3672563143 -0.7891332912  0.1319403230
7
Iter 2 Image 7  Energy = -29.6190238512
C   1.0233326018  0.8778923949 -0.0820312599
H   0.7495062900  1.3577216434 -1.0284024697
O   0.4293327984  1.1631153991  1.0035676441
C   1.3133848556 -0.5548686391 -0.0339239670
H   0.7718578513 -0.4674108878  1.2142636002
H   0.9321032718 -1.1373253637 -0.8803306341
H   2.3817239330 -0.7487577707  0.1007958973
7
Iter 2 Image 8  Energy = -29.6553732967
C   0.9837285555  0.8859280748 -0.0680428859
H   0.7993007431  1.3544193132 -1.0438032162
O   0.3776947769  1.2230816266  0.9736550974
C   1.3107792184 -0.5508138621  0.0081338845
H   0.8288855948 -0.5723902913  1.1785247053
H   0.9072934077 -1.1492319716 -0.8173755441
H   2.3935592864 -0.7006260564  0.0628468394
7
Iter 2 Image 9  Energy = -29.6856146520
C   0.9162745084  0.8807080288 -0.0570423729
H   0.8688438332  1.3536687432 -1.0516139270
O   0.3099383770  1.2911746404  0.9350635405
C   1.3122315855 -0.5458204254  0.0441565932
H   0.9044590669 -0.6813434309  1.1569390506
H   0.8881027575 -1.1653005917 -0.7536149274
H   2.4013914539 -0.6427200524  0.0200508579
7
Iter 2 Image 10  Energy = -29.7042979515
C   0.8158735400  0.8605938657 -0.0558480750
H   0.9447202428  1.3570256627 -1.0386312460
O   0.2525056612  1.3774217992  0.8902128657
C   1.3121664965 -0.5423610935  0.0766439479
H   0.9869442277 -0.8002535240  1.1354562788
H   0.8871204160 -1.1843795855 -0.7017165210
H   2.4019109910 -0.5776802860 -0.0121784478
7
Iter 2 Image 11  Energy = -29.7096971637
C   0.7840367852  0.8656586589 -0.0371164025
H   0.9809293880  1.3403901038 -1.0231241499
O   0.1875804579  1.4681235287  0.8223429327
C   1.3100769769 -0.5359012779  0.1153731248
H   1.0639489065 -0.9236344469  1.1059940899
H   0.8779311114 -1.1816924395 -0.6582837811
H   2.3967379442 -0.5425772870 -0.0312469938
7
Iter 3 Image 0  Energy = -29.6796137011
C   0.8260657415  0.5508603911 -0.1261794589
H   0.4554445983  1.2417513435 -0.8784317668
O   0.5680753083  1.0246514429  1.1187434847
C   1.4411098584 -0.5873603774 -0.4363613732
H   0.9099091373  0.3932317500  1.7666320721
H   1.5916834696 -0.8592929697 -1.4741885892
H   1.8089534565 -1.2734747403  0.3237244514
7
Iter 3 Image 1  Energy = -29.6679641670
C   0.9722713194  0.6626297745 -0.1342453124
H   0.5673829276  1.3126305486 -0.9070577272
O   0.5618615210  1.0121938369  1.1163847435
C   1.4030887778 -0.5849004602 -0.3743912220
H   0.7054974416  0.1764109021  1.6607738825
H   1.2760795273 -1.0172881165 -1.3578687173
H   2.1150601058 -1.0713096514  0.2903432244
7
Iter 3 Image 2  Energy = -29.6510806149
C   1.0165379981  0.7174048601 -0.1345797362
H   0.6107896823  1.3409380615 -0.9309400375
O   0.5499978580  0.9984189712  1.1086975286
C   1.3829905460 -0.5735219016 -0.3129199597
H   0.6656882139  0.0569486410  1.5536198734
H   1.1564606168 -1.0683054711 -1.2454336892
H   2.2187765939 -0.9815162836  0.2554949321
7
Iter 3 Image 3  Energy = -29.6278969413
C   1.0405466846  0.7644750567 -0.1303515706
H   0.6451166155  1.3593408633 -0.9570317499
O   0.5323554518  0.9937181427  1.0965810980
C   1.3655254785 -0.5650873228 -0.2489625486
H   0.6577416092 -0.0509493695  1.4532343220
H   1.0718916788 -1.0998480159 -1.1381676463
H   2.2880640334 -0.9112825702  0.2186369695
7
Iter 3 Image 4  Energy = -29.6033283240
C   1.0471108127  0.8024803494 -0.1229242707
H   0.6746697838  1.3672575556 -0.9807653585
O   0.5109349242  1.0085311090  1.0854566213
C   1.3483017715 -0.5611693995 -0.1827905692
H   0.6724853205 -0.1503720475  1.3606804809
H   1.0158300408 -1.1176729712 -1.0499453435
H   2.3319088479 -0.8586878338  0.1842272735
7
Iter 3 Image 5  Energy = -29.5862601018
C   1.0416799595  0.8303157561 -0.1115473493
H   0.6960570504  1.3694365390 -0.9971328230
O   0.4914095732  1.0555437983  1.0643746329
C   1.3338515936 -0.5605326849 -0.1263321619
H   0.6995360758 -0.2535969930  1.2952706027
H   0.9840566598 -1.1255528416 -0.9902417887
H   2.3546506984 -0.8252468557  0.1595477209
7
Iter 3 Image 6  Energy = -29.5924789077
C   1.0266447502  0.8525036607 -0.0953715832
H   0.7162859635  1.3691333436 -1.0106609303
O   0.4728730497  1.1142847786  1.0366551092
C   1.3221923160 -0.5603920402 -0.0780306788
H   0.7331257117 -0.3569376973  1.2459804427
H   0.9628933957 -1.1300812466 -0.9442491128
H   2.3672264001 -0.7981441270  0.1396156322
7
Iter 3 Image 7  Energy = -29.6246913141
C   1.0048755821  0.8699462990 -0.0776211602
H   0.7460024556  1.3670977862 -1.0261693832
O   0.4434419045  1.1735824365  1.0064088644
C   1.3124947447 -0.5564266513 -0.0302805430
H   0.7749048960 -0.4637788043  1.1982255925
H   0.9398480831 -1.1366913574 -0.8891503604
H   2.3796739493 -0.7633630252  0.1125258296
7
Iter 3 Image 8  Energy = -29.6618329203
C   0.9684978227  0.8807906945 -0.0635006232
H   0.7939711046  1.3625922269 -1.0414572827
O   0.3925014232  1.2377542353  0.9740069261
C   1.3088697035 -0.5532394169  0.0141150896
H   0.8316998756 -0.5755073746  1.1598223933
H   0.9143478400 -1.1468467769 -0.8233972360
H   2.3913538361 -0.7151768019  0.0743496052
7
Iter 3 Image 9  Energy = -29.6891469723
C   0.9056955238  0.8772570726 -0.0549814244
H   0.8656318461  1.3589316656 -1.0494850224
O   0.3190880289  1.3036170795  0.9347116607
C   1.3117540864 -0.5482876513  0.0491371945
H   0.9067529673 -0.6858986448  1.1415031016
H   0.8917770104 -1.1633760243 -0.7537214728
H   2.4005421275 -0.6518765570  0.0267747932
7
Iter 3 Image 10  Energy = -29.7049352294
C   0.8167294380  0.8597194929 -0.0580360410
H   0.9418718000  1.3586778146 -1.0377810376
O   0.2532012912  1.3842405222  0.8923764529
C   1.3121793500 -0.5436025095  0.0788457491
H   0.9875124077 -0.8029568784  1.1290025034
H   0.8881672689 -1.1837312551 -0.7004098817
H   2.4015800231 -0.5819803388 -0.0100589531
7
Iter 3 Image 11  Energy = -29.7096971637
C   0.7840367852  0.8656586589 -0.0371164025
H   0.9809293880  1.3403901038 -1.0231241499
O   0.1875804579  1.4681235287  0.8223429327
C   1.3100769769 -0.5359012779  0.1153731248
H   1.0639489065 -0.9236344469  1.1059940899
H   0.8779311114 -1.1816924395 -0.6582837811
H   2.3967379442 -0.5425772870 -0.0312469938
7
Iter 4 Image 0  Energy = -29.6796137011
C   0.8260657415  0.5508603911 -0.1261794589
H   0.4554445983  1.2417513435 -0.8784317668
O   0.5680753083  1.0246514429  1.1187434847
C   1.4411098584 -0.5873603774 -0.4363613732
H   0.9099091373  0.3932317500  1.7666320721
H   1.5916834696 -0.8592929697 -1.4741885892
H   1.8089534565 -1.2734747403  0.3237244514
7
Iter 4 Image 1  Energy = -29.6704503214
C   0.9570772324  0.6546306233 -0.1366008318
H   0.5725601688  1.3171051041 -0.9083698435
O   0.5658936846  1.0110116212  1.1232280454
C   1.4117290699 -0.5831839688 -0.3825287841
H   0.7037125523  0.1827275649  1.6661814247
H   1.2764793487 -1.0209386116 -1.3599474017
H   2.1137895756 -1.0709855049  0.2919762808
7
Iter 4 Image 2  Energy = -29.6558401948
C   0.9990375404  0.7070721550 -0.1373579061
H   0.6187618924  1.3491820363 -0.9319709169
O   0.5530175741  0.9938893623  1.1177924993
C   1.3939485220 -0.5709802897 -0.3249464712
H   0.6620680616  0.0662872788  1.5576590585
H   1.1533137024 -1.0767071206 -1.2441287499
H   2.2210942026 -0.9783765506  0.2568914248
7
Iter 4 Image 3  Energy = -29.6347038513
C   1.0227237533  0.7547509468 -0.1353491582
H   0.6561149370  1.3705399693 -0.9591981982
O   0.5333438871  0.9821505560  1.1087585188
C   1.3766949106 -0.5619635413 -0.2592172896
H   0.6528534043 -0.0383273913  1.4510968485
H   1.0638201482 -1.1120317130 -1.1297295798
H   2.2956904839 -0.9047520596  0.2175777370
7
Iter 4 Image 4  Energy = -29.6087403959
C   1.0291191689  0.7956401086 -0.1250568121
H   0.6871134888  1.3794317934 -0.9850140100
O   0.5105196138  0.9953767485  1.0968610212
C   1.3556069035 -0.5588559385 -0.1824049899
H   0.6719868622 -0.1415745612  1.3415993897
H   1.0050750161 -1.1297869169 -1.0322371020
H   2.3418204808 -0.8498645155  0.1801913440
7
Iter 4 Image 5  Energy = -29.5908519989
C   1.0221547121  0.8223270476 -0.1130227289
H   0.7046409488  1.3808280876 -0.9996370271
O   0.4927832151  1.0512594483  1.0762247826
C   1.3385836680 -0.5604207431 -0.1259123334
H   0.7022322903 -0.2451008094  1.2772240493
H   0.9802083127 -1.1342567903 -0.9810634160
H   2.3606384831 -0.8242695747  0.1601255174
7
Iter 4 Image 6  Energy = -29.5961247152
C   1.0071376833  0.8441047123 -0.0977514220
H   0.7193774192  1.3792822095 -1.0090559117
O   0.4795659684  1.1142046313  1.0494485566
C   1.3241232042 -0.5627605843 -0.0783927942
H   0.7364018493 -0.3443299706  1.2287674794
H   0.9661794986 -1.1345147286 -0.9462115508
H   2.3684559764 -0.8056196352  0.1471345174
7
Iter 4 Image 7  Energy = -29.6289777523
C   0.9885791172  0.8648265737 -0.0881494214
H   0.7439107556  1.3756570820 -1.0203275054
O   0.4532532347  1.1851696528  1.0222658931
C   1.3134928420 -0.5631298495 -0.0275170197
H   0.7778714560 -0.4582608028  1.1806039938
H   0.9480187083 -1.1365382454 -0.8980163962
H   2.3761155023 -0.7773577890  0.1250793329
7
Iter 4 Image 8  Energy = -29.6676723427
C   0.9552602292  0.8755767567 -0.0702164434
H   0.7891060875  1.3704878577 -1.0363698028
O   0.4048145638  1.2562797545  0.9835347284
C   1.3075203929 -0.5562728576  0.0201426740
H   0.8347247035 -0.5804455025  1.1398223933
H   0.9222099918 -1.1449630344 -0.8304645362
H   2.3876056529 -0.7302962596  0.0874898626
7
Iter 4 Image 9  Energy = -29.6926306701
C   0.8953411135  0.8733687785 -0.0572597742
H   0.8626890056  1.3643941005 -1.0463649319
O   0.3270586337  1.3208114580  0.9379793567
C   1.3114581042 -0.5500565648  0.0545861656
H   0.9099377162 -0.6942232381  1.1249331394
H   0.8956368722 -1.1623778200 -0.7545611132
H   2.3991201540 -0.6615497792  0.0346259979
7
Iter 4 Image 10  Energy = -29.7055582172
C   0.8125549202  0.8623594526 -0.0519906928
H   0.9389211307  1.3612091248 -1.0380566244
O   0.2585774493  1.3890376679  0.8878089124
C   1.3120437351 -0.5443601978  0.0816261684
H   0.9883212597 -0.8070796878  1.1214821927
H   0.8892926553 -1.1836623600 -0.6995359407
H   2.4015304340 -0.5871371368 -0.0073952318
7
Iter 4 Image 11  Energy = -29.7096971935
C   0.7840367852  0.8656586589 -0.0371164025
H   0.9809293880  1.3403901038 -1.0231241499
O   0.1875804579  1.4681235287  0.8223429327
C   1.3100769769 -0.5359012779  0.1153731248
H   1.0639489065 -0.9236344469  1.1059940899
H   0.8779311114 -1.1816924395 -0.6582837811
H   2.3967379442 -0.5425772870 -0.0312469938
7
Iter 5 Image 0  Energy = -29.6796136862
C   0.8260657415  0.5508603911 -0.1261794589
H   0.4554445983  1.2417513435 -0.8784317668
O   0.5680753083  1.0246514429  1.1187434847
C   1.4411098584 -0.5873603774 -0.4363613732
H   0.9099091373  0.3932317500  1.7666320721
H   1.5916834696 -0.8592929697 -1.4741885892
H   1.8089534565 -1.2734747403  0.3237244514
7
Iter 5 Image 1  Energy = -29.6724354243
C   0.9425702487  0.6455156134 -0.1381910580
H   0.5772031219  1.3218946191 -0.9097227305
O   0.5700070534  1.0104771745  1.1285453416
C   1.4197481014 -0.5806204115 -0.3903477864
H   0.7021052312  0.1887284663  1.6732403963
H   1.2775279131 -1.0249789603 -1.3630849203
H   2.1120799724 -1.0706496776  0.2934996671
7
Iter 5 Image 2  Energy = -29.6597712553
C   0.9817741397  0.6960978240 -0.1398527795
H   0.6264281411  1.3578834765 -0.9327614065
O   0.5561167780  0.9898493868  1.1259674796
C   1.4046063593 -0.5681370640 -0.3366029199
H   0.6585350935  0.0757795940  1.5632844755
H   1.1507874962 -1.0860896189 -1.2442368051
H   2.2229934715 -0.9750167327  0.2581409176
7
Iter 5 Image 3  Energy = -29.6401817119
C   1.0053116432  0.7446234641 -0.1387959301
H   0.6665831411  1.3825431250 -0.9611799281
O   0.5347085692  0.9711419250  1.1185726045
C   1.3871389782 -0.5589765736 -0.2703808537
H   0.6479910740 -0.0257659170  1.4507431201
H   1.0565236250 -1.1251643435 -1.1215620786
H   2.3029844854 -0.8980349421  0.2165419458
7
Iter 5 Image 4  Energy = -29.6120466805
C   1.0111370682  0.7888775643 -0.1265114115
H   0.6986166021  1.3920467775 -0.9879671954
O   0.5103197963  0.9883654662  1.1046638701
C   1.3618000387 -0.5570553597 -0.1837913885
H   0.6723212845 -0.1372855721  1.3257920141
H   0.9959133053 -1.1422209270 -1.0156221303
H   2.3511334716 -0.8423612744  0.1773750916
7
Iter 5 Image 5  Energy = -29.5943275458
C   1.0031290517  0.8159291997 -0.1152292752
H   0.7129471744  1.3924871224 -1.0009733837
O   0.4941259774  1.0484330117  1.0868238480
C   1.3428981519 -0.5612982339 -0.1274491348
H   0.7047901829 -0.2381860858  1.2611455793
H   0.9768166225 -1.1436977362 -0.9715526521
H   2.3665344896 -0.8233006590  0.1611738702
7
Iter 5 Image 6  Energy = -29.5987944669
C   0.9888585175  0.8360928102 -0.0991368745
H   0.7231396700  1.3904227868 -1.0077874359
O   0.4855449078  1.1098536314  1.0614763061
C   1.3259807068 -0.5641441447 -0.0801118990
H   0.7390724928 -0.3301954625  1.2112084611
H   0.9679692539 -1.1408130401 -0.9451962421
H   2.3706760748 -0.8108499823  0.1534865586
7
Iter 5 Image 7  Energy = -29.6320719338
C   0.9699669076  0.8572108412 -0.0809204776
H   0.7414628683  1.3870100699 -1.0184284046
O   0.4677683248  1.1880665361  1.0268092598
C   1.3112569806 -0.5640740239 -0.0280723664
H   0.7801074377 -0.4491667820  1.1622844869
H   0.9551468998 -1.1387872166 -0.9047454977
H   2.3755321987 -0.7898928368  0.1370118924
7
Iter 5 Image 8  Energy = -29.6725453502
C   0.9392496262  0.8729440318 -0.0691122575
H   0.7843169831  1.3792744453 -1.0325806471
O   0.4205470003  1.2709008907  0.9882427575
C   1.3052500448 -0.5601408191  0.0231039799
H   0.8372043171 -0.5843034172  1.1198223933
H   0.9305884181 -1.1434652784 -0.8366282573
H   2.3840852413 -0.7448432132  0.1010909249
7
Iter 5 Image 9  Energy = -29.6955575711
C   0.8833544847  0.8716264696 -0.0565114245
H   0.8600443230  1.3699543603 -1.0437047607
O   0.3365963943  1.3378919548  0.9389534556
C   1.3107759006 -0.5518506138  0.0576479385
H   0.9128664557 -0.7047866109  1.1097297836
H   0.8998931650 -1.1616003679 -0.7550020759
H   2.3977108883 -0.6708682703  0.0428259309
7
Iter 5 Image 10  Energy = -29.7062991923
C   0.8128193676  0.8613894741 -0.0553450872
H   0.9358892029  1.3633680575 -1.0370885906
O   0.2593418346  1.3997105648  0.8910928375
C   1.3121266401 -0.5455730526  0.0840477194
H   0.9893911295 -0.8130258271  1.1142011980
H   0.8905209220 -1.1834391361 -0.6984474628
H   2.4011524912 -0.5920632088 -0.0045218360
7
Iter 5 Image 11  Energy = -29.7096971637
C   0.7840367852  0.8656586589 -0.0371164025
H   0.9809293880  1.3403901038 -1.0231241499
O   0.1875804579  1.4681235287  0.8223429327
C   1.3100769769 -0.5359012779  0.1153731248
H   1.0639489065 -0.9236344469  1.1059940899
H   0.8779311114 -1.1816924395 -0.6582837811
H   2.3967379442 -0.5425772870 -0.0312469938
7
Iter 6 Image 0  Energy = -29.6796137011
C   0.8260657415  0.5508603911 -0.1261794589
H   0.4554445983  1.2417513435 -0.8784317668
O   0.5680753083  1.0246514429  1.1187434847
C   1.4411098584 -0.5873603774 -0.4363613732
H   0.9099091373  0.3932317500  1.7666320721
H   1.5916834696 -0.8592929697 -1.4741885892
H   1.8089534565 -1.2734747403  0.3237244514
7
Iter 6 Image 1  Energy = -29.6740219957
C   0.9284458579  0.6370429930 -0.1411707495
H   0.5817724391  1.3259598541 -0.9100970957
O   0.5741287491  1.0100303492  1.1334719149
C   1.4272123144 -0.5779734133 -0.3973121292
H   0.7005380010  0.1947767628  1.6814996712
H   1.2792212835 -1.0292573002 -1.3671642822
H   2.1099230025 -1.0702124271  0.2947115958
7
Iter 6 Image 2  Energy = -29.6628696686
C   0.9649869507  0.6854214561 -0.1437115690
H   0.6340706474  1.3661327286 -0.9323538155
O   0.5590184679  0.9867806938  1.1336636726
C   1.4142572382 -0.5652390937 -0.3479281069
H   0.6551495130  0.0848690793  1.5701868282
H   1.1490185424 -1.0961404273 -1.2452107370
H   2.2247401101 -0.9714575783  0.2592927044
7
Iter 6 Image 3  Energy = -29.6439482337
C   0.9884441808  0.7355279913 -0.1426414034
H   0.6770387152  1.3943470102 -0.9616015250
O   0.5355086757  0.9656635656  1.1251150374
C   1.3967640578 -0.5565768673 -0.2822736515
H   0.6436569254 -0.0184671259  1.4528165972
H   1.0496030045 -1.1393255954 -1.1128912415
H   2.3102259588 -0.8908022762  0.2154150712
7
Iter 6 Image 4  Energy = -29.6143832123
C   0.9933011187  0.7842271452 -0.1317769402
H   0.7094120286  1.4040605335 -0.9885798932
O   0.5097695476  0.9856603257  1.1132902465
C   1.3670576617 -0.5570720532 -0.1865888041
H   0.6734768058 -0.1347245599  1.3129033202
H   0.9889718559 -1.1549716905 -1.0015888873
H   2.3592525804 -0.8368130820  0.1762798130
7
Iter 6 Image 5  Energy = -29.5969596273
C   0.9851145761  0.8107253750 -0.1199747657
H   0.7206932703  1.4041685262 -1.0004174278
O   0.4955495802  1.0471363535  1.0968719375
C   1.3475109487 -0.5618744803 -0.1298929792
H   0.7071292061 -0.2326786840  1.2479830195
H   0.9740049030 -1.1543833968 -0.9636921023
H   2.3712391810 -0.8227271192  0.1630611771
7
Iter 6 Image 6  Energy = -29.6008050656
C   0.9714406174  0.8299809741 -0.1023935866
H   0.7277818211  1.4020106131 -1.0052791911
O   0.4900231960  1.1046359693  1.0729299244
C   1.3300807147 -0.5658687041 -0.0826108292
H   0.7414019491 -0.3171247336  1.1950889268
H   0.9680496160 -1.1495218018 -0.9424960566
H   2.3724637271 -0.8137457429  0.1586996833
7
Iter 6 Image 7  Energy = -29.6335282838
C   0.9545635183  0.8511333979 -0.0881789066
H   0.7416578975  1.3974555068 -1.0125151259
O   0.4762081220  1.1895527781  1.0413632714
C   1.3131677583 -0.5668052221 -0.0288107935
H   0.7821910485 -0.4391435852  1.1431960804
H   0.9594864970 -1.1433971786 -0.9080673571
H   2.3739667893 -0.7984291392  0.1469517254
7
Iter 6 Image 8  Energy = -29.6762298858
C   0.9233540173  0.8690013009 -0.0626300729
H   0.7797227567  1.3894720263 -1.0301101706
O   0.4373963651  1.2820336386  0.9906582855
C   1.3028075262 -0.5612185088  0.0238215349
H   0.8386055942 -0.5871841199  1.0998223933
H   0.9378666757 -1.1439588863 -0.8419752042
H   2.3814887004 -0.7577788472  0.1143521478
7
Iter 6 Image 9  Energy = -29.6979091084
C   0.8716076571  0.8711168628 -0.0547391654
H   0.8574442651  1.3755739047 -1.0413751456
O   0.3468210868  1.3549823281  0.9393294811
C   1.3099772317 -0.5532360573  0.0588062731
H   0.9147791069 -0.7173417966  1.0964049123
H   0.9041148692 -1.1613672057 -0.7555179950
H   2.3964974024 -0.6793611378  0.0510304952
7
Iter 6 Image 10  Energy = -29.7067885166
C   0.8091180566  0.8644121245 -0.0506904642
H   0.9327607743  1.3657910284 -1.0370074263
O   0.2645477033  1.4072294763  0.8876532033
C   1.3118894332 -0.5461306795  0.0850245116
H   0.9900251563 -0.8202560214  1.1078723662
H   0.8919412661 -1.1834480568 -0.6975949885
H   2.4009592039 -0.5972309893 -0.0013184279
7
Iter 6 Image 11  Energy = -29.7096971637
C   0.7840367852  0.8656586589 -0.0371164025
H   0.9809293880  1.3403901038 -1.0231241499
O   0.1875804579  1.4681235287  0.8223429327
C   1.3100769769 -0.5359012779  0.1153731248
H   1.0639489065 -0.9236344469  1.1059940899
H   0.8779311114 -1.1816924395 -0.6582837811
H   2.3967379442 -0.5425772870 -0.0312469938
7
Iter 7 Image 0  Energy = -29.6796137011
C   0.8260657415  0.5508603911 -0.1261794589
H   0.4554445983  1.2417513435 -0.8784317668
O   0.5680753083  1.0246514429  1.1187434847
C   1.4411098584 -0.5873603774 -0.4363613732
H   0.9099091373  0.3932317500  1.7666320721
H   1.5916834696 -0.8592929697 -1.4741885892
H   1.8089534565 -1.2734747403  0.3237244514
7
Iter 7 Image 1  Energy = -29.6752615786
C   0.9145658878  0.6293768284 -0.1439302897
H   0.5860713917  1.3297708221 -0.9102742882
O   0.5783749134  1.0093115033  1.1381615643
C   1.4341966416 -0.5764862577 -0.4053207054
H   0.6989301563  0.2012839211  1.6904205648
H   1.2816700195 -1.0332737084 -1.3709504267
H   2.1074326378 -1.0696162934  0.2958325219
7
Iter 7 Image 2  Energy = -29.6651559389
C   0.9484340598  0.6757610203 -0.1472102230
H   0.6416835398  1.3743415428 -0.9314445265
O   0.5617932760  0.9853354740  1.1398667851
C   1.4233376670 -0.5637672576 -0.3599904914
H   0.6518665601  0.0923882632  1.5782685841
H   1.1477710668 -1.1065788421 -1.2456469289
H   2.2263552928 -0.9671133505  0.2600957884
7
Iter 7 Image 3  Energy = -29.6469516522
C   0.9719017230  0.7273350538 -0.1482843887
H   0.6876654373  1.4061313176 -0.9609551814
O   0.5358747430  0.9612309886  1.1321530155
C   1.4062489437 -0.5548268418 -0.2934490193
H   0.6396721187 -0.0116720260  1.4547426109
H   1.0428538698 -1.1547977099 -1.1043376392
H   2.3170246964 -0.8830341080  0.2140694839
7
Iter 7 Image 4  Energy = -29.6161365575
C   0.9763000004  0.7779077966 -0.1348942570
H   0.7190128117  1.4173780225 -0.9893794830
O   0.5101976508  0.9833716528  1.1201265362
C   1.3719264312 -0.5554980568 -0.1888863726
H   0.6751783124 -0.1317908650  1.3003975572
H   0.9829927940 -1.1690631788 -0.9893063601
H   2.3656336300 -0.8319388060  0.1758812385
7
Iter 7 Image 5  Energy = -29.5990402764
C   0.9681329353  0.8041188524 -0.1227942486
H   0.7275277921  1.4172980151 -0.9999660510
O   0.4977890431  1.0452519047  1.1050248595
C   1.3513344638 -0.5610386109 -0.1327257238
H   0.7098038463 -0.2268177866  1.2352237707
H   0.9716568998 -1.1663188635 -0.9565538397
H   2.3749967000 -0.8221269675  0.1657300995
7
Iter 7 Image 6  Energy = -29.6023748434
C   0.9550416488  0.8227165073 -0.1050430534
H   0.7324723465  1.4146792645 -1.0022181945
O   0.4937990117  1.1000123938  1.0830090136
C   1.3333561200 -0.5662279727 -0.0866494060
H   0.7439989939 -0.3049421170  1.1799260176
H   0.9676467689 -1.1601148457 -0.9390606546
H   2.3749267651 -0.8157566881  0.1639751513
7
Iter 7 Image 7  Energy = -29.6344238734
C   0.9378027090  0.8468152211 -0.0853178641
H   0.7423099587  1.4103762698 -1.0084418380
O   0.4859047735  1.1856425107  1.0477995401
C   1.3149404952 -0.5685110737 -0.0314654643
H   0.7843716991 -0.4283694799  1.1245715043
H   0.9620994547 -1.1509975481 -0.9090388971
H   2.3738125553 -0.8045893632  0.1558319105
7
Iter 7 Image 8  Energy = -29.6787439650
C   0.9119980801  0.8653682871 -0.0735633744
H   0.7765232619  1.3983548142 -1.0230547675
O   0.4485872376  1.2957494951  1.0054747854
C   1.3033602422 -0.5642095587  0.0244939657
H   0.8392350272 -0.5910166219  1.0798223933
H   0.9437383713 -1.1456451130 -0.8460168878
H   2.3777994239 -0.7682347339  0.1267828028
7
Iter 7 Image 9  Energy = -29.6998416102
C   0.8618958715  0.8702165922 -0.0555954087
H   0.8545255422  1.3812725739 -1.0387577039
O   0.3565709502  1.3733768409  0.9420888349
C   1.3092443108 -0.5538019876  0.0602008514
H   0.9157113216 -0.7315099073  1.0836220997
H   0.9079515213 -1.1620281175 -0.7569365302
H   2.3953421087 -0.6871591242  0.0593167204
7
Iter 7 Image 10  Energy = -29.7073597974
C   0.8089429361  0.8649746354 -0.0525857469
H   0.9293515897  1.3679699282 -1.0361993285
O   0.2668714365  1.4189141334  0.8897325254
C   1.3114627037 -0.5468260646  0.0867932607
H   0.9906539568 -0.8289210151  1.1014398586
H   0.8932478432 -1.1835984912 -0.6972308366
H   2.4007111324 -0.6021462370  0.0019890405
7
Iter 7 Image 11  Energy = -29.7096971637
C   0.7840367852  0.8656586589 -0.0371164025
H   0.9809293880  1.3403901038 -1.0231241499
O   0.1875804579  1.4681235287  0.8223429327
C   1.3100769769 -0.5359012779  0.1153731248
H   1.0639489065 -0.9236344469  1.1059940899
H   0.8779311114 -1.1816924395 -0.6582837811
H   2.3967379442 -0.5425772870 -0.0312469938
7
Iter 8 Image 0  Energy = -29.6796136862
C   0.8260657415  0.5508603911 -0.1261794589
H   0.4554445983  1.2417513435 -0.8784317668
O   0.5680753083  1.0246514429  1.1187434847
C   1.4411098584 -0.5873603774 -0.4363613732
H   0.9099091373  0.3932317500  1.7666320721
H   1.5916834696 -0.8592929697 -1.4741885892
H   1.8089534565 -1.2734747403  0.3237244514
7
Iter 8 Image 1  Energy = -29.6762068933
C   0.9007503393  0.6207838880 -0.1460283534
H   0.5901319168  1.3338627356 -0.9104698369
O   0.5829664406  1.0089176374  1.1418102877
C   1.4407217099 -0.5745234264 -0.4135645242
H   0.6972930329  0.2078777977  1.7008333792
H   1.2848976001 -1.0376975951 -1.3754333684
H   2.1044806092 -1.0688542291  0.2967913703
7
Iter 8 Image 2  Energy = -29.6669004923
C   0.9315850383  0.6658212846 -0.1504563524
H   0.6495933798  1.3830634218 -0.9301261848
O   0.5648456989  0.9843008773  1.1448961536
C   1.4321909702 -0.5620815489 -0.3721670741
H   0.6483516153  0.0996053961  1.5876832729
H   1.1467257380 -1.1185646731 -1.2463757580
H   2.2279490159 -0.9617779211  0.2604849381
7
Iter 8 Image 3  Energy = -29.6493668771
C   0.9550865575  0.7185382434 -0.1530683764
H   0.6985829134  1.4193057006 -0.9601773200
O   0.5365368939  0.9563898160  1.1382979887
C   1.4152008007 -0.5528192192 -0.3052131361
H   0.6357475032 -0.0042333428  1.4564400881
H   1.0360786745 -1.1724184198 -1.0950417773
H   2.3240082058 -0.8743961343  0.2127014167
7
Iter 8 Image 4  Energy = -29.6174674249
C   0.9585658995  0.7724131768 -0.1376989478
H   0.7284832508  1.4319115519 -0.9891713740
O   0.5115428698  0.9806787228  1.1256952243
C   1.3761128515 -0.5549817277 -0.1924482134
H   0.6774384235 -0.1282826045  1.2876182482
H   0.9778944615 -1.1843337564 -0.9763866248
H   2.3712039042 -0.8270388422  0.1763305586
7
Iter 8 Image 5  Energy = -29.6008796012
C   0.9506527706  0.7978868517 -0.1258137744
H   0.7343576741  1.4317907803 -0.9985026202
O   0.5005702963  1.0421295166  1.1130868647
C   1.3542219489 -0.5611901161 -0.1365477862
H   0.7134097987 -0.2195534858  1.2209163441
H   0.9698638311 -1.1795417711 -0.9486520156
H   2.3781653758 -0.8211552615  0.1694518668
7
Iter 8 Image 6  Energy = -29.6037910795
C   0.9382042128  0.8145859948 -0.1067895712
H   0.7373856974  1.4289254758 -0.9984544688
O   0.4976553587  1.0948490536  1.0925239243
C   1.3359124368 -0.5666257108 -0.0917403772
H   0.7475292141 -0.2917402872  1.1631712331
H   0.9672483373 -1.1726031296 -0.9346495366
H   2.3773064128 -0.8170248865  0.1698776783
7
Iter 8 Image 7  Energy = -29.6348430729
C   0.9223171446  0.8419942850 -0.0871980978
H   0.7438185789  1.4247900091 -1.0030492350
O   0.4929030165  1.1825866370  1.0578735886
C   1.3158818150 -0.5703214442 -0.0354182640
H   0.7876206046 -0.4182696402  1.1053928703
H   0.9638642993 -1.1610818744 -0.9084328798
H   2.3748362028 -0.8093314562  0.1647709057
7
Iter 8 Image 8  Energy = -29.6811620957
C   0.8956775331  0.8654536805 -0.0663083617
H   0.7730369666  1.4102850233 -1.0183525968
O   0.4658825048  1.3022880298  1.0068532716
C   1.3032525069 -0.5660344078  0.0210781196
H   0.8385806830 -0.5943626751  1.0598223933
H   0.9492442574 -1.1493853051 -0.8486233776
H   2.3755672038 -0.7778778109  0.1394694711
7
Iter 8 Image 9  Energy = -29.7014743751
C   0.8517721807  0.8709960280 -0.0551580461
H   0.8509957466  1.3874109719 -1.0359221730
O   0.3685480798  1.3920230774  0.9440323092
C   1.3083991796 -0.5544085194  0.0603534590
H   0.9153709677 -0.7477814037  1.0709184501
H   0.9121100143 -1.1630109942 -0.7586668348
H   2.3940454642 -0.6948623233  0.0683817077
7
Iter 8 Image 10  Energy = -29.7078348762
C   0.8071486010  0.8673737258 -0.0510114378
H   0.9256323916  1.3704359236 -1.0358407101
O   0.2714953248  1.4303537117  0.8890471355
C   1.3109498187 -0.5472703732  0.0881622808
H   0.9909659372 -0.8393445918  1.0950256795
H   0.8947038657 -1.1838791357 -0.6971365842
H   2.4003456642 -0.6073023661  0.0056924117
7
Iter 8 Image 11  Energy = -29.7096971637
C   0.7840367852  0.8656586589 -0.0371164025
H   0.9809293880  1.3403901038 -1.0231241499
O   0.1875804579  1.4681235287  0.8223429327
C   1.3100769769 -0.5359012779  0.1153731248
H   1.0639489065 -0.9236344469  1.1059940899
H   0.8779311114 -1.1816924395 -0.6582837811
H   2.3967379442 -0.5425772870 -0.0312469938
7
Iter 9 Image 0  Energy = -29.6796136862
C   0.8260657415  0.5508603911 -0.1261794589
H   0.4554445983  1.2417513435 -0.8784317668
O   0.5680753083  1.0246514429  1.1187434847
C   1.4411098584 -0.5873603774 -0.4363613732
H   0.9099091373  0.3932317500  1.7666320721
H   1.5916834696 -0.8592929697 -1.4741885892
H   1.8089534565 -1.2734747403  0.3237244514
7
Iter 9 Image 1  Energy = -29.6768287188
C   0.8885544021  0.6130992226 -0.1490280619
H   0.5936177253  1.3368963694 -0.9096373328
O   0.5875717844  1.0083521956  1.1446067534
C   1.4459063127 -0.5723769564 -0.4198724547
H   0.6956169036  0.2144768960  1.7118120335
H   1.2889988526 -1.0423377352 -1.3808930892
H   2.1009756680 -1.0677431877  0.2969511179
7
Iter 9 Image 2  Energy = -29.6680624998
C   0.9167984025  0.6571060043 -0.1550310452
H   0.6572751211  1.3909079763 -0.9276104708
O   0.5680134757  0.9820276080  1.1488572688
C   1.4389608949 -0.5597172372 -0.3827556852
H   0.6444034335  0.1072456799  1.5976887689
H   1.1461110555 -1.1318874662 -1.2472341460
H   2.2296790757 -0.9553157514  0.2600243086
7
Iter 9 Image 3  Energy = -29.6510014600
C   0.9395907804  0.7117952911 -0.1571845555
H   0.7088775949  1.4324605802 -0.9578186327
O   0.5374206597  0.9542369866  1.1407342451
C   1.4222501091 -0.5524399374 -0.3181531557
H   0.6324507357  0.0006118090  1.4594055074
H   1.0305889562 -1.1912001703 -1.0845238112
H   2.3300627397 -0.8650979573  0.2114792955
7
Iter 9 Image 4  Energy = -29.6186153507
C   0.9424464585  0.7695303156 -0.1446873936
H   0.7369183536  1.4460200015 -0.9853248514
O   0.5131484988  0.9776521914  1.1318340680
C   1.3782157599 -0.5567460625 -0.1982900091
H   0.6807634899 -0.1234030373  1.2757684347
H   0.9750309526 -1.2000176360 -0.9642432586
H   2.3747181828 -0.8226692795  0.1788818844
7
Iter 9 Image 5  Energy = -29.6027015811
C   0.9344819282  0.7929453800 -0.1313595854
H   0.7406587258  1.4464485707 -0.9940011854
O   0.5037425382  1.0343637937  1.1225485697
C   1.3552908552 -0.5629415974 -0.1387273432
H   0.7195953253 -0.2073557517  1.2010950658
H   0.9688968622 -1.1939066283 -0.9405714181
H   2.3785754704 -0.8191872747  0.1749547840
7
Iter 9 Image 6  Energy = -29.6051852918
C   0.9217290511  0.8096342742 -0.1101145532
H   0.7424222591  1.4431428110 -0.9923212722
O   0.5017230890  1.0873971678  1.1011648557
C   1.3385787062 -0.5695371765 -0.0949096837
H   0.7527921220 -0.2772741283  1.1431712331
H   0.9668883086 -1.1866941920 -0.9291074564
H   2.3771081531 -0.8163022643  0.1760557585
7
Iter 9 Image 7  Energy = -29.6354008979
C   0.9076447543  0.8365818695 -0.0885902955
H   0.7462662828  1.4403160421 -0.9964256195
O   0.4981638135  1.1793599300  1.0654937916
C   1.3172499093 -0.5706442473 -0.0388442224
H   0.7928277190 -0.4097650890  1.0854774094
H   0.9642218543 -1.1745417556 -0.9058986942
H   2.3748673500 -0.8109402743  0.1727265065
7
Iter 9 Image 8  Energy = -29.6824385440
C   0.8855907037  0.8626588161 -0.0694690805
H   0.7698196021  1.4237614115 -1.0119479578
O   0.4784167200  1.3105206577  1.0170001637
C   1.3027926101 -0.5669842111  0.0158250269
H   0.8365447440 -0.5990396882  1.0420260900
H   0.9529458509 -1.1561652403 -0.8505511416
H   2.3751314337 -0.7843852394  0.1510558110
7
Iter 9 Image 9  Energy = -29.7026882982
C   0.8422229863  0.8746983223 -0.0499657470
H   0.8464120572  1.3940487641 -1.0336878806
O   0.3841679597  1.4075611593  0.9427325822
C   1.3069251039 -0.5549306316  0.0581523357
H   0.9122313007 -0.7654011349  1.0597233466
H   0.9164666940 -1.1643064935 -0.7607740737
H   2.3928155383 -0.7013031880  0.0777583185
7
Iter 9 Image 10  Energy = -29.7082488006
C   0.8055418192  0.8707798054 -0.0485227068
H   0.9216695093  1.3726206399 -1.0355517710
O   0.2772925984  1.4422841249  0.8877194625
C   1.3101527961 -0.5477297756  0.0885220499
H   0.9905045330 -0.8517522413  1.0895817959
H   0.8963279231 -1.1839159692 -0.6973787717
H   2.3997524278 -0.6119196869  0.0095687161
7
Iter 9 Image 11  Energy = -29.7096971637
C   0.7840367852  0.8656586589 -0.0371164025
H   0.9809293880  1.3403901038 -1.0231241499
O   0.1875804579  1.4681235287  0.8223429327
C   1.3100769769 -0.5359012779  0.1153731248
H   1.0639489065 -0.9236344469  1.1059940899
H   0.8779311114 -1.1816924395 -0.6582837811
H   2.3967379442 -0.5425772870 -0.0312469938
7
Iter 10 Image 0  Energy = -29.6796137011
C   0.8260657415  0.5508603911 -0.1261794589
H   0.4554445983  1.2417513435 -0.8784317668
O   0.5680753083  1.0246514429  1.1187434847
C   1.4411098584 -0.5873603774 -0.4363613732
H   0.9099091373  0.3932317500  1.7666320721
H   1.5916834696 -0.8592929697 -1.4741885892
H   1.8089534565 -1.2734747403  0.3237244514
7
Iter 10 Image 1  Energy = -29.6771721011
C   0.8789038087  0.6079343996 -0.1508003949
H   0.5960043855  1.3389386498 -0.9086919674
O   0.5915039256  1.0076689609  1.1465679270
C   1.4494132340 -0.5722817543 -0.4266398744
H   0.6941767114  0.2204878515  1.7211909376
H   1.2934124701 -1.0456151617 -1.3847659635
H   2.0978271133 -1.0667661439  0.2970783081
7
Iter 10 Image 2  Energy = -29.6687179571
C   0.9051849388  0.6513053178 -0.1581507132
H   0.6634479076  1.3974687009 -0.9251014061
O   0.5706056272  0.9814055524  1.1500840254
C   1.4437397723 -0.5598634831 -0.3928863051
H   0.6409087704  0.1122706461  1.6075996261
H   1.1462564092 -1.1434216873 -1.2467394362
H   2.2310980409 -0.9487982566  0.2591332085
7
Iter 10 Image 3  Energy = -29.6520630932
C   0.9279325765  0.7063852559 -0.1634440889
H   0.7174173310  1.4437000651 -0.9541791989
O   0.5379476465  0.9524417833  1.1429813420
C   1.4277351586 -0.5513726284 -0.3276434321
H   0.6300374352  0.0049331119  1.4619262606
H   1.0261479513 -1.2091221974 -1.0758428738
H   2.3340234995 -0.8565988203  0.2101408827
7
Iter 10 Image 4  Energy = -29.6196367359
C   0.9306493785  0.7627286606 -0.1475119371
H   0.7427901497  1.4604421477 -0.9821415817
O   0.5156872495  0.9724385943  1.1352397256
C   1.3795068424 -0.5547198528 -0.2017093870
H   0.6849423908 -0.1160012496  1.2636557102
H   0.9727073998 -1.2159534690 -0.9558724264
H   2.3749583123 -0.8185683610  0.1822787755
7
Iter 10 Image 5  Energy = -29.6040537125
C   0.9224022123  0.7858672519 -0.1332363936
H   0.7451205691  1.4605790453 -0.9895126629
O   0.5072465133  1.0259371614  1.1286012952
C   1.3549146626 -0.5629515636 -0.1417307987
H   0.7259930593 -0.1947753482  1.1822565093
H   0.9682937856 -1.2077570487 -0.9335264924
H   2.3772709102 -0.8165330174  0.1810874354
7
Iter 10 Image 6  Energy = -29.6062661922
C   0.9098983848  0.8032548907 -0.1121936704
H   0.7462031986  1.4566274271 -0.9867242453
O   0.5050661057  1.0799008225  1.1079978073
C   1.3376270883 -0.5699821477 -0.0978522977
H   0.7588706662 -0.2647731013  1.1231712331
H   0.9667123002 -1.1999265509 -0.9229039728
H   2.3768639598 -0.8147348522  0.1824440280
7
Iter 10 Image 7  Energy = -29.6360019660
C   0.8947033885  0.8360936468 -0.0900262950
H   0.7489228821  1.4532236605 -0.9892260434
O   0.5024427057  1.1749033053  1.0705487998
C   1.3181162889 -0.5744111050 -0.0416774906
H   0.7988397318 -0.4025594598  1.0660647887
H   0.9647007981 -1.1865861341 -0.9011708472
H   2.3735159017 -0.8102974534  0.1794259610
7
Iter 10 Image 8  Energy = -29.6834819979
C   0.8758660867  0.8639584944 -0.0666825322
H   0.7673942907  1.4362691084 -1.0057947135
O   0.4905920483  1.3134878008  1.0196958931
C   1.3037856175 -0.5678266983  0.0113785447
H   0.8346539381 -0.6034935490  1.0270959661
H   0.9553111315 -1.1642097289 -0.8519852210
H   2.3736385596 -0.7878189497  0.1602309546
7
Iter 10 Image 9  Energy = -29.7035178012
C   0.8398671268  0.8741616346 -0.0563577058
H   0.8417968034  1.3996028663 -1.0304195026
O   0.3946152247  1.4252013033  0.9511177274
C   1.3054223902 -0.5554233947  0.0579195281
H   0.9083189331 -0.7816856278  1.0495379389
H   0.9198329355 -1.1659329368 -0.7637378304
H   2.3913882321 -0.7055570881  0.0858787337
7
Iter 10 Image 10  Energy = -29.7085659570
C   0.8058752782  0.8726883123 -0.0488306096
H   0.9180400594  1.3742040286 -1.0350780491
O   0.2817706922  1.4543974902  0.8888392630
C   1.3090709145 -0.5481718751  0.0896681152
H   0.9897163440 -0.8634641037  1.0846754563
H   0.8976358413 -1.1838902987 -0.6983035122
H   2.3991324802 -0.6153966568  0.0129681118
7
Iter 10 Image 11  Energy = -29.7096971637
C   0.7840367852  0.8656586589 -0.0371164025
H   0.9809293880  1.3403901038 -1.0231241499
O   0.1875804579  1.4681235287  0.8223429327
C   1.3100769769 -0.5359012779  0.1153731248
H   1.0639489065 -0.9236344469  1.1059940899
H   0.8779311114 -1.1816924395 -0.6582837811
H   2.3967379442 -0.5425772870 -0.0312469938
7
Iter 11 Image 0  Energy = -29.6796137011
C   0.8260657415  0.5508603911 -0.1261794589
H   0.4554445983  1.2417513435 -0.8784317668
O   0.5680753083  1.0246514429  1.1187434847
C   1.4411098584 -0.5873603774 -0.4363613732
H   0.9099091373  0.3932317500  1.7666320721
H   1.5916834696 -0.8592929697 -1.4741885892
H   1.8089534565 -1.2734747403  0.3237244514
7
Iter 11 Image 1  Energy = -29.6773742950
C   0.8713559170  0.6023447313 -0.1519711831
H   0.5975646170  1.3407620737 -0.9077605406
O   0.5951055784  1.0073043611  1.1477937090
C   1.4515420726 -0.5715772577 -0.4321842954
H   0.6928863495  0.2260886357  1.7299801123
H   1.2981136770 -1.0487054125 -1.3888740103
H   2.0946734353 -1.0658503313  0.2969551868
7
Iter 11 Image 2  Energy = -29.6691296464
C   0.8959130941  0.6455416346 -0.1612465001
H   0.6688501289  1.4037294211 -0.9225151869
O   0.5730031688  0.9805558043  1.1504653599
C   1.4472267932 -0.5593615781 -0.4013230930
H   0.6373701513  0.1170950801  1.6172385885
H   1.1465018410 -1.1552714380 -1.2463305509
H   2.2323762998 -0.9419221579  0.2576503822
7
Iter 11 Image 3  Energy = -29.6528235591
C   0.9181531866  0.7013178904 -0.1687361674
H   0.7248910343  1.4550340468 -0.9503351443
O   0.5387135325  0.9503297954  1.1438612985
C   1.4316892667 -0.5507540010 -0.3367735753
H   0.6282514325  0.0095562132  1.4640403648
H   1.0227033669 -1.2269358815 -1.0671973764
H   2.3368398036 -0.8481815229  0.2090794890
7
Iter 11 Image 4  Energy = -29.6206119871
C   0.9198261853  0.7587686442 -0.1509943238
H   0.7477538529  1.4739925626 -0.9770481671
O   0.5186362430  0.9657755013  1.1381398693
C   1.3800033094 -0.5563976127 -0.2073347668
H   0.6900248589 -0.1066674927  1.2513420917
H   0.9717320596 -1.2310051545 -0.9473170309
H   2.3732652307 -0.8140999918  0.1871512186
7
Iter 11 Image 5  Energy = -29.6051465040
C   0.9116148625  0.7812867290 -0.1359032934
H   0.7489358582  1.4738225157 -0.9830879811
O   0.5112172109  1.0167523683  1.1330274272
C   1.3540753623 -0.5646124332 -0.1460789734
H   0.7326945098 -0.1820979048  1.1642369419
H   0.9680329177 -1.2217494807 -0.9264375646
H   2.3746709938 -0.8130353243  0.1881823409
7
Iter 11 Image 6  Energy = -29.6069853669
C   0.8998366300  0.7985285969 -0.1147521930
H   0.7493750581  1.4699729427 -0.9804071684
O   0.5083024093  1.0729393838  1.1133692358
C   1.3367864455 -0.5710245852 -0.1019048254
H   0.7654552308 -0.2546893075  1.1042295244
H   0.9664867740 -1.2133336568 -0.9160163176
H   2.3749991663 -0.8120268873  0.1894206248
7
Iter 11 Image 7  Energy = -29.6366041964
C   0.8848038179  0.8325226068 -0.0904406568
H   0.7512113345  1.4668079164 -0.9829674583
O   0.5054783453  1.1711337488  1.0754331385
C   1.3165573340 -0.5752520761 -0.0446546692
H   0.8055269669 -0.3969004056  1.0460647887
H   0.9648791319 -1.1993216098 -0.8955594289
H   2.3727847803 -0.8086237254  0.1860631619
7
Iter 11 Image 8  Energy = -29.6842533416
C   0.8680738241  0.8659025815 -0.0662179994
H   0.7655050221  1.4485026227 -0.9989968414
O   0.5008303753  1.3159749382  1.0234408510
C   1.3042351820 -0.5696966446  0.0062321024
H   0.8331192832 -0.6084686097  1.0130017928
H   0.9573884784 -1.1726076054 -0.8519158486
H   2.3720895167 -0.7892408302  0.1683948210
7
Iter 11 Image 9  Energy = -29.7043349361
C   0.8346427221  0.8785151055 -0.0510186562
H   0.8369603374  1.4056373734 -1.0287096821
O   0.4098350803  1.4359582067  0.9500854949
C   1.3035526063 -0.5553902506  0.0565093522
H   0.9031611401 -0.7975631657  1.0402441243
H   0.9232152376 -1.1678951565 -0.7670100377
H   2.3898745283 -0.7088953947  0.0938382996
7
Iter 11 Image 10  Energy = -29.7088334328
C   0.8051826731  0.8757803009 -0.0463918099
H   0.9145885703  1.3755818432 -1.0350340525
O   0.2878279763  1.4649724712  0.8878835488
C   1.3078949983 -0.5485538121  0.0905840011
H   0.9884896472 -0.8754112048  1.0802015628
H   0.8989189395 -1.1837239417 -0.6995737659
H   2.3983388087 -0.6182787635  0.0162692941
7
Iter 11 Image 11  Energy = -29.7096971637
C   0.7840367852  0.8656586589 -0.0371164025
H   0.9809293880  1.3403901038 -1.0231241499
O   0.1875804579  1.4681235287  0.8223429327
C   1.3100769769 -0.5359012779  0.1153731248
H   1.0639489065 -0.9236344469  1.1059940899
H   0.8779311114 -1.1816924395 -0.6582837811
H   2.3967379442 -0.5425772870 -0.0312469938
7
Iter 12 Image 0  Energy = -29.6796137011
C   0.8260657415  0.5508603911 -0.1261794589
H   0.4554445983  1.2417513435 -0.8784317668
O   0.5680753083  1.0246514429  1.1187434847
C   1.4411098584 -0.5873603774 -0.4363613732
H   0.9099091373  0.3932317500  1.7666320721
H   1.5916834696 -0.8592929697 -1.4741885892
H   1.8089534565 -1.2734747403  0.3237244514
7
Iter 12 Image 1  Energy = -29.6775009400
C   0.8647370390  0.5978333014 -0.1534946090
H   0.5983495201  1.3415497260 -0.9059665956
O   0.5988724792  1.0068590967  1.1488579735
C   1.4530899658 -0.5715847155 -0.4359166888
H   0.6915880544  0.2322769645  1.7384142352
H   1.3038164018 -1.0517750890 -1.3940642939
H   2.0907881838 -1.0647924838  0.2961089664
7
Iter 12 Image 2  Energy = -29.6693620002
C   0.8882102435  0.6406547899 -0.1657268343
H   0.6740487890  1.4099622195 -0.9190374810
O   0.5755939742  0.9775657690  1.1511390584
C   1.4497104263 -0.5590721444 -0.4087002903
H   0.6330057052  0.1240859982  1.6267423094
H   1.1469054054 -1.1693840482 -1.2455153025
H   2.2337669497 -0.9334458576  0.2550375334
7
Iter 12 Image 3  Energy = -29.6534716851
C   0.9090161483  0.6975786048 -0.1730938393
H   0.7319532987  1.4678595774 -0.9450373591
O   0.5401774277  0.9484896930  1.1418399412
C   1.4339873309 -0.5528007480 -0.3483014182
H   0.6275126025  0.0144589784  1.4662795435
H   1.0207597444 -1.2467977389 -1.0564881207
H   2.3378350984 -0.8384218606  0.2087401433
7
Iter 12 Image 4  Energy = -29.6218378162
C   0.9102890774  0.7555526610 -0.1590432747
H   0.7521898210  1.4882545588 -0.9671724379
O   0.5221456980  0.9579231940  1.1413603041
C   1.3790886291 -0.5591547511 -0.2173050749
H   0.6973250816 -0.0949506544  1.2387911666
H   0.9715976435 -1.2490842401 -0.9384757252
H   2.3686058002 -0.8081743219  0.1957839345
7
Iter 12 Image 5  Energy = -29.6061915672
C   0.9017933011  0.7819958889 -0.1444411412
H   0.7522565027  1.4883356959 -0.9725730528
O   0.5171202835  1.0043084093  1.1349457980
C   1.3524153906 -0.5670182400 -0.1512147377
H   0.7410095391 -0.1707357633  1.1475457003
H   0.9674418700 -1.2391643597 -0.9187583637
H   2.3692048289 -0.8073551669  0.1984347045
7
Iter 12 Image 6  Energy = -29.6076903260
C   0.8901183758  0.8000695473 -0.1214133887
H   0.7519932916  1.4848920024 -0.9708432646
O   0.5125889150  1.0671862087  1.1159176214
C   1.3380996057 -0.5744249350 -0.1083377104
H   0.7731772919 -0.2505903609  1.0881313505
H   0.9658144929 -1.2298217766 -0.9082414811
H   2.3694497463 -0.8069442065  0.1987257523
7
Iter 12 Image 7  Energy = -29.6375383800
C   0.8758181549  0.8304401136 -0.0922542913
H   0.7531775255  1.4820413969 -0.9743397759
O   0.5086131116  1.1682457381  1.0791139445
C   1.3166995797 -0.5754486512 -0.0498101042
H   0.8127602738 -0.3949687640  1.0260647887
H   0.9644611121 -1.2151738286 -0.8887579117
H   2.3697119603 -0.8047695342  0.1939222191
7
Iter 12 Image 8  Energy = -29.6850505537
C   0.8624843849  0.8651987707 -0.0652610006
H   0.7636776491  1.4638803040 -0.9924473823
O   0.5102173366  1.3186304389  1.0283129402
C   1.3022139450 -0.5703204404 -0.0005822754
H   0.8319759144 -0.6154166477  0.9974461473
H   0.9592659797 -1.1834768873 -0.8500600973
H   2.3714064865 -0.7881291024  0.1765305323
7
Iter 12 Image 9  Energy = -29.7048827475
C   0.8341975609  0.8806714232 -0.0538846898
H   0.8306578967  1.4119696634 -1.0252242183
O   0.4254598798  1.4501847250  0.9571135679
C   1.3010629137 -0.5571688669  0.0541847368
H   0.8952858334 -0.8151992798  1.0298937024
H   0.9274215437 -1.1692819227 -0.7710865353
H   2.3871560247 -0.7108090763  0.1029423305
7
Iter 12 Image 10  Energy = -29.7090739375
C   0.8060221969  0.8782617549 -0.0453447676
H   0.9107752763  1.3763042449 -1.0348715802
O   0.2945199469  1.4779570575  0.8887943708
C   1.3063122454 -0.5494612607  0.0912400103
H   0.9862679444 -0.8896171663  1.0756278902
H   0.9004369969 -1.1827361518 -0.7014430290
H   2.3969070072 -0.6203415881  0.0199358876
7
Iter 12 Image 11  Energy = -29.7096971637
C   0.7840367852  0.8656586589 -0.0371164025
H   0.9809293880  1.3403901038 -1.0231241499
O   0.1875804579  1.4681235287  0.8223429327
C   1.3100769769 -0.5359012779  0.1153731248
H   1.0639489065 -0.9236344469  1.1059940899
H   0.8779311114 -1.1816924395 -0.6582837811
H   2.3967379442 -0.5425772870 -0.0312469938
7
Iter 13 Image 0  Energy = -29.6796137011
C   0.8260657415  0.5508603911 -0.1261794589
H   0.4554445983  1.2417513435 -0.8784317668
O   0.5680753083  1.0246514429  1.1187434847
C   1.4411098584 -0.5873603774 -0.4363613732
H   0.9099091373  0.3932317500  1.7666320721
H   1.5916834696 -0.8592929697 -1.4741885892
H   1.8089534565 -1.2734747403  0.3237244514
7
Iter 13 Image 1  Energy = -29.6775708264
C   0.8599454446  0.5943770928 -0.1541618366
H   0.5983319391  1.3418089780 -0.9043091562
O   0.6020565517  1.0069840564  1.1493920728
C   1.4532623382 -0.5723448431 -0.4402627534
H   0.6905239329  0.2375117523  1.7453333606
H   1.3094799425 -1.0536953394 -1.3977786032
H   2.0876414911 -1.0642748974  0.2957259106
7
Iter 13 Image 2  Energy = -29.6694837427
C   0.8824268115  0.6373645527 -0.1686983830
H   0.6781457878  1.4155985014 -0.9158167563
O   0.5777228600  0.9771299365  1.1496296646
C   1.4507857778 -0.5605586119 -0.4163428046
H   0.6290766792  0.1283468068  1.6359574889
H   1.1477286648 -1.1822202250 -1.2433702540
H   2.2353549293 -0.9252942693  0.2525800299
7
Iter 13 Image 3  Energy = -29.6539282268
C   0.9025988029  0.6935177634 -0.1797771720
H   0.7378872175  1.4791542105 -0.9385811309
O   0.5414614875  0.9476382237  1.1399538075
C   1.4354956183 -0.5524387634 -0.3567615512
H   0.6278606114  0.0186033843  1.4681406623
H   1.0190382662 -1.2667977389 -1.0477861513
H   2.3368996727 -0.8293106051  0.2087504313
7
Iter 13 Image 4  Energy = -29.6229840583
C   0.9035748775  0.7502686793 -0.1655030353
H   0.7550738988  1.5032758143 -0.9581481377
O   0.5267469331  0.9505403561  1.1409777065
C   1.3786913050 -0.5578035833 -0.2263110633
H   0.7047165164 -0.0855397935  1.2303405116
H   0.9708925421 -1.2685211368 -0.9327820796
H   2.3615456820 -0.8018538934  0.2053649860
7
Iter 13 Image 5  Energy = -29.6070567882
C   0.8958688040  0.7785503188 -0.1495466155
H   0.7539509952  1.5050268589 -0.9646761826
O   0.5235906022  0.9928870607  1.1330478606
C   1.3496173749 -0.5653669798 -0.1572914245
H   0.7490099917 -0.1632900042  1.1345781712
H   0.9664354593 -1.2564309441 -0.9114784349
H   2.3627684892 -0.8010098455  0.2093055368
7
Iter 13 Image 6  Energy = -29.6083907402
C   0.8838370564  0.7977342553 -0.1244897087
H   0.7533398379  1.5012687674 -0.9634550258
O   0.5174054084  1.0625400550  1.1145851790
C   1.3359614779 -0.5727529657 -0.1147961698
H   0.7810091988 -0.2501205941  1.0746875154
H   0.9649473470 -1.2466734250 -0.9014257805
H   2.3647413966 -0.8016296174  0.2088328730
7
Iter 13 Image 7  Energy = -29.6386563247
C   0.8679103443  0.8339289053 -0.0952633397
H   0.7545539562  1.4961438102 -0.9652058793
O   0.5123976289  1.1653533313  1.0794127053
C   1.3173899421 -0.5784306884 -0.0559423834
H   0.8193337570 -0.3965607800  1.0109155927
H   0.9639944409 -1.2303540070 -0.8820039301
H   2.3656616501 -0.7997140857  0.2020260966
7
Iter 13 Image 8  Energy = -29.6857509232
C   0.8575179112  0.8671618615 -0.0651053336
H   0.7624133459  1.4776850130 -0.9849190505
O   0.5186439114  1.3194800313  1.0311249635
C   1.3028515751 -0.5707715745 -0.0063185202
H   0.8306631102 -0.6231848083  0.9844603869
H   0.9601852869 -1.1949902787 -0.8484857520
H   2.3689665712 -0.7850138119  0.1831821567
7
Iter 13 Image 9  Energy = -29.7054804033
C   0.8328213736  0.8848285084 -0.0488975606
H   0.8244896270  1.4184682944 -1.0231208280
O   0.4432888789  1.4588758100  0.9582030415
C   1.2979908640 -0.5578355450  0.0524183747
H   0.8868190720 -0.8313806679  1.0198782274
H   0.9312340220 -1.1710404219 -0.7759270839
H   2.3845978165 -0.7115493590  0.1113847196
7
Iter 13 Image 10  Energy = -29.7092722720
C   0.8062880084  0.8814179091 -0.0425282507
H   0.9073605405  1.3764626367 -1.0349373467
O   0.3022382407  1.4888815450  0.8884150930
C   1.3044663352 -0.5503466795  0.0923089360
H   0.9836779044 -0.9029990991  1.0712788123
H   0.9017737217 -1.1815221152 -0.7038891768
H   2.3954368630 -0.6215273121  0.0232907202
7
Iter 13 Image 11  Energy = -29.7096971637
C   0.7840367852  0.8656586589 -0.0371164025
H   0.9809293880  1.3403901038 -1.0231241499
O   0.1875804579  1.4681235287  0.8223429327
C   1.3100769769 -0.5359012779  0.1153731248
H   1.0639489065 -0.9236344469  1.1059940899
H   0.8779311114 -1.1816924395 -0.6582837811
H   2.3967379442 -0.5425772870 -0.0312469938
7
Iter 14 Image 0  Energy = -29.6796137011
C   0.8260657415  0.5508603911 -0.1261794589
H   0.4554445983  1.2417513435 -0.8784317668
O   0.5680753083  1.0246514429  1.1187434847
C   1.4411098584 -0.5873603774 -0.4363613732
H   0.9099091373  0.3932317500  1.7666320721
H   1.5916834696 -0.8592929697 -1.4741885892
H   1.8089534565 -1.2734747403  0.3237244514
7
Iter 14 Image 1  Energy = -29.6776249176
C   0.8569350471  0.5910515598 -0.1544270271
H   0.5974013866  1.3417306496 -0.9027656724
O   0.6049626385  1.0074080592  1.1496171462
C   1.4524173852 -0.5730081125 -0.4433268630
H   0.6895962872  0.2423710277  1.7510102300
H   1.3153003571 -1.0551218156 -1.4014087337
H   2.0846285329 -1.0640645668  0.2952399161
7
Iter 14 Image 2  Energy = -29.6694985694
C   0.8787987816  0.6340369414 -0.1718852607
H   0.6814116525  1.4211158351 -0.9125352107
O   0.5797012261  0.9764711994  1.1479584733
C   1.4507402183 -0.5614035146 -0.4219751588
H   0.6251596927  0.1329393548  1.6438944172
H   1.1484962534 -1.1959149638 -1.2411543285
H   2.2369337084 -0.9168781971  0.2496360435
7
Iter 14 Image 3  Energy = -29.6542865402
C   0.8975643724  0.6909290038 -0.1867320131
H   0.7429032710  1.4903357503 -0.9314201134
O   0.5431891600  0.9468604003  1.1368668980
C   1.4357045969 -0.5536279000 -0.3655797025
H   0.6294559323  0.0226610467  1.4698312108
H   1.0183897570 -1.2867977389 -1.0387918361
H   2.3340346137 -0.8199941122  0.2097644540
7
Iter 14 Image 4  Energy = -29.6243358916
C   0.8981308398  0.7479692600 -0.1726347190
H   0.7568720742  1.5191350463 -0.9488825094
O   0.5324370880  0.9442274458  1.1377205226
C   1.3777946453 -0.5598554519 -0.2398253423
H   0.7125926691 -0.0795231355  1.2270200009
H   0.9713745895 -1.2872382670 -0.9264099932
H   2.3520398498 -0.7943484549  0.2169509357
7
Iter 14 Image 5  Energy = -29.6078903890
C   0.8916306944  0.7776511140 -0.1567232327
H   0.7548721074  1.5223836267 -0.9562309115
O   0.5303723447  0.9826288439  1.1300863548
C   1.3472662313 -0.5660171683 -0.1665305453
H   0.7569314685 -0.1594502194  1.1252107619
H   0.9654601490 -1.2735508975 -0.9033054610
H   2.3547087179 -0.7932788246  0.2214319516
7
Iter 14 Image 6  Energy = -29.6091564661
C   0.8791910121  0.7981092171 -0.1306949701
H   0.7541812945  1.5179289888 -0.9552049713
O   0.5223678809  1.0589318907  1.1126882436
C   1.3336778203 -0.5727217105 -0.1220027113
H   0.7896499798 -0.2533765147  1.0630374401
H   0.9640498808 -1.2637994595 -0.8939958269
H   2.3581238568 -0.7947059362  0.2201116824
7
Iter 14 Image 7  Energy = -29.6401930517
C   0.8643804289  0.8314459642 -0.0976862753
H   0.7549844522  1.5138128692 -0.9587554831
O   0.5156279610  1.1645258585  1.0787655211
C   1.3142514022 -0.5762853016 -0.0621262949
H   0.8262930714 -0.4022293680  0.9980343782
H   0.9630215273 -1.2473333750 -0.8756287224
H   2.3626828782 -0.7935701527  0.2113357444
7
Iter 14 Image 8  Energy = -29.6864709324
C   0.8538193222  0.8710557448 -0.0660026298
H   0.7614637422  1.4915617296 -0.9766219269
O   0.5261749310  1.3192302764  1.0329568307
C   1.3031251443 -0.5720966420 -0.0131900775
H   0.8293469238 -0.6324716628  0.9734293105
H   0.9608703282 -1.2072086717 -0.8459127075
H   2.3664413263 -0.7797043442  0.1892800368
7
Iter 14 Image 9  Energy = -29.7059149212
C   0.8340320589  0.8873177069 -0.0477660866
H   0.8180002074  1.4246225348 -1.0201188948
O   0.4610520519  1.4679791262  0.9632806683
C   1.2948968641 -0.5586551966  0.0505288358
H   0.8768632130 -0.8474251730  1.0097353612
H   0.9350811050 -1.1726126858 -0.7815942356
H   2.3813161578 -0.7108597442  0.1198732424
7
Iter 14 Image 10  Energy = -29.7094297475
C   0.8068107287  0.8842503312 -0.0393692348
H   0.9041213691  1.3759165300 -1.0351067531
O   0.3108883169  1.4996223394  0.8883128113
C   1.3023088691 -0.5512001762  0.0934737566
H   0.9803689486 -0.9166237214  1.0670590543
H   0.9030503965 -1.1797813916 -0.7070630735
H   2.3936929860 -0.6218170345  0.0266322319
7
Iter 14 Image 11  Energy = -29.7096971637
C   0.7840367852  0.8656586589 -0.0371164025
H   0.9809293880  1.3403901038 -1.0231241499
O   0.1875804579  1.4681235287  0.8223429327
C   1.3100769769 -0.5359012779  0.1153731248
H   1.0639489065 -0.9236344469  1.1059940899
H   0.8779311114 -1.1816924395 -0.6582837811
H   2.3967379442 -0.5425772870 -0.0312469938
7
Iter 15 Image 0  Energy = -29.6796137011
C   0.8260657415  0.5508603911 -0.1261794589
H   0.4554445983  1.2417513435 -0.8784317668
O   0.5680753083  1.0246514429  1.1187434847
C   1.4411098584 -0.5873603774 -0.4363613732
H   0.9099091373  0.3932317500  1.7666320721
H   1.5916834696 -0.8592929697 -1.4741885892
H   1.8089534565 -1.2734747403  0.3237244514
7
Iter 15 Image 1  Energy = -29.6776900655
C   0.8544648819  0.5897708976 -0.1543215798
H   0.5957033955  1.3408609258 -0.9010595900
O   0.6077937211  1.0080700526  1.1491258225
C   1.4517579768 -0.5749563571 -0.4448338490
H   0.6888903478  0.2467183846  1.7556417287
H   1.3211671932 -1.0559788515 -1.4051252507
H   2.0814641094 -1.0641182502  0.2945117156
7
Iter 15 Image 2  Energy = -29.6694440907
C   0.8757717087  0.6333392896 -0.1749960905
H   0.6838867622  1.4259845185 -0.9088590293
O   0.5818593419  0.9752407156  1.1459336033
C   1.4503122755 -0.5642059132 -0.4267400574
H   0.6214629159  0.1383143569  1.6504146504
H   1.1495665283 -1.2098853044 -1.2384159334
H   2.2383820216 -0.9084210464  0.2466018232
7
Iter 15 Image 3  Energy = -29.6546196854
C   0.8938868947  0.6886119766 -0.1919700201
H   0.7468063011  1.5024386976 -0.9246467475
O   0.5458465327  0.9460994775  1.1313283024
C   1.4341952931 -0.5558540313 -0.3753114202
H   0.6324762939  0.0263234529  1.4718939108
H   1.0188605054 -1.3067977389 -1.0295312530
H   2.3291699131 -0.8104554016  0.2121761249
7
Iter 15 Image 4  Energy = -29.6258510119
C   0.8949909297  0.7445831292 -0.1820317423
H   0.7579838713  1.5356180267 -0.9396097324
O   0.5387723787  0.9392809081  1.1337498160
C   1.3768541822 -0.5588258962 -0.2545995004
H   0.7209169319 -0.0772733582  1.2275471720
H   0.9714539808 -1.3071725163 -0.9208728306
H   2.3402694732 -0.7858438451  0.2297557212
7
Iter 15 Image 5  Energy = -29.6087121880
C   0.8888037225  0.7780457255 -0.1665538849
H   0.7554578982  1.5398519839 -0.9470218695
O   0.5369410924  0.9746485120  1.1279210441
C   1.3463383528 -0.5665632612 -0.1777253361
H   0.7643713608 -0.1590964050  1.1187989284
H   0.9636986706 -1.2920360518 -0.8956666997
H   2.3456306100 -0.7844840269  0.2341867297
7
Iter 15 Image 6  Energy = -29.6099859691
C   0.8753549776  0.7998235608 -0.1358787664
H   0.7546068753  1.5354854062 -0.9471939245
O   0.5282462515  1.0555867712  1.1085136018
C   1.3318427552 -0.5742412362 -0.1303669233
H   0.7986874607 -0.2590769925  1.0523246688
H   0.9630285508 -1.2811945586 -0.8857133984
H   2.3494748527 -0.7860164752  0.2322536283
7
Iter 15 Image 7  Energy = -29.6420443124
C   0.8601476087  0.8370528474 -0.1040954285
H   0.7555944102  1.5298267620 -0.9499589011
O   0.5203760662  1.1629873152  1.0756423617
C   1.3134247663 -0.5794907218 -0.0689299283
H   0.8333545949 -0.4111254024  0.9877682671
H   0.9624509395 -1.2637713305 -0.8677479923
H   2.3558933415 -0.7851129783  0.2212605038
7
Iter 15 Image 8  Energy = -29.6871847874
C   0.8528590424  0.8708678501 -0.0660634068
H   0.7604680002  1.5079585976 -0.9705805417
O   0.5323596666  1.3193438364  1.0350349734
C   1.2998059536 -0.5716262099 -0.0200358041
H   0.8289006222 -0.6430017259  0.9630357833
H   0.9614844773 -1.2205164418 -0.8428654063
H   2.3653639656 -0.7726594631  0.1954132318
7
Iter 15 Image 9  Energy = -29.7063395596
C   0.8351328594  0.8912051047 -0.0441186215
H   0.8114763707  1.4304774260 -1.0167604047
O   0.4808906611  1.4748018091  0.9669834233
C   1.2911888092 -0.5602252065  0.0469752433
H   0.8655139653 -0.8636621427  0.9996265197
H   0.9394382478 -1.1734954895 -0.7872987434
H   2.3776007480 -0.7087349819  0.1285314689
7
Iter 15 Image 10  Energy = -29.7095278269
C   0.8089918333  0.8851823430 -0.0393720263
H   0.9010824142  1.3742781140 -1.0348071831
O   0.3191648539  1.5119085473  0.8914640039
C   1.2999433658 -0.5523299193  0.0941765926
H   0.9762065369 -0.9304982821  1.0631025478
H   0.9043926730 -1.1770737861 -0.7107013495
H   2.3914599384 -0.6211001536  0.0300762183
7
Iter 15 Image 11  Energy = -29.7096971637
C   0.7840367852  0.8656586589 -0.0371164025
H   0.9809293880  1.3403901038 -1.0231241499
O   0.1875804579  1.4681235287  0.8223429327
C   1.3100769769 -0.5359012779  0.1153731248
H   1.0639489065 -0.9236344469  1.1059940899
H   0.8779311114 -1.1816924395 -0.6582837811
H   2.3967379442 -0.5425772870 -0.0312469938
7
Iter 16 Image 0  Energy = -29.6796136862
C   0.8260657415  0.5508603911 -0.1261794589
H   0.4554445983  1.2417513435 -0.8784317668
O   0.5680753083  1.0246514429  1.1187434847
C   1.4411098584 -0.5873603774 -0.4363613732
H   0.9099091373  0.3932317500  1.7666320721
H   1.5916834696 -0.8592929697 -1.4741885892
H   1.8089534565 -1.2734747403  0.3237244514
7
Iter 16 Image 1  Energy = -29.6777693993
C   0.8540941339  0.5877496208 -0.1543213290
H   0.5931387392  1.3398028559 -0.8996062870
O   0.6101302917  1.0092668977  1.1486067163
C   1.4495086549 -0.5757640539 -0.4458655062
H   0.6884518080  0.2504551174  1.7589433324
H   1.3269010233 -1.0561565912 -1.4082208688
H   2.0790169668 -1.0649870443  0.2944029376
7
Iter 16 Image 2  Energy = -29.6693922496
C   0.8751101158  0.6313655474 -0.1775422415
H   0.6851892733  1.4308821984 -0.9055089569
O   0.5837463353  0.9759464891  1.1425606543
C   1.4477561306 -0.5658254347 -0.4304754030
H   0.6184143782  0.1422997679  1.6562341215
H   1.1509503022 -1.2235987931 -1.2354302274
H   2.2400750414 -0.9007031972  0.2441010075
7
Iter 16 Image 3  Energy = -29.6549236393
C   0.8919580044  0.6868841593 -0.1989094870
H   0.7496810093  1.5134953266 -0.9173209168
O   0.5489235904  0.9459610505  1.1252946588
C   1.4321638761 -0.5569265351 -0.3833075886
H   0.6367601247  0.0290676949  1.4746763767
H   1.0197709998 -1.3267977389 -1.0218067485
H   2.3219841582 -0.8013175438  0.2153126051
7
Iter 16 Image 4  Energy = -29.6273851311
C   0.8930529057  0.7434079971 -0.1925570717
H   0.7585212044  1.5509169666 -0.9302090673
O   0.5456788552  0.9342537288  1.1297232327
C   1.3764632753 -0.5585657781 -0.2702026013
H   0.7291463698 -0.0766443927  1.2301817954
H   0.9715068835 -1.3262656336 -0.9159837514
H   2.3268722429 -0.7767364255  0.2429863614
7
Iter 16 Image 5  Energy = -29.6094769901
C   0.8877786224  0.7771316127 -0.1740074577
H   0.7554674506  1.5575678152 -0.9387200613
O   0.5438426772  0.9674743013  1.1240210178
C   1.3451769159 -0.5651536925 -0.1897205659
H   0.7711405706 -0.1607369340  1.1141243167
H   0.9615349165 -1.3107518386 -0.8886319432
H   2.3363005438 -0.7751647814  0.2468735964
7
Iter 16 Image 6  Energy = -29.6108033425
C   0.8733887041  0.8010533528 -0.1415590973
H   0.7546970922  1.5527944323 -0.9395709499
O   0.5341815425  1.0531523665  1.1037753139
C   1.3295925659 -0.5736166070 -0.1380674413
H   0.8073264206 -0.2672801350  1.0430235743
H   0.9613246787 -1.2991673393 -0.8781222767
H   2.3407307139 -0.7765695879  0.2444597604
7
Iter 16 Image 7  Energy = -29.6440274483
C   0.8578480718  0.8386133343 -0.1057366696
H   0.7557510682  1.5474168020 -0.9439921436
O   0.5258013817  1.1622411974  1.0695261814
C   1.3114437807 -0.5798982000 -0.0762615826
H   0.8401017539 -0.4218666829  0.9789289096
H   0.9615139355 -1.2806754341 -0.8600047970
H   2.3487817370 -0.7754645226  0.2314789909
7
Iter 16 Image 8  Energy = -29.6879007733
C   0.8519903891  0.8736905409 -0.0682511707
H   0.7601879736  1.5228941854 -0.9637168179
O   0.5380307543  1.3181338220  1.0357178926
C   1.2987305207 -0.5723956913 -0.0260201019
H   0.8286793758 -0.6546146238  0.9550341911
H   0.9617440519 -1.2338451759 -0.8394841031
H   2.3618786737 -0.7634965980  0.2006589389
7
Iter 16 Image 9  Energy = -29.7067064709
C   0.8377627270  0.8931007173 -0.0427748292
H   0.8052584632  1.4358905506 -1.0132240827
O   0.5001934993  1.4815513022  0.9734596564
C   1.2868951667 -0.5616013791  0.0441717353
H   0.8538033778 -0.8791052497  0.9892785828
H   0.9436504312 -1.1742461579 -0.7937890381
H   2.3736779988 -0.7052233101  0.1368168524
7
Iter 16 Image 10  Energy = -29.7096506721
C   0.8081994177  0.8890750678 -0.0332908871
H   0.8987170678  1.3719473519 -1.0351745228
O   0.3305368307  1.5198999319  0.8897577049
C   1.2972832712 -0.5533792170  0.0947488704
H   0.9716589357 -0.9437161067  1.0594218924
H   0.9056426452 -1.1739956193 -0.7148015266
H   2.3892034475 -0.6194645610  0.0332772816
7
Iter 16 Image 11  Energy = -29.7096971637
C   0.7840367852  0.8656586589 -0.0371164025
H   0.9809293880  1.3403901038 -1.0231241499
O   0.1875804579  1.4681235287  0.8223429327
C   1.3100769769 -0.5359012779  0.1153731248
H   1.0639489065 -0.9236344469  1.1059940899
H   0.8779311114 -1.1816924395 -0.6582837811
H   2.3967379442 -0.5425772870 -0.0312469938
7
Iter 17 Image 0  Energy = -29.6796137011
C   0.8260657415  0.5508603911 -0.1261794589
H   0.4554445983  1.2417513435 -0.8784317668
O   0.5680753083  1.0246514429  1.1187434847
C   1.4411098584 -0.5873603774 -0.4363613732
H   0.9099091373  0.3932317500  1.7666320721
H   1.5916834696 -0.8592929697 -1.4741885892
H   1.8089534565 -1.2734747403  0.3237244514
7
Iter 17 Image 1  Energy = -29.6778757042
C   0.8546409161  0.5878924353 -0.1539231613
H   0.5896822159  1.3379814496 -0.8983134936
O   0.6120612274  1.0106910379  1.1477769642
C   1.4472693929 -0.5781986720 -0.4463803494
H   0.6884321435  0.2535628195  1.7605979480
H   1.3324280358 -1.0551314355 -1.4103261401
H   2.0767276788 -1.0664308307  0.2945072259
7
Iter 17 Image 2  Energy = -29.6693315572
C   0.8754829586  0.6317976942 -0.1801075878
H   0.6851991233  1.4347445410 -0.9021161085
O   0.5855964658  0.9768779775  1.1389826974
C   1.4448893808 -0.5695146357 -0.4326376415
H   0.6163103649  0.1465144882  1.6602222156
H   1.1528368387 -1.2363351071 -1.2322042492
H   2.2409264734 -0.8937184192  0.2417996105
7
Iter 17 Image 3  Energy = -29.6551932460
C   0.8916767447  0.6868544273 -0.2071937300
H   0.7512301996  1.5231055567 -0.9097756243
O   0.5526866512  0.9453091276  1.1194585591
C   1.4290147285 -0.5590032316 -0.3908863316
H   0.6425127297  0.0320864973  1.4778522823
H   1.0218892789 -1.3451505744 -1.0152674656
H   2.3122314543 -0.7928354005  0.2197512093
7
Iter 17 Image 4  Energy = -29.6289262837
C   0.8930589203  0.7419451114 -0.1999149455
H   0.7580937516  1.5658181692 -0.9221382677
O   0.5537220120  0.9285645375  1.1237046213
C   1.3756821690 -0.5579984006 -0.2869827042
H   0.7368344772 -0.0771993286  1.2345373602
H   0.9716954658 -1.3437072260 -0.9115688022
H   2.3121549228 -0.7670563831  0.2563016322
7
Iter 17 Image 5  Energy = -29.6101519978
C   0.8882032854  0.7780912790 -0.1804977172
H   0.7550707144  1.5738735891 -0.9305955045
O   0.5510903887  0.9603564560  1.1190680865
C   1.3440482332 -0.5648714692 -0.2027823301
H   0.7770184312 -0.1640321587  1.1110197450
H   0.9594635795 -1.3280454098 -0.8813670732
H   2.3263470551 -0.7650057955  0.2590936863
7
Iter 17 Image 6  Energy = -29.6115772790
C   0.8734617795  0.8027507628 -0.1478239002
H   0.7545409845  1.5690020238 -0.9322788592
O   0.5399233491  1.0516128796  1.0989176096
C   1.3264241674 -0.5726985635 -0.1458720793
H   0.8151646776 -0.2776984831  1.0348902966
H   0.9592536433 -1.3163218521 -0.8702591158
H   2.3324731108 -0.7662802740  0.2563649338
7
Iter 17 Image 7  Energy = -29.6461103773
C   0.8592759382  0.8386277302 -0.1139467960
H   0.7559599075  1.5638214511 -0.9383586691
O   0.5297029113  1.1641481459  1.0678475288
C   1.3074291469 -0.5779828442 -0.0824198344
H   0.8465059772 -0.4358883492  0.9717505666
H   0.9598579925 -1.2978206998 -0.8527723945
H   2.3425098515 -0.7645389398  0.2418384873
7
Iter 17 Image 8  Energy = -29.6885809666
C   0.8518580224  0.8778325174 -0.0712202474
H   0.7607966258  1.5365333688 -0.9571166553
O   0.5426806389  1.3158051068  1.0347072887
C   1.2977677357 -0.5737220912 -0.0319503550
H   0.8289434426 -0.6669893742  0.9496262465
H   0.9618450893 -1.2469988056 -0.8352471099
H   2.3573501953 -0.7520942422  0.2051396613
7
Iter 17 Image 9  Energy = -29.7070309287
C   0.8404101347  0.8952452177 -0.0393243552
H   0.7996351231  1.4406464293 -1.0097910721
O   0.5201934993  1.4855989640  0.9787450029
C   1.2824849014 -0.5625941510  0.0415747023
H   0.8416421628 -0.8937260169  0.9792651236
H   0.9477132562 -1.1748286343 -0.8010804099
H   2.3691625897 -0.6999753843  0.1445498761
7
Iter 17 Image 10  Energy = -29.7097179359
C   0.8107980603  0.8882930699 -0.0344152985
H   0.8967743198  1.3684067200 -1.0348038658
O   0.3396022484  1.5307890811  0.8948506720
C   1.2941984612 -0.5544683226  0.0959781306
H   0.9665370447 -0.9558612416  1.0556560495
H   0.9066777949 -1.1701667721 -0.7197302580
H   2.3866536875 -0.6166257018  0.0364033913
7
Iter 17 Image 11  Energy = -29.7096971637
C   0.7840367852  0.8656586589 -0.0371164025
H   0.9809293880  1.3403901038 -1.0231241499
O   0.1875804579  1.4681235287  0.8223429327
C   1.3100769769 -0.5359012779  0.1153731248
H   1.0639489065 -0.9236344469  1.1059940899
H   0.8779311114 -1.1816924395 -0.6582837811
H   2.3967379442 -0.5425772870 -0.0312469938
7
Iter 18 Image 0  Energy = -29.6796137011
C   0.8260657415  0.5508603911 -0.1261794589
H   0.4554445983  1.2417513435 -0.8784317668
O   0.5680753083  1.0246514429  1.1187434847
C   1.4411098584 -0.5873603774 -0.4363613732
H   0.9099091373  0.3932317500  1.7666320721
H   1.5916834696 -0.8592929697 -1.4741885892
H   1.8089534565 -1.2734747403  0.3237244514
7
Iter 18 Image 1  Energy = -29.6780172801
C   0.8574980108  0.5885523124 -0.1529786856
H   0.5847325234  1.3357101815 -0.8976880261
O   0.6133646733  1.0128553456  1.1462287544
C   1.4444273447 -0.5804969171 -0.4444240925
H   0.6890999567  0.2555396377  1.7600773759
H   1.3375514206 -1.0530557778 -1.4120456275
H   2.0745676715 -1.0687379784  0.2947692874
7
Iter 18 Image 2  Energy = -29.6692804611
C   0.8781755608  0.6329800667 -0.1823745043
H   0.6832348130  1.4377592285 -0.8992603387
O   0.5874169648  0.9781667937  1.1351228495
C   1.4405863618 -0.5736825462 -0.4321127156
H   0.6157867237  0.1513112556  1.6613451865
H   1.1552957799 -1.2481482519 -1.2289440255
H   2.2407454359 -0.8880200490  0.2401624650
7
Iter 18 Image 3  Energy = -29.6554621226
C   0.8940515857  0.6860998394 -0.2135857047
H   0.7505211865  1.5322887958 -0.9036202394
O   0.5579051653  0.9443760038  1.1124649283
C   1.4233723836 -0.5615151536 -0.3985928934
H   0.6506351835  0.0354036269  1.4812745681
H   1.0259044999 -1.3608496851 -1.0105633641
H   2.2988517968 -0.7854370279  0.2265615968
7
Iter 18 Image 4  Energy = -29.6305507189
C   0.8958946092  0.7418363574 -0.2067589191
H   0.7564698903  1.5787171873 -0.9146593932
O   0.5629383298  0.9224919812  1.1168664292
C   1.3754615891 -0.5570450831 -0.3045732978
H   0.7433194572 -0.0799264585  1.2422469825
H   0.9718643197 -1.3589798302 -0.9083237555
H   2.2952934971 -0.7567276510  0.2691408538
7
Iter 18 Image 5  Energy = -29.6107081837
C   0.8911333904  0.7808967310 -0.1882062594
H   0.7542517288  1.5875936215 -0.9222446873
O   0.5584001788  0.9533228922  1.1148296558
C   1.3436123675 -0.5649350156 -0.2162139541
H   0.7816115783 -0.1694568517  1.1093975769
H   0.9571460118 -1.3434826242 -0.8740123855
H   2.3150864238 -0.7535722568  0.2703889355
7
Iter 18 Image 6  Energy = -29.6123390710
C   0.8754336366  0.8061223523 -0.1522482784
H   0.7540721711  1.5834382858 -0.9256934435
O   0.5461721866  1.0502099550  1.0923391020
C   1.3233547807 -0.5736923158 -0.1535297122
H   0.8217063956 -0.2899880208  1.0271567512
H   0.9569673203 -1.3312914927 -0.8613377418
H   2.3235352124 -0.7544322550  0.2672522052
7
Iter 18 Image 7  Energy = -29.6484272844
C   0.8608635298  0.8443896868 -0.1168361129
H   0.7562972072  1.5778986035 -0.9332341660
O   0.5361572910  1.1634907348  1.0579634849
C   1.3032302659 -0.5784039846 -0.0893484480
H   0.8507345112 -0.4523444035  0.9683026435
H   0.9580951129 -1.3132517956 -0.8442992419
H   2.3358637912 -0.7514123274  0.2513907286
7
Iter 18 Image 8  Energy = -29.6892589247
C   0.8542970737  0.8788667418 -0.0744057876
H   0.7625832543  1.5499703974 -0.9531881087
O   0.5449274667  1.3135383361  1.0333670603
C   1.2927546975 -0.5732093266 -0.0370951567
H   0.8306430440 -0.6802379539  0.9463270823
H   0.9616488730 -1.2607368346 -0.8300120579
H   2.3543873445 -0.7378248534  0.2089458062
7
Iter 18 Image 9  Energy = -29.7073450452
C   0.8440928579  0.8967026124 -0.0372455025
H   0.7949377298  1.4439749004 -1.0056391046
O   0.5401934993  1.4877125665  0.9859066809
C   1.2776607709 -0.5642448638  0.0380413677
H   0.8286510753 -0.9074087169  0.9700284029
H   0.9519458919 -1.1743609345 -0.8087279006
H   2.3637598488 -0.6920091857  0.1515749130
7
Iter 18 Image 10  Energy = -29.7098360723
C   0.8102621589  0.8901947784 -0.0288656187
H   0.8959163379  1.3635026330 -1.0352534221
O   0.3524262584  1.5363857796  0.8952101035
C   1.2908682364 -0.5554791563  0.0963396800
H   0.9604818616 -0.9667215712  1.0526211419
H   0.9076217450 -1.1654049740 -0.7254372132
H   2.3836650139 -0.6121106736  0.0393241605
7
Iter 18 Image 11  Energy = -29.7096971637
C   0.7840367852  0.8656586589 -0.0371164025
H   0.9809293880  1.3403901038 -1.0231241499
O   0.1875804579  1.4681235287  0.8223429327
C   1.3100769769 -0.5359012779  0.1153731248
H   1.0639489065 -0.9236344469  1.1059940899
H   0.8779311114 -1.1816924395 -0.6582837811
H   2.3967379442 -0.5425772870 -0.0312469938
