7
Iteration 1  Energy = -29.6073419517
C   0.8937128427  0.7847245505 -0.1760456198
H   0.7394239225  1.5702138572 -0.9284403318
O   0.5569707194  0.9839943951  1.1143373275
C   1.3318340277 -0.5680963008 -0.1978832264
H   0.7921768724 -0.2323351687  1.0645712488
H   1.0012154026 -1.3286151067 -0.9206088160
H   2.2959070897 -0.7394704051  0.3020224374
7
Iteration 2  Energy = -29.6073514289
C   0.8945685750  0.7897396929 -0.1866692276
H   0.7390218808  1.5688156894 -0.9451418449
O   0.5617872246  0.9995637802  1.1022084619
C   1.3288009677 -0.5645082451 -0.2035171951
H   0.7870680552 -0.2210544024  1.0577728590
H   0.9992623217 -1.3229050394 -0.9250914761
H   2.2913631916 -0.7394851324  0.2971296714
7
Iteration 3  Energy = -29.6073514438
C   0.8946106598  0.7897474482 -0.1866561424
H   0.7391018859  1.5687724171 -0.9451522446
O   0.5618267874  0.9995918417  1.1021309059
C   1.3287963411 -0.5644733676 -0.2035711292
H   0.7869718835 -0.2210362971  1.0576854285
H   0.9993470162 -1.3227857941 -0.9253076033
H   2.2912710274 -0.7395521304  0.2972100072
7
Iteration 1  Energy = -29.6073421603
C   0.8937427895  0.7847059681 -0.1759430470
H   0.7395453735  1.5701142996 -0.9283942615
O   0.5568949501  0.9840127719  1.1143736920
C   1.3318154522 -0.5681478532 -0.1978979414
H   0.7919522079 -0.2324135858  1.0645413930
H   1.0009931809 -1.3286391579 -0.9205583701
H   2.2957944860 -0.7397086137  0.3021554850
7
Iteration 2  Energy = -29.6073513693
C   0.8916280266  0.7857645295 -0.1750685760
H   0.7357087528  1.5651953952 -0.9331033834
O   0.5589920663  0.9947596952  1.1139606905
C   1.3262885636 -0.5683234690 -0.1927538233
H   0.7846404417 -0.2257534380  1.0688220512
H   0.9968712029 -1.3264190235 -0.9146987696
H   2.2889884871 -0.7432783061  0.3076330367
7
Iteration 3  Energy = -29.6073514140
C   0.8927371793  0.7805051272 -0.1752209390
H   0.7366957195  1.5598957123 -0.9332319422
O   0.5598853168  0.9893490178  1.1137109721
C   1.3277816549 -0.5734291095 -0.1929873074
H   0.7858029431 -0.2311085655  1.0685071926
H   0.9987772607 -1.3315085020 -0.9151715403
H   2.2903929261 -0.7482036823  0.3076375349
7
Iteration 4  Energy = -29.6073514438
C   0.8898704707  0.7801573508 -0.1763522681
H   0.7290478215  1.5583894971 -0.9345700675
O   0.5578992054  0.9881443429  1.1129458614
C   1.3312868273 -0.5717309566 -0.1939969287
H   0.7895183796 -0.2312708477  1.0680924681
H   1.0048181159 -1.3317659546 -0.9152834415
H   2.2954492221 -0.7416788295  0.3053306639
7
Iteration 5  Energy = -29.6073514587
C   0.8921636678  0.7803393006 -0.1734928317
H   0.7312319784  1.5586766281 -0.9315636373
O   0.5604283239  0.9881472920  1.1158942646
C   1.3335337150 -0.5715438763 -0.1914204651
H   0.7920025321 -0.2312542937  1.0708156308
H   1.0069211369 -1.3314566277 -0.9127630166
H   2.2977673287 -0.7415896865  0.3077086736
7
Iteration 1  Energy = -29.6073421603
C   0.8937432773  0.7847063217 -0.1759428696
H   0.7395468861  1.5701148422 -0.9283941339
O   0.5568949081  0.9840130450  1.1143735872
C   1.3318150159 -0.5681478793 -0.1978980405
H   0.7919510494 -0.2324135815  1.0645413231
H   1.0009930581 -1.3286384636 -0.9205595593
H   2.2957944988 -0.7397089460  0.3021544052
7
Iteration 2  Energy = -29.6073513991
C   0.8920286934  0.7749654002 -0.1781904050
H   0.7361303964  1.5543832828 -0.9362428216
O   0.5593670668  0.9839862716  1.1108281261
C   1.3266807898 -0.5791258464 -0.1958417544
H   0.7850084886 -0.2365292849  1.0657164319
H   0.9972730263 -1.3372323364 -0.9177797479
H   2.2893692476 -0.7540780414  0.3045680719
7
Iteration 3  Energy = -29.6073514140
C   0.8865457797  0.7701368482 -0.1777554869
H   0.7307085033  1.5495664754 -0.9357684495
O   0.5539320793  0.9791422750  1.1112117139
C   1.3210715342 -0.5839638056 -0.1955387369
H   0.7793785559 -0.2414026957  1.0660130905
H   0.9916890156 -1.3419367222 -0.9176621508
H   2.2836777589 -0.7590918938  0.3049722000
7
Iteration 4  Energy = -29.6073514438
C   0.8938956527  0.7753027405 -0.1778956273
H   0.7481238917  1.5603837503 -0.9321666254
O   0.5524164998  0.9779118146  1.1098211193
C   1.3212780668 -0.5810213643 -0.2009102299
H   0.7716502750 -0.2435583177  1.0586190142
H   0.9934162056 -1.3326376326 -0.9303996079
H   2.2790633380 -0.7645041980  0.3059492938
7
Iteration 5  Energy = -29.6073514438
C   0.8942731535  0.7745926887 -0.1851730442
H   0.7485152554  1.5596218325 -0.9394032744
O   0.5527814388  0.9772602250  1.1024841440
C   1.3216501819 -0.5817020946 -0.2081942224
H   0.7720183623 -0.2441782691  1.0512801960
H   0.9938248536 -1.3333088933 -0.9376432201
H   2.2793849698 -0.7651956401  0.2986256911
7
Iteration 6  Energy = -29.6073514587
C   0.8956715360  0.7770802262 -0.1819002611
H   0.7534373478  1.5681607184 -0.9305129876
O   0.5543242872  0.9717733133  1.1070502729
C   1.3176455411 -0.5807539727 -0.2145361820
H   0.7687111140 -0.2501689791  1.0471017827
H   0.9871959365 -1.3257622918 -0.9496046765
H   2.2743859821 -0.7717465693  0.2914477122
7
Iteration 7  Energy = -29.6073514140
C   0.8956718553  0.7771454553 -0.1817941369
H   0.7534471219  1.5682078448 -0.9303738913
O   0.5542229984  0.9717847623  1.1071121831
C   1.3177234591 -0.5806186599 -0.2144438873
H   0.7686833239 -0.2501029494  1.0471450721
H   0.9873727042 -1.3256031226 -0.9495252285
H   2.2744308339 -0.7715640111  0.2915630123
