7
Image 0  Energy = -153.91462217
C   0.8260657415  0.5508603911 -0.1261794589
H   0.4554445983  1.2417513435 -0.8784317668
O   0.5680753083  1.0246514429  1.1187434847
C   1.4411098584 -0.5873603774 -0.4363613732
H   0.9099091373  0.3932317500  1.7666320721
H   1.5916834696 -0.8592929697 -1.4741885892
H   1.8089534565 -1.2734747403  0.3237244514
7
Image 1  Energy = -153.91359980
C   0.8566143486  0.5706440385 -0.1651270150
H   0.4674710776  1.2174525941 -0.9416905670
O   0.7197538309  1.1173018268  1.0730186396
C   1.4011190353 -0.6152995027 -0.4035569578
H   0.8970326469  0.4255968206  1.7165311279
H   1.4034616045 -1.0528695313 -1.3899335260
H   1.8557885727 -1.1724592726  0.4046963105
7
Image 2  Energy = -153.90516822
C   0.8757380561  0.6190159767 -0.1930816556
H   0.4959978432  1.2829460776 -0.9595273396
O   0.7898770853  1.0977135495  1.0772782654
C   1.3759127500 -0.5950987427 -0.3757445951
H   0.8372753215  0.2677657169  1.5659130453
H   1.2970734668 -1.1710830498 -1.2766063822
H   1.9293668208 -1.0108914569  0.4557068176
7
Image 3  Energy = -153.88092791
C   0.8914227442  0.6696712768 -0.1874601015
H   0.5488552982  1.3306193866 -0.9792962495
O   0.7932119043  1.0827065730  1.0906275434
C   1.3137645031 -0.5916979824 -0.2799993581
H   0.7976952963  0.1173156873  1.3614529873
H   1.1967172724 -1.1970479391 -1.1502777913
H   2.0595745608 -0.9211974578  0.4388906813
7
Image 4  Energy = -153.82248982
C   0.8932900206  0.7460605059 -0.1399136794
H   0.5725349320  1.3446237347 -0.9933657134
O   0.7799232299  1.2242369040  1.0401593865
C   1.2492410643 -0.6044995573 -0.1469677679
H   0.8036197031 -0.1303744593  1.1945029353
H   1.1595390205 -1.1868001161 -1.0651870937
H   2.1430936128 -0.9028773763  0.4047096974
7
Image 5  Energy = -153.85016883
C   0.8911118364  0.7955062697 -0.1097645821
H   0.5839632904  1.3567245175 -1.0024041795
O   0.7808647368  1.3001819938  1.0028764352
C   1.2287689749 -0.6021390905 -0.0604685392
H   0.8108260052 -0.3005352050  1.0804582825
H   1.1276026573 -1.1824756187 -1.0124259030
H   2.1781041384 -0.8768931551  0.3956662700
7
Image 6  Energy = -153.89285658
C   0.9018226351  0.8488989433 -0.0850509312
H   0.5970280839  1.3683895874 -1.0053991275
O   0.7902280942  1.3991109191  0.9868285823
C   1.2495418909 -0.5859392045 -0.0258237153
H   0.7555087943 -0.5294936762  0.9891161965
H   1.0792311165 -1.1815320809 -0.9422291619
H   2.2278810445 -0.8290649277  0.3764958445
7
Image 7  Energy = -153.92270314
C   0.9084667218  0.8839023065 -0.0562890195
H   0.6292375338  1.3600374012 -1.0133479922
O   0.8185929107  1.5074842130  0.9694635174
C   1.2537570567 -0.5691124344  0.0150147004
H   0.6893746923 -0.7676320845  0.9240799860
H   1.0258094961 -1.1614567466 -0.8756201834
H   2.2760031640 -0.7628540257  0.3306368317
7
Image 8  Energy = -153.93080363
C   0.8794155200  0.8951968522 -0.0038176983
H   0.7176872233  1.3395832480 -1.0047057310
O   0.7469160972  1.5717398289  0.9834649752
C   1.2429366476 -0.5618637909  0.0495276979
H   0.7087517101 -0.9928026723  0.8919526684
H   0.9978719978 -1.0824280876 -0.8749746442
H   2.3076625981 -0.6790584009  0.2524915147
7
Image 9  Energy = -153.93133625
C   0.8533052357  0.8905229779 -0.0003902351
H   0.8428401533  1.3390190511 -1.0129839751
O   0.5599385114  1.5542154895  0.9575876748
C   1.2522324685 -0.5566916139  0.0717217539
H   0.8211757512 -1.0057451104  0.9624382444
H   0.9330116082 -1.0937721568 -0.8205901682
H   2.3387376887 -0.6371817463  0.1361552029
7
Image 10  Energy = -153.93159549
C   0.8215485432  0.8809272299 -0.0116143039
H   0.9289470784  1.3334840954 -1.0172910911
O   0.3754073511  1.5238455376  0.8992294788
C   1.2746004448 -0.5475641483  0.0946208718
H   0.9443768345 -0.9820255197  1.0335135204
H   0.8924274259 -1.1274863612 -0.7454874894
H   2.3639338910 -0.5908139860  0.0409675229
7
Image 11  Energy = -153.93155684
C   0.7840367852  0.8656586589 -0.0371164025
H   0.9809293880  1.3403901038 -1.0231241499
O   0.1875804579  1.4681235287  0.8223429327
C   1.3100769769 -0.5359012779  0.1153731248
H   1.0639489065 -0.9236344469  1.1059940899
H   0.8779311114 -1.1816924395 -0.6582837811
H   2.3967379442 -0.5425772870 -0.0312469938
