7
Iter 0 Image 0  Energy = -153.9146221658
C   0.8260657415  0.5508603911 -0.1261794589
H   0.4554445983  1.2417513435 -0.8784317668
O   0.5680753083  1.0246514429  1.1187434847
C   1.4411098584 -0.5873603774 -0.4363613732
H   0.9099091373  0.3932317500  1.7666320721
H   1.5916834696 -0.8592929697 -1.4741885892
H   1.8089534565 -1.2734747403  0.3237244514
7
Iter 0 Image 1  Energy = -153.9130012189
C   0.8564327510  0.5803869406 -0.1583173061
H   0.4668302215  1.2409446513 -0.9237800600
O   0.7225553435  1.0926531132  1.0951805455
C   1.3973904983 -0.6033141010 -0.4112023696
H   0.8632031246  0.3605914460  1.7038862970
H   1.4262971172 -1.0251329194 -1.4029806200
H   1.8685322676 -1.1557621770  0.3911516594
7
Iter 0 Image 2  Energy = -153.9055186537
C   0.8848014139  0.6180914763 -0.1938411819
H   0.4827865797  1.2663604336 -0.9622570377
O   0.7858238930  1.0979635743  1.0750096167
C   1.3906662144 -0.5889799431 -0.3815481887
H   0.8520655148  0.2756375450  1.5724557491
H   1.2812231949 -1.1682005138 -1.2769387524
H   1.9238742868 -1.0105058115  0.4610572873
7
Iter 0 Image 3  Energy = -153.8836472316
C   0.9240454921  0.6662296749 -0.2044055102
H   0.5247467075  1.3384661891 -0.9492913834
O   0.8083226460  1.0507620331  1.0937952212
C   1.3912747802 -0.5701631274 -0.3353269791
H   0.7430532145  0.1270952996  1.3763739191
H   1.1412768052 -1.2341339733 -1.1327967812
H   2.0685215419 -0.8878893452  0.4455894392
7
Iter 0 Image 4  Energy = -153.8429303477
C   0.9270526264  0.7120563004 -0.1759029742
H   0.5680113752  1.3857985026 -0.9476728894
O   0.7906137315  1.0632983724  1.1076582307
C   1.3370822121 -0.5705694243 -0.2298856176
H   0.7289731485 -0.0198703222  1.1312504992
H   1.0665874439 -1.2452301750 -1.0076516076
H   2.1829206570 -0.8351163929  0.4161422217
7
Iter 0 Image 5  Energy = -153.8439407351
C   0.9214812879  0.7949666242 -0.1189778680
H   0.5731642907  1.3905865649 -0.9668442046
O   0.7975174617  1.2312900926  1.0346264937
C   1.2788645336 -0.5840558942 -0.1060551023
H   0.7561904641 -0.2825567839  1.0302825446
H   1.0579991611 -1.2259015743 -0.9740570163
H   2.2160240114 -0.8339621579  0.3949630707
7
Iter 0 Image 6  Energy = -153.9020973166
C   0.9207124104  0.8572191038 -0.0925685460
H   0.6165147438  1.3809050836 -1.0097277585
O   0.7935632893  1.4008205440  0.9794111888
C   1.2647902767 -0.5807688124 -0.0167590645
H   0.7427693642 -0.5530671075  0.9747268051
H   0.9904787972 -1.2154734224 -0.8701077152
H   2.2724121853 -0.7992686204  0.3289630758
7
Iter 0 Image 7  Energy = -153.9275511735
C   0.9012327673  0.8878835518 -0.0433675908
H   0.6799366975  1.3424294923 -1.0268547787
O   0.7576490052  1.5339244644  0.9608209809
C   1.2606833062 -0.5640567766  0.0434815364
H   0.7096382964 -0.8397425225  0.9389977755
H   0.9747035548 -1.1450336106 -0.8322980396
H   2.3173975611 -0.7250379357  0.2531576225
7
Iter 0 Image 8  Energy = -153.9310437461
C   0.8782246886  0.9002417592  0.0178770928
H   0.6822897512  1.3366407305 -0.9826786526
O   0.8221810055  1.5956940984  0.9932618601
C   1.2249648509 -0.5646953754  0.0535012993
H   0.6655900848 -1.0723338834  0.8385013673
H   1.0432265708 -1.0345113712 -0.9085542726
H   2.2847647038 -0.6706690755  0.2820301186
7
Iter 0 Image 9  Energy = -153.9312087983
C   0.8533412410  0.8937444185  0.0117210396
H   0.8178876038  1.3311793796 -1.0051703742
O   0.6140359418  1.5793249698  0.9700285532
C   1.2396162201 -0.5589608363  0.0728821611
H   0.7903822284 -1.0608734229  0.9270236344
H   0.9614862670 -1.0689878749 -0.8467224137
H   2.3244921221 -0.6250597668  0.1641761964
7
Iter 0 Image 10  Energy = -153.9315490056
C   0.8227670877  0.8822807927 -0.0105846934
H   0.9174207236  1.3282775479 -1.0199491465
O   0.3986891271  1.5393590120  0.9030185297
C   1.2697306107 -0.5487962456  0.0962358545
H   0.9346288641 -0.9985108349  1.0269165740
H   0.8985218366 -1.1222944443 -0.7525778738
H   2.3594833547 -0.5899489669  0.0508794895
7
Iter 0 Image 11  Energy = -153.9315568446
C   0.7840367852  0.8656586589 -0.0371164025
H   0.9809293880  1.3403901038 -1.0231241499
O   0.1875804579  1.4681235287  0.8223429327
C   1.3100769769 -0.5359012779  0.1153731248
H   1.0639489065 -0.9236344469  1.1059940899
H   0.8779311114 -1.1816924395 -0.6582837811
H   2.3967379442 -0.5425772870 -0.0312469938
7
Iter 1 Image 0  Energy = -153.9146221658
C   0.8260657415  0.5508603911 -0.1261794589
H   0.4554445983  1.2417513435 -0.8784317668
O   0.5680753083  1.0246514429  1.1187434847
C   1.4411098584 -0.5873603774 -0.4363613732
H   0.9099091373  0.3932317500  1.7666320721
H   1.5916834696 -0.8592929697 -1.4741885892
H   1.8089534565 -1.2734747403  0.3237244514
7
Iter 1 Image 1  Energy = -153.9129945249
C   0.8565534429  0.5803888095 -0.1582548027
H   0.4667952425  1.2410495675 -0.9237504995
O   0.7225921786  1.0926771842  1.0952041675
C   1.3971194963 -0.6032581258 -0.4111425061
H   0.8630651964  0.3602139171  1.7037931751
H   1.4264503972 -1.0250458942 -1.4030000617
H   1.8686653700 -1.1556585046  0.3910886756
7
Iter 1 Image 2  Energy = -153.9055525813
C   0.8850426550  0.6177660683 -0.1937586998
H   0.4826138722  1.2660052317 -0.9624122485
O   0.7856151403  1.0980507066  1.0749674418
C   1.3904781417 -0.5887807918 -0.3817659594
H   0.8525322318  0.2760533376  1.5729917108
H   1.2815361372 -1.1679100767 -1.2773335609
H   1.9234229183 -1.0108177150  0.4612488058
7
Iter 1 Image 3  Energy = -153.8835701429
C   0.9243983693  0.6665178273 -0.2046239212
H   0.5247276481  1.3384035046 -0.9491328541
O   0.8082557336  1.0506603671  1.0936629738
C   1.3915875755 -0.5701794308 -0.3349095849
H   0.7429026724  0.1267422273  1.3760101005
H   1.1406866732 -1.2342593623 -1.1325689667
H   2.0686825152 -0.8875183836  0.4455001789
7
Iter 1 Image 4  Energy = -153.8441120952
C   0.9272467881  0.7110052983 -0.1773615682
H   0.5670367191  1.3849970728 -0.9472825853
O   0.7909087085  1.0612136659  1.1083195201
C   1.3385430371 -0.5709753120 -0.2329705050
H   0.7288612971 -0.0148703222  1.1358046121
H   1.0677817341 -1.2450864389 -1.0096670652
H   2.1808629098 -0.8359171060  0.4170954553
7
Iter 1 Image 5  Energy = -153.8439277541
C   0.9216495904  0.7951494298 -0.1189676598
H   0.5728486153  1.3905108407 -0.9667848044
O   0.7976109338  1.2312301505  1.0342478442
C   1.2788390701 -0.5841593871 -0.1059257699
H   0.7562701965 -0.2824525811  1.0304904027
H   1.0580547911 -1.2257774042 -0.9742630355
H   2.2159680132 -0.8341341781  0.3951409432
7
Iter 1 Image 6  Energy = -153.9021004571
C   0.9209326447  0.8570673482 -0.0928498305
H   0.6167534659  1.3808671083 -1.0100119232
O   0.7932559651  1.4009242263  0.9790352577
C   1.2645458462 -0.5807884177 -0.0163533822
H   0.7430829575 -0.5528008441  0.9752755070
H   0.9899785690 -1.2155830235 -0.8695894209
H   2.2726916150 -0.7993196303  0.3284317785
7
Iter 1 Image 7  Energy = -153.9275656741
C   0.9013657296  0.8880137932 -0.0432041511
H   0.6800028163  1.3423149146 -1.0268149688
O   0.7572568758  1.5338853057  0.9608417959
C   1.2608566933 -0.5640820947  0.0436830259
H   0.7093346882 -0.8402399141  0.9389019163
H   0.9747785589 -1.1447029783 -0.8322386261
H   2.3176458275 -0.7248223646  0.2527685104
7
Iter 1 Image 8  Energy = -153.9310365484
C   0.8782308908  0.9004436379  0.0180847118
H   0.6822614741  1.3367633072 -0.9827719396
O   0.8221970672  1.5953628330  0.9928788799
C   1.2248718129 -0.5647416509  0.0535654795
H   0.6656142593 -1.0722502430  0.8386787410
H   1.0433561132 -1.0344905337 -0.9083840533
H   2.2847100377 -0.6707204679  0.2818869931
7
Iter 1 Image 9  Energy = -153.9312042395
C   0.8534418898  0.8936344891  0.0114860848
H   0.8177369500  1.3311890038 -1.0051419291
O   0.6142589407  1.5796028862  0.9702196881
C   1.2395395754 -0.5589534807  0.0729364959
H   0.7902285341 -1.0611515629  0.9269050400
H   0.9616432003 -1.0689150952 -0.8467124758
H   2.3243925343 -0.6250393732  0.1642458929
7
Iter 1 Image 10  Energy = -153.9315466481
C   0.8227912481  0.8821414507 -0.0108222969
H   0.9175268852  1.3282842619 -1.0199587643
O   0.3983761853  1.5395185998  0.9030870026
C   1.2697500511 -0.5487772304  0.0962905364
H   0.9348104279 -0.9985792647  1.0270541863
H   0.8984772112 -1.1223367744 -0.7524513308
H   2.3595095953 -0.5898841816  0.0507394010
7
Iter 1 Image 11  Energy = -153.9315568446
C   0.7840367852  0.8656586589 -0.0371164025
H   0.9809293880  1.3403901038 -1.0231241499
O   0.1875804579  1.4681235287  0.8223429327
C   1.3100769769 -0.5359012779  0.1153731248
H   1.0639489065 -0.9236344469  1.1059940899
H   0.8779311114 -1.1816924395 -0.6582837811
H   2.3967379442 -0.5425772870 -0.0312469938
7
Iter 2 Image 0  Energy = -153.9146221658
C   0.8260657415  0.5508603911 -0.1261794589
H   0.4554445983  1.2417513435 -0.8784317668
O   0.5680753083  1.0246514429  1.1187434847
C   1.4411098584 -0.5873603774 -0.4363613732
H   0.9099091373  0.3932317500  1.7666320721
H   1.5916834696 -0.8592929697 -1.4741885892
H   1.8089534565 -1.2734747403  0.3237244514
7
Iter 2 Image 1  Energy = -153.9129880029
C   0.8566651997  0.5803942047 -0.1581961177
H   0.4667625302  1.2411482301 -0.9237213175
O   0.7226273972  1.0926972639  1.0952291678
C   1.3968645363 -0.6032085379 -0.4110868420
H   0.8629337268  0.3598581210  1.7037042799
H   1.4265970864 -1.0249614472 -1.4030190402
H   1.8687908480 -1.1555608807  0.3910280184
7
Iter 2 Image 2  Energy = -153.9055836333
C   0.8852660098  0.6174689436 -0.1936821100
H   0.4824516174  1.2656670432 -0.9625574096
O   0.7854177954  1.0981312868  1.0749276256
C   1.3903063015 -0.5886021353 -0.3819690429
H   0.8529742057  0.2764472497  1.5734976622
H   1.2818311248 -1.1676345288 -1.2777065233
H   1.9229940414 -1.0111110985  0.4614272845
7
Iter 2 Image 3  Energy = -153.8834983209
C   0.9247355154  0.6667816928 -0.2048305839
H   0.5247055747  1.3383431191 -0.9489843513
O   0.8081932898  1.0505591642  1.0935393104
C   1.3918831050 -0.5701933855 -0.3345318223
H   0.7427597690  0.1264229708  1.3756800907
H   1.1401323889 -1.2343758305 -1.1323568414
H   2.0688315446 -0.8871709828  0.4454221255
7
Iter 2 Image 4  Energy = -153.8451453020
C   0.9274778753  0.7099087003 -0.1788175184
H   0.5663505346  1.3845166569 -0.9468196917
O   0.7910584158  1.0585479807  1.1093519370
C   1.3398409578 -0.5712748929 -0.2357654256
H   0.7285531683 -0.0098703222  1.1390262292
H   1.0684915547 -1.2451070026 -1.0109548115
H   2.1794686864 -0.8363542646  0.4179171434
7
Iter 2 Image 5  Energy = -153.8438940992
C   0.9218294715  0.7952296319 -0.1190977775
H   0.5727064438  1.3903728684 -0.9668299140
O   0.7976549925  1.2311903775  1.0339686770
C   1.2790038992 -0.5841899291 -0.1059582477
H   0.7561783449 -0.2823795979  1.0309036085
H   1.0578669305 -1.2256945787 -0.9741707786
H   2.2160011280 -0.8341619009  0.3951223547
7
Iter 2 Image 6  Energy = -153.9021034421
C   0.9211393918  0.8569271219 -0.0931151545
H   0.6169801720  1.3808300228 -1.0102818002
O   0.7929652289  1.4010234287  0.9786761736
C   1.2643173716 -0.5808093119 -0.0159691334
H   0.7433804851 -0.5525496969  0.9757975237
H   0.9895034407 -1.2156866925 -0.8690972633
H   2.2729549711 -0.7993681070  0.3279276424
7
Iter 2 Image 7  Energy = -153.9275789875
C   0.9014914828  0.8881339835 -0.0430512953
H   0.6800661193  1.3422063818 -1.0267772622
O   0.7568838946  1.5338496168  0.9608638298
C   1.2610197689 -0.5641050014  0.0438744216
H   0.7090481612 -0.8407104347  0.9388108973
H   0.9748495336 -1.1443894245 -0.8321824764
H   2.3178822299 -0.7246184603  0.2523993845
7
Iter 2 Image 8  Energy = -153.9310282099
C   0.8782372254  0.9006247759  0.0182664849
H   0.6822349281  1.3368793374 -0.9828596668
O   0.8222116106  1.5950586188  0.9925293886
C   1.2247841320 -0.5647840644  0.0536273069
H   0.6656370177 -1.0721710998  0.8388476149
H   1.0434786058 -1.0344713549 -0.9082234910
H   2.2846581353 -0.6707693307  0.2817511739
7
Iter 2 Image 9  Energy = -153.9311991489
C   0.8535343858  0.8935368480  0.0112737984
H   0.8175953741  1.3311981926 -1.0051160943
O   0.6144710770  1.5798602941  0.9703915815
C   1.2394670408 -0.5589469675  0.0729881823
H   0.7900838849 -1.0614154129  0.9267931244
H   0.9617913116 -1.0688466384 -0.8467028217
H   2.3242985506 -0.6250194490  0.1643110264
7
Iter 2 Image 10  Energy = -153.9315438044
C   0.8228101736  0.8820155702 -0.0110382587
H   0.9176272348  1.3282907330 -1.0199684135
O   0.3980840703  1.5396642938  0.9031436925
C   1.2697684180 -0.5487598698  0.0963425143
H   0.9349822564 -0.9986442300  1.0271838657
H   0.8984352356 -1.1223768309 -0.7523316193
H   2.3595342155 -0.5898228050  0.0506069529
7
Iter 2 Image 11  Energy = -153.9315568446
C   0.7840367852  0.8656586589 -0.0371164025
H   0.9809293880  1.3403901038 -1.0231241499
O   0.1875804579  1.4681235287  0.8223429327
C   1.3100769769 -0.5359012779  0.1153731248
H   1.0639489065 -0.9236344469  1.1059940899
H   0.8779311114 -1.1816924395 -0.6582837811
H   2.3967379442 -0.5425772870 -0.0312469938
7
Iter 3 Image 0  Energy = -153.9146221658
C   0.8260657415  0.5508603911 -0.1261794589
H   0.4554445983  1.2417513435 -0.8784317668
O   0.5680753083  1.0246514429  1.1187434847
C   1.4411098584 -0.5873603774 -0.4363613732
H   0.9099091373  0.3932317500  1.7666320721
H   1.5916834696 -0.8592929697 -1.4741885892
H   1.8089534565 -1.2734747403  0.3237244514
7
Iter 3 Image 1  Energy = -153.9129809645
C   0.8567875811  0.5803888142 -0.1581342659
H   0.4667276196  1.2412517416 -0.9236947255
O   0.7226625877  1.0927258065  1.0952474506
C   1.3965972755 -0.6031473072 -0.4110267114
H   0.8628009460  0.3594871195  1.7036150751
H   1.4267438511 -1.0248801733 -1.4030371984
H   1.8689214647 -1.1554590477  0.3909685229
7
Iter 3 Image 2  Energy = -153.9056137665
C   0.8855110619  0.6171303526 -0.1935991846
H   0.4822810416  1.2653245440 -0.9627120350
O   0.7852137372  1.0982198791  1.0748863211
C   1.3901110883 -0.5883883383 -0.3821865827
H   0.8534287393  0.2768514555  1.5740222492
H   1.2821380844 -1.1673527244 -1.2780925462
H   1.9225573433 -1.0114184083  0.4616192591
7
Iter 3 Image 3  Energy = -153.8834187686
C   0.9250730197  0.6670782661 -0.2050441363
H   0.5246898378  1.3382792352 -0.9488278683
O   0.8081289189  1.0504759668  1.0934026802
C   1.3921925431 -0.5702131622 -0.3340986173
H   0.7426164002  0.1260544498  1.3753201043
H   1.1395566851 -1.2344999607 -1.1321397622
H   2.0689837827 -0.8868080489  0.4453255308
7
Iter 3 Image 4  Energy = -153.8461498487
C   0.9276981964  0.7088585594 -0.1802966413
H   0.5656491437  1.3840084973 -0.9463503132
O   0.7912022352  1.0559316662  1.1104254139
C   1.3410796887 -0.5716643792 -0.2386165137
H   0.7282765309 -0.0048703222  1.1422406308
H   1.0692530595 -1.2450688418 -1.0122336097
H   2.1780823385 -0.8368283252  0.4187688915
7
Iter 3 Image 5  Energy = -153.8438691294
C   0.9220142250  0.7953212490 -0.1192481074
H   0.5725691828  1.3902224293 -0.9668833222
O   0.7976966131  1.2312015655  1.0336757425
C   1.2791807303 -0.5842285738 -0.1059947636
H   0.7560877017 -0.2823594232  1.0313632824
H   1.0576713778 -1.2256015171 -0.9740621172
H   2.2160213811 -0.8341888533  0.3950872100
7
Iter 3 Image 6  Energy = -153.9021053034
C   0.9213568562  0.8567746119 -0.0933888626
H   0.6172081339  1.3807962777 -1.0105552014
O   0.7926662210  1.4011232061  0.9783142495
C   1.2640697401 -0.5808256393 -0.0155707159
H   0.7436886942 -0.5522882587  0.9763236483
H   0.9890237773 -1.2157928842 -0.8686009788
H   2.2732276379 -0.7994205493  0.3274158517
7
Iter 3 Image 7  Energy = -153.9275924006
C   0.9016211642  0.8882667648 -0.0428880277
H   0.6801293265  1.3420948066 -1.0267384607
O   0.7565047429  1.5338085486  0.9608794917
C   1.2611907475 -0.5641315369  0.0440695886
H   0.7087505942 -0.8411958380  0.9387179521
H   0.9749227559 -1.1440680704 -0.8321244556
H   2.3181218588 -0.7244080129  0.2520214079
7
Iter 3 Image 8  Energy = -153.9310165634
C   0.8782423084  0.9008417466  0.0184987789
H   0.6822069277  1.3369989829 -0.9829519725
O   0.8222284770  1.5947163213  0.9921291038
C   1.2246928623 -0.5648317215  0.0536878459
H   0.6656609018 -1.0720888232  0.8390191850
H   1.0436049546 -1.0344504337 -0.9080562644
H   2.2846052228 -0.6708191908  0.2816121318
7
Iter 3 Image 9  Energy = -153.9311926012
C   0.8536376512  0.8934177123  0.0110257344
H   0.8174461910  1.3312074097 -1.0050861993
O   0.6146872362  1.5801419225  0.9705948285
C   1.2393921793 -0.5589389432  0.0730406901
H   0.7899320926 -1.0616856401  0.9266766497
H   0.9619454099 -1.0687747437 -0.8466937519
H   2.3242008643 -0.6250008514  0.1643808462
7
Iter 3 Image 10  Energy = -153.9315396842
C   0.8228413186  0.8818682061 -0.0112869945
H   0.9177309258  1.3282970405 -1.0199766549
O   0.3977712168  1.5398302158  0.9032258719
C   1.2697873646 -0.5487401084  0.0963954134
H   0.9351593209 -0.9987107248  1.0273190635
H   0.8983912807 -1.1224180337 -0.7522081111
H   2.3595601769 -0.5897597354  0.0504701451
7
Iter 3 Image 11  Energy = -153.9315568446
C   0.7840367852  0.8656586589 -0.0371164025
H   0.9809293880  1.3403901038 -1.0231241499
O   0.1875804579  1.4681235287  0.8223429327
C   1.3100769769 -0.5359012779  0.1153731248
H   1.0639489065 -0.9236344469  1.1059940899
H   0.8779311114 -1.1816924395 -0.6582837811
H   2.3967379442 -0.5425772870 -0.0312469938
7
Iter 4 Image 0  Energy = -153.9146221658
C   0.8260657415  0.5508603911 -0.1261794589
H   0.4554445983  1.2417513435 -0.8784317668
O   0.5680753083  1.0246514429  1.1187434847
C   1.4411098584 -0.5873603774 -0.4363613732
H   0.9099091373  0.3932317500  1.7666320721
H   1.5916834696 -0.8592929697 -1.4741885892
H   1.8089534565 -1.2734747403  0.3237244514
7
Iter 4 Image 1  Energy = -153.9129731743
C   0.8569186578  0.5803731673 -0.1580697972
H   0.4666908550  1.2413592358 -0.9236702271
O   0.7226974984  1.0927612570  1.0952603815
C   1.3963200912 -0.6030754255 -0.4109631445
H   0.8626672486  0.3591042446  1.7035262835
H   1.4268910915 -1.0248009701 -1.4030553426
H   1.8690558847 -1.1553545546  0.3909099906
7
Iter 4 Image 2  Energy = -153.9056424020
C   0.8857753027  0.6167542694 -0.1935113825
H   0.4821038328  1.2649802462 -0.9628745814
O   0.7850044185  1.0983152696  1.0748440392
C   1.3898957849 -0.5881421293 -0.3824147404
H   0.8538922843  0.2772624282  1.5745599271
H   1.2824532319 -1.1670669853 -1.2784880720
H   1.9221162417 -1.0117363381  0.4618222838
7
Iter 4 Image 3  Energy = -153.8833334174
C   0.9254092399  0.6673998573 -0.2052643285
H   0.5246783469  1.3382117593 -0.9486643765
O   0.8080641654  1.0504063383  1.0932553713
C   1.3925174965 -0.5702383572 -0.3336252041
H   0.7424716574  0.1256520104  1.3749439615
H   1.1389654984 -1.2346311847 -1.1319220084
H   2.0691347838 -0.8864336808  0.4452145201
7
Iter 4 Image 4  Energy = -153.8471214803
C   0.9279089459  0.7078433881 -0.1817935284
H   0.5649340258  1.3834770992 -0.9458772207
O   0.7913466003  1.0533447037  1.1115291905
C   1.3422657431 -0.5721193085 -0.2415081167
H   0.7280286601  0.0001296778  1.1454383660
H   1.0700566390 -1.2449781023 -1.0135000221
H   2.1767005785 -0.8373306049  0.4196491831
7
Iter 4 Image 5  Energy = -153.8438485897
C   0.9222033630  0.7954184860 -0.1194218894
H   0.5724340656  1.3900622774 -0.9669406704
O   0.7977364194  1.2312520075  1.0333795269
C   1.2793705770 -0.5842745266 -0.1060402496
H   0.7559966550 -0.2823745229  1.0318642127
H   1.0574721266 -1.2255010793 -0.9739444896
H   2.2160280072 -0.8342157589  0.3950414848
7
Iter 4 Image 6  Energy = -153.9021061369
C   0.9215823425  0.8566121092 -0.0936691629
H   0.6174368115  1.3807650087 -1.0108314160
O   0.7923611178  1.4012232177  0.9779508727
C   1.2638071019 -0.5808378036 -0.0151610390
H   0.7440052232 -0.5520182893  0.9768519395
H   0.9885405025 -1.2159013235 -0.8681019999
H   2.2735079618 -0.7994761580  0.3268988007
7
Iter 4 Image 7  Energy = -153.9276057656
C   0.9017531420  0.8884099920 -0.0427152053
H   0.6801927066  1.3419809220 -1.0266989158
O   0.7561209786  1.5337623130  0.9608887072
C   1.2613678744 -0.5641609260  0.0442673046
H   0.7084451356 -0.8416919521  0.9386238518
H   0.9749975618 -1.1437409042 -0.8320649781
H   2.3183637903 -0.7241927814  0.2516367294
7
Iter 4 Image 8  Energy = -153.9310006976
C   0.8782458802  0.9010928987  0.0187797464
H   0.6821777860  1.3371214742 -0.9830484150
O   0.8222475513  1.5943385451  0.9916807731
C   1.2245989544 -0.5648839208  0.0537468518
H   0.6656857108 -1.0720036463  0.8391930275
H   1.0437340944 -1.0344286610 -0.9078838598
H   2.2845516768 -0.6708698092  0.2814706808
7
Iter 4 Image 9  Energy = -153.9311841801
C   0.8537502133  0.8932788225  0.0107453832
H   0.8172911415  1.3312164621 -1.0050527922
O   0.6149055797  1.5804452836  0.9708264891
C   1.2393155099 -0.5589294443  0.0730940220
H   0.7897747874 -1.0619608435  0.9265566446
H   0.9621040541 -1.0687001520 -0.8466853183
H   2.3241003376 -0.6249832633  0.1644543702
7
Iter 4 Image 10  Energy = -153.9315339031
C   0.8228841345  0.8817011913 -0.0115655203
H   0.9178368165  1.3283030585 -1.0199833813
O   0.3974411006  1.5400148086  0.9033320075
C   1.2698065241 -0.5487181830  0.0964491090
H   0.9353400282 -0.9987786876  1.0274581718
H   0.8983459552 -1.1224599176 -0.7520819978
H   2.3595870458 -0.5896954119  0.0503303433
7
Iter 4 Image 11  Energy = -153.9315568446
C   0.7840367852  0.8656586589 -0.0371164025
H   0.9809293880  1.3403901038 -1.0231241499
O   0.1875804579  1.4681235287  0.8223429327
C   1.3100769769 -0.5359012779  0.1153731248
H   1.0639489065 -0.9236344469  1.1059940899
H   0.8779311114 -1.1816924395 -0.6582837811
H   2.3967379442 -0.5425772870 -0.0312469938
7
Iter 5 Image 0  Energy = -153.9146221658
C   0.8260657415  0.5508603911 -0.1261794589
H   0.4554445983  1.2417513435 -0.8784317668
O   0.5680753083  1.0246514429  1.1187434847
C   1.4411098584 -0.5873603774 -0.4363613732
H   0.9099091373  0.3932317500  1.7666320721
H   1.5916834696 -0.8592929697 -1.4741885892
H   1.8089534565 -1.2734747403  0.3237244514
7
Iter 5 Image 1  Energy = -153.9129646841
C   0.8570578567  0.5803468501 -0.1580029025
H   0.4666523100  1.2414704747 -0.9236475981
O   0.7227319746  1.0928030025  1.0952686276
C   1.3960336564 -0.6029927575 -0.4108965121
H   0.8625327243  0.3587107397  1.7034383001
H   1.4270392490 -1.0247231775 -1.4030740572
H   1.8691935586 -1.1552481771  0.3908522819
7
Iter 5 Image 2  Energy = -153.9056688285
C   0.8860587153  0.6163402798 -0.1934193796
H   0.4819205639  1.2646354870 -0.9630446665
O   0.7847902941  1.0984171464  1.0748010616
C   1.3896609828 -0.5878626133 -0.3826514510
H   0.8543633896  0.2776784444  1.5751080786
H   1.2827747362 -1.1667784662 -1.2788916763
H   1.9216724158 -1.0120635176  0.4620354999
7
Iter 5 Image 3  Energy = -153.8832430824
C   0.9257433605  0.6677434261 -0.2054915484
H   0.5246701775  1.3381406147 -0.9484939856
O   0.8079997332  1.0503474848  1.0930987432
C   1.3928596994 -0.5702694531 -0.3331187586
H   0.7423247431  0.1252235554  1.3745580885
H   1.1383610859 -1.2347695047 -1.1317054134
H   2.0692823895 -0.8860493846  0.4450908153
7
Iter 5 Image 4  Energy = -153.8480556216
C   0.9281112241  0.7068574074 -0.1833048150
H   0.5642050307  1.3829243034 -0.9454030878
O   0.7914964765  1.0507710703  1.1126548676
C   1.3433981847 -0.5726228435 -0.2444266323
H   0.7278107477  0.0051296778  1.1486102995
H   1.0708980585 -1.2448356851 -1.0147509822
H   2.1753214702 -0.8378570781  0.4205581941
7
Iter 5 Image 5  Energy = -153.8438296617
C   0.9223969112  0.7955178849 -0.1196235504
H   0.5722994825  1.3898934565 -0.9669994242
O   0.7977745563  1.2313371683  1.0330871808
C   1.2795747663 -0.5843279271 -0.1060977770
H   0.7559042702 -0.2824160279  1.0324052184
H   1.0572712387 -1.2253945623 -0.9738219572
H   2.2160199915 -0.8342430978  0.3949882355
7
Iter 5 Image 6  Energy = -153.9021058603
C   0.9218147234  0.8564404696 -0.0939554118
H   0.6176661453  1.3807357660 -1.0111104455
O   0.7920507016  1.4013234405  0.9775864219
C   1.2635311308 -0.5808458765 -0.0147409181
H   0.7443292959 -0.5517403758  0.9773817697
H   0.9880535452 -1.2160120357 -0.8676006151
H   2.2737955208 -0.7995346294  0.3263771992
7
Iter 5 Image 7  Energy = -153.9276187039
C   0.9018865969  0.8885630954 -0.0425324145
H   0.6802564681  1.3418649954 -1.0266588097
O   0.7557330716  1.5337105673  0.9608908669
C   1.2615504434 -0.5641928437  0.0444670907
H   0.7081330817 -0.8421971197  0.9385288918
H   0.9750737106 -1.1434085839 -0.8320041791
H   2.3186078162 -0.7239734452  0.2512460456
7
Iter 5 Image 8  Energy = -153.9309794000
C   0.8782476159  0.9013805309  0.0191129890
H   0.6821475987  1.3372466217 -0.9831491481
O   0.8222689235  1.5939233554  0.9911812934
C   1.2245028887 -0.5649405569  0.0538040858
H   0.6657114179 -1.0719152141  0.8393692650
H   1.0438655484 -1.0344066861 -0.9077067256
H   2.2844976603 -0.6709211713  0.2813270404
7
Iter 5 Image 9  Energy = -153.9311734683
C   0.8538718278  0.8931199290  0.0104326697
H   0.8171306978  1.3312252349 -1.0050159462
O   0.6151254626  1.5807704208  0.9710867170
C   1.2392371466 -0.5589184220  0.0731482982
H   0.7896124196 -1.0622406282  0.9264333389
H   0.9622668178 -1.0686230752 -0.8466776674
H   2.3239972501 -0.6249665958  0.1645313899
7
Iter 5 Image 10  Energy = -153.9315261659
C   0.8229391281  0.8815142136 -0.0118742042
H   0.9179443790  1.3283086891 -1.0199883926
O   0.3970945547  1.5402184969  0.9034628535
C   1.2698257186 -0.5486940734  0.0965036385
H   0.9355237152 -0.9988482270  1.0276004887
H   0.8982995318 -1.1225022494 -0.7519537895
H   2.3596145783 -0.5896299942  0.0501881367
7
Iter 5 Image 11  Energy = -153.9315568446
C   0.7840367852  0.8656586589 -0.0371164025
H   0.9809293880  1.3403901038 -1.0231241499
O   0.1875804579  1.4681235287  0.8223429327
C   1.3100769769 -0.5359012779  0.1153731248
H   1.0639489065 -0.9236344469  1.1059940899
H   0.8779311114 -1.1816924395 -0.6582837811
H   2.3967379442 -0.5425772870 -0.0312469938
7
Iter 6 Image 0  Energy = -153.9146221658
C   0.8260657415  0.5508603911 -0.1261794589
H   0.4554445983  1.2417513435 -0.8784317668
O   0.5680753083  1.0246514429  1.1187434847
C   1.4411098584 -0.5873603774 -0.4363613732
H   0.9099091373  0.3932317500  1.7666320721
H   1.5916834696 -0.8592929697 -1.4741885892
H   1.8089534565 -1.2734747403  0.3237244514
7
Iter 6 Image 1  Energy = -153.9129554526
C   0.8572050395  0.5803090783 -0.1579336585
H   0.4666119674  1.2415854012 -0.9236267282
O   0.7227658836  1.0928507080  1.0952726580
C   1.3957380884 -0.6028987107 -0.4108270076
H   0.8623973918  0.3583072981  1.7033514207
H   1.4271887693 -1.0246462788 -1.4030938904
H   1.8693341919 -1.1551405409  0.3907953395
7
Iter 6 Image 2  Energy = -153.9056921013
C   0.8863623180  0.6158859993 -0.1933237174
H   0.4817314675  1.2642914161 -0.9632223009
O   0.7845715139  1.0985255511  1.0747576981
C   1.3894062058 -0.5875471625 -0.3828950328
H   0.8548411390  0.2780981850  1.5756648135
H   1.2831012562 -1.1664880997 -1.2793025558
H   1.9212271987 -1.0123991279  0.4622585539
7
Iter 6 Image 3  Energy = -153.8831478682
C   0.9260746710  0.6681075330 -0.2057264463
H   0.5246648633  1.3380657929 -0.9483165226
O   0.8079360146  1.0502967837  1.0929341661
C   1.3932208764 -0.5703074736 -0.3325840987
H   0.7421748854  0.1247749862  1.3741662883
H   1.1377445752 -1.2349150399 -1.1314908368
H   2.0694253043 -0.8856558475  0.4449553984
7
Iter 6 Image 4  Energy = -153.8489479180
C   0.9283063532  0.7058967245 -0.1848267647
H   0.5634615596  1.3823515108 -0.9449310110
O   0.7916565980  1.0481936536  1.1137927289
C   1.3444735160 -0.5731580803 -0.2473556541
H   0.7276255669  0.0101296778  1.1517465779
H   1.0717741937 -1.2446416882 -1.0159839734
H   2.1739434052 -0.8384049474  0.4214959304
7
Iter 6 Image 5  Energy = -153.8438105480
C   0.9225950055  0.7956166251 -0.1198581894
H   0.5721641312  1.3897166469 -0.9670573801
O   0.7978109483  1.2314547185  1.0328054146
C   1.2797945633 -0.5843893238 -0.1061695137
H   0.7558099082 -0.2824775814  1.0329856047
H   1.0570702989 -1.2252828709 -0.9736977977
H   2.2159963648 -0.8342713081  0.3949297889
7
Iter 6 Image 6  Energy = -153.9021046266
C   0.9220532915  0.8562602018 -0.0942472448
H   0.6178962257  1.3807082087 -1.0113924528
O   0.7917353880  1.4014238579  0.9772209295
C   1.2632428046 -0.5808498129 -0.0143105720
H   0.7446605463 -0.5514548050  0.9779128486
H   0.9875625727 -1.2161251143 -0.8670967837
H   2.2740902374 -0.7995957803  0.3258512816
7
Iter 6 Image 7  Energy = -153.9276314577
C   0.9020209050  0.8887260873 -0.0423386797
H   0.6803207900  1.3417471684 -1.0266182566
O   0.7553412520  1.5336526804  0.9608849839
C   1.2617380673 -0.5642270761  0.0446686738
H   0.7078152058 -0.8427103715  0.9384332410
H   0.9751510837 -1.1430714249 -0.8319421371
H   2.3188538835 -0.7237503948  0.2508496645
7
Iter 6 Image 8  Energy = -153.9309509562
C   0.8782471076  0.9017092718  0.0195053897
H   0.6821163877  1.3373744078 -0.9832545973
O   0.8222927837  1.5934663147  0.9906242362
C   1.2244049934 -0.5650017467  0.0538591959
H   0.6657380711 -1.0718228407  0.8395482303
H   1.0439989624 -1.0343851735 -0.9075249223
H   2.2844433469 -0.6709733546  0.2811812614
7
Iter 6 Image 9  Energy = -153.9311599840
C   0.8540027217  0.8929399349  0.0100861251
H   0.8169648589  1.3312336311 -1.0049755370
O   0.6153466647  1.5811183261  0.9713768930
C   1.2391570909 -0.5589057037  0.0732036502
H   0.7894449830 -1.0625248986  0.9263066972
H   0.9624336165 -1.0685435582 -0.8466710404
H   2.3238916855 -0.6249508699  0.1646120140
7
Iter 6 Image 10  Energy = -153.9315158457
C   0.8230073131  0.8813060816 -0.0122147990
H   0.9180532477  1.3283138272 -1.0199914266
O   0.3967314952  1.5404425306  0.9036202026
C   1.2698447339 -0.5486676615  0.0965591147
H   0.9357099822 -0.9989195048  1.0277455597
H   0.8982521825 -1.1225448569 -0.7518238246
H   2.3596426519 -0.5895635640  0.0500439026
7
Iter 6 Image 11  Energy = -153.9315568446
C   0.7840367852  0.8656586589 -0.0371164025
H   0.9809293880  1.3403901038 -1.0231241499
O   0.1875804579  1.4681235287  0.8223429327
C   1.3100769769 -0.5359012779  0.1153731248
H   1.0639489065 -0.9236344469  1.1059940899
H   0.8779311114 -1.1816924395 -0.6582837811
H   2.3967379442 -0.5425772870 -0.0312469938
7
Iter 7 Image 0  Energy = -153.9146221658
C   0.8260657415  0.5508603911 -0.1261794589
H   0.4554445983  1.2417513435 -0.8784317668
O   0.5680753083  1.0246514429  1.1187434847
C   1.4411098584 -0.5873603774 -0.4363613732
H   0.9099091373  0.3932317500  1.7666320721
H   1.5916834696 -0.8592929697 -1.4741885892
H   1.8089534565 -1.2734747403  0.3237244514
7
Iter 7 Image 1  Energy = -153.9129453892
C   0.8573602298  0.5802588904 -0.1578622047
H   0.4665697945  1.2417039880 -0.9236075533
O   0.7227990971  1.0929041226  1.0952729324
C   1.3954333282 -0.6027924953 -0.4107547537
H   0.8622612750  0.3578945318  1.7032659010
H   1.4273400451 -1.0245698606 -1.4031153471
H   1.8694775651 -1.1550322209  0.3907391517
7
Iter 7 Image 2  Energy = -153.9057114647
C   0.8866875625  0.6153881980 -0.1932249402
H   0.4815366670  1.2639492142 -0.9634076293
O   0.7843481721  1.0986405888  1.0747142732
C   1.3891305686 -0.5871923104 -0.3831436669
H   0.8553247044  0.2785204041  1.5762284049
H   1.2834315675 -1.1661968574 -1.2797201606
H   1.9207818590 -1.0127424751  0.4624911693
7
Iter 7 Image 3  Energy = -153.8830479964
C   0.9264024653  0.6684914317 -0.2059697382
H   0.5246622384  1.3379874075 -0.9481317492
O   0.8078731548  1.0502515059  1.0927634089
C   1.3936022430 -0.5703538338 -0.3320252338
H   0.7420214079  0.1243114570  1.3737706243
H   1.1371167177 -1.2350677719 -1.1312783730
H   2.0695629643 -0.8852534663  0.4448090176
7
Iter 7 Image 4  Energy = -153.8497943655
C   0.9284960215  0.7049580449 -0.1863541418
H   0.5627031444  1.3817605570 -0.9444644505
O   0.7918312206  1.0455940575  1.1149309246
C   1.3454878606 -0.5737063437 -0.2502749816
H   0.7274763679  0.0151296778  1.1548369416
H   1.0726815292 -1.2443974731 -1.0171976194
H   2.1725650485 -0.8389716721  0.4224611499
7
Iter 7 Image 5  Energy = -153.8437894963
C   0.9227976673  0.7957124111 -0.1201307983
H   0.5720269534  1.3895325390 -0.9671124578
O   0.7978453734  1.2316030848  1.0325407390
C   1.2800307197 -0.5844594826 -0.1062565852
H   0.7557132274 -0.2825540354  1.0336037192
H   1.0568706477 -1.2251668069 -0.9735748811
H   2.2159566351 -0.8343007910  0.3948681920
7
Iter 7 Image 6  Energy = -153.9021022302
C   0.9222974634  0.8560717262 -0.0945442051
H   0.6181271699  1.3806820581 -1.0116776383
O   0.7914155170  1.4015244330  0.9768542889
C   1.2629429734 -0.5808494921 -0.0138701365
H   0.7449986505 -0.5511618813  0.9784449704
H   0.9870672543 -1.2162406605 -0.8665904321
H   2.2743920413 -0.7996594305  0.3253211661
7
Iter 7 Image 7  Energy = -153.9276437471
C   0.9021555277  0.8888992037 -0.0421327415
H   0.6803857878  1.3416275878 -1.0265774099
O   0.7549457903  1.5335878847  0.9608698676
C   1.2619303811 -0.5642634726  0.0448717895
H   0.7074921217 -0.8432309087  0.9383370270
H   0.9752296042 -1.1427296761 -0.8318789058
H   2.3191019729 -0.7235239464  0.2504478616
7
Iter 7 Image 8  Energy = -153.9309129068
C   0.8782438677  0.9020853393  0.0199661137
H   0.6820841426  1.3375048684 -0.9833653390
O   0.8223193633  1.5929613374  0.9900009344
C   1.2243056525 -0.5650677546  0.0539117763
H   0.6657657736 -1.0717255558  0.8397303379
H   1.0441339602 -1.0343648674 -0.9073383657
H   2.2843888924 -0.6710264894  0.2810333299
7
Iter 7 Image 9  Energy = -153.9311430728
C   0.8541432692  0.8927375583  0.0097039088
H   0.8167933799  1.3312415724 -1.0049313516
O   0.6155692373  1.5814902012  0.9716987211
C   1.2390753157 -0.5588911343  0.0732602025
H   0.7892722616 -1.0628135791  0.9261765441
H   0.9626045243 -1.0684615633 -0.8466657520
H   2.3237836315 -0.6249361950  0.1646965316
7
Iter 7 Image 10  Energy = -153.9315023894
C   0.8230898931  0.8810752716 -0.0125895730
H   0.9181631082  1.3283183630 -1.0199921725
O   0.3963515217  1.5406884428  0.9038062387
C   1.2698634329 -0.5486387551  0.0966156783
H   0.9358984944 -0.9989926748  1.0278930129
H   0.8982040318 -1.1225876098 -0.7516924085
H   2.3596711253 -0.5894961889  0.0498979509
7
Iter 7 Image 11  Energy = -153.9315568446
C   0.7840367852  0.8656586589 -0.0371164025
H   0.9809293880  1.3403901038 -1.0231241499
O   0.1875804579  1.4681235287  0.8223429327
C   1.3100769769 -0.5359012779  0.1153731248
H   1.0639489065 -0.9236344469  1.1059940899
H   0.8779311114 -1.1816924395 -0.6582837811
H   2.3967379442 -0.5425772870 -0.0312469938
7
Iter 8 Image 0  Energy = -153.9146221658
C   0.8260657415  0.5508603911 -0.1261794589
H   0.4554445983  1.2417513435 -0.8784317668
O   0.5680753083  1.0246514429  1.1187434847
C   1.4411098584 -0.5873603774 -0.4363613732
H   0.9099091373  0.3932317500  1.7666320721
H   1.5916834696 -0.8592929697 -1.4741885892
H   1.8089534565 -1.2734747403  0.3237244514
7
Iter 8 Image 1  Energy = -153.9129342350
C   0.8575234290  0.5801954623 -0.1577887211
H   0.4665257710  1.2418261741 -0.9235900309
O   0.7228315039  1.0929629606  1.0952699152
C   1.3951193922 -0.6026734593 -0.4106798362
H   0.8621244262  0.3574731849  1.7031819299
H   1.4274933585 -1.0244936218 -1.4031388489
H   1.8696234569 -1.1549237441  0.3906837103
7
Iter 8 Image 2  Energy = -153.9057257030
C   0.8870357791  0.6148438724 -0.1931236814
H   0.4813363349  1.2636100051 -0.9636006866
O   0.7841204153  1.0987623520  1.0746711276
C   1.3888332544 -0.5867947413 -0.3833954293
H   0.8558132092  0.2789438462  1.5767971447
H   1.2837645043 -1.1659057553 -1.2801439924
H   1.9203376063 -1.0130928164  0.4627329588
7
Iter 8 Image 3  Energy = -153.8829433716
C   0.9267260786  0.6688946181 -0.2062219830
H   0.5246623280  1.3379057292 -0.9479395511
O   0.8078110837  1.0502087302  1.0925886783
C   1.3940040911 -0.5704101592 -0.3314459413
H   0.7418638706  0.1238377253  1.3733716846
H   1.1364782424 -1.2352273264 -1.1310673875
H   2.0696954987 -0.8848425919  0.4446524649
7
Iter 8 Image 4  Energy = -153.8505914261
C   0.9286822901  0.7040381476 -0.1878800350
H   0.5619298668  1.3811541974 -0.9440069327
O   0.7920234161  1.0429544789  1.1160563827
C   1.3464390666 -0.5742480209 -0.2531620023
H   0.7273657195  0.0201296778  1.1578720813
H   1.0736153664 -1.2441071033 -1.0183923760
H   2.1711854669 -0.8395545302  0.4234506914
7
Iter 8 Image 5  Energy = -153.8437655478
C   0.9230047308  0.7958034684 -0.1204452094
H   0.5718872415  1.3893419288 -0.9671628617
O   0.7978775314  1.2317807919  1.0322988593
C   1.2802830993 -0.5845390742 -0.1063589670
H   0.7556141425 -0.2826411857  1.0342564029
H   1.0566732903 -1.2250471478 -0.9734555088
H   2.2159011929 -0.8343318480  0.3948052133
7
Iter 8 Image 6  Energy = -153.9020988904
C   0.9225466376  0.8558756315 -0.0948456568
H   0.6183590770  1.3806570566 -1.0119660964
O   0.7910914849  1.4016250407  0.9764862808
C   1.2626325774 -0.5808448625 -0.0134199733
H   0.7453431438 -0.5508620795  0.9789779806
H   0.9865674233 -1.2163586782 -0.8660815273
H   2.2747007302 -0.7997253597  0.3247870139
7
Iter 8 Image 7  Energy = -153.9276555327
C   0.9022899795  0.8890826961 -0.0419133762
H   0.6804515068  1.3415064335 -1.0265364206
O   0.7545470977  1.5335154361  0.9608443239
C   1.2621269668 -0.5643018585  0.0450761659
H   0.7071644081 -0.8437579156  0.9382403503
H   0.9753092019 -1.1423836774 -0.8318145629
H   2.3193520230 -0.7232944376  0.2500410066
7
Iter 8 Image 8  Energy = -153.9308622827
C   0.8782374095  0.9025155298  0.0205051503
H   0.6820508452  1.3376380181 -0.9834819677
O   0.8223488655  1.5924016864  0.9893018749
C   1.2242052803 -0.5651388342  0.0539613855
H   0.6657946606 -1.0716221903  0.8399160237
H   1.0442700898 -1.0343465954 -0.9071469142
H   2.2843345008 -0.6710807381  0.2808832286
7
Iter 8 Image 9  Energy = -153.9311219516
C   0.8542937454  0.8925119082  0.0092847723
H   0.8166159154  1.3312490059 -1.0048831871
O   0.6157934830  1.5818868086  0.9720533763
C   1.2389917990 -0.5588745541  0.0733180369
H   0.7890939585 -1.0631065128  0.9260426451
H   0.9627796574 -1.0683770524 -0.8466621589
H   2.3236730591 -0.6249227452  0.1647853224
7
Iter 8 Image 10  Energy = -153.9314849804
C   0.8231878761  0.8808205653 -0.0130003622
H   0.9182736737  1.3283221997 -1.0199903545
O   0.3959543758  1.5409574293  0.9040227367
C   1.2698816449 -0.5486072079  0.0966734328
H   0.9360889446 -0.9990678314  1.0280425028
H   0.8981551955 -1.1226303696 -0.7515598036
H   2.3596998978 -0.5894279405  0.0497505720
7
Iter 8 Image 11  Energy = -153.9315568446
C   0.7840367852  0.8656586589 -0.0371164025
H   0.9809293880  1.3403901038 -1.0231241499
O   0.1875804579  1.4681235287  0.8223429327
C   1.3100769769 -0.5359012779  0.1153731248
H   1.0639489065 -0.9236344469  1.1059940899
H   0.8779311114 -1.1816924395 -0.6582837811
H   2.3967379442 -0.5425772870 -0.0312469938
7
Iter 9 Image 0  Energy = -153.9146221658
C   0.8260657415  0.5508603911 -0.1261794589
H   0.4554445983  1.2417513435 -0.8784317668
O   0.5680753083  1.0246514429  1.1187434847
C   1.4411098584 -0.5873603774 -0.4363613732
H   0.9099091373  0.3932317500  1.7666320721
H   1.5916834696 -0.8592929697 -1.4741885892
H   1.8089534565 -1.2734747403  0.3237244514
7
Iter 9 Image 1  Energy = -153.9129221465
C   0.8576944275  0.5801184770 -0.1577134844
H   0.4664799449  1.2419517801 -0.9235740706
O   0.7228630346  1.0930268076  1.0952641582
C   1.3947965355 -0.6025414185 -0.4106024230
H   0.8619869177  0.3570442046  1.7030995642
H   1.4276488507 -1.0244173326 -1.4031646575
H   1.8697716299 -1.1548155604  0.3906290222
7
Iter 9 Image 2  Energy = -153.9057338476
C   0.8874076350  0.6142513788 -0.1930206573
H   0.4811307586  1.2632747168 -0.9638012924
O   0.7838884985  1.0988907366  1.0746285847
C   1.3885140406 -0.5863524071 -0.3836483506
H   0.8563057339  0.2793673905  1.5773694261
H   1.2840989944 -1.1656157425 -1.2805735653
H   1.9198954450 -1.0134493095  0.4629832872
7
Iter 9 Image 3  Energy = -153.8828337586
C   0.9270450752  0.6693163680 -0.2064833938
H   0.5246652142  1.3378211665 -0.9477400856
O   0.8077495637  1.0501655894  1.0924124025
C   1.3944254760 -0.5704778748 -0.3308500190
H   0.7417021489  0.1233580529  1.3729689674
H   1.1358300394 -1.2353928741 -1.1308566665
H   2.0698236770 -0.8844237077  0.4444867687
7
Iter 9 Image 4  Energy = -153.8513356880
C   0.9288673959  0.7031338913 -0.1893968622
H   0.5611426042  1.3805361388 -0.9435614691
O   0.7922344103  1.0402604380  1.1171569224
C   1.3473282479 -0.5747651916 -0.2559951814
H   0.7272944543  0.0251296778  1.1608453919
H   1.0745697364 -1.2437776053 -1.0195705588
H   2.1698043426 -0.8401505031  0.4244595533
7
Iter 9 Image 5  Energy = -153.8437378246
C   0.9232157951  0.7958887401 -0.1208031047
H   0.5717447356  1.3891456704 -0.9672073712
O   0.7979071549  1.2319859537  1.0320837025
C   1.2805507335 -0.5846284694 -0.1064755596
H   0.7555127575 -0.2827357463  1.0349391917
H   1.0564787386 -1.2249246065 -0.9733410690
H   2.2158313186 -0.8343645936  0.3947421395
7
Iter 9 Image 6  Energy = -153.9020945024
C   0.9228001660  0.8556727206 -0.0951507927
H   0.6185920033  1.3806329716 -1.0122577907
O   0.7907637596  1.4017255343  0.9761166432
C   1.2623128143 -0.5808360666 -0.0129607734
H   0.7456933936 -0.5505560684  0.9795118082
H   0.9860631346 -1.2164790642 -0.8655701109
H   2.2750158076 -0.7997932830  0.3242490458
7
Iter 9 Image 7  Energy = -153.9276666644
C   0.9024238821  0.8892766063 -0.0416797256
H   0.6805179176  1.3413839209 -1.0264954506
O   0.7541456934  1.5334348271  0.9608074661
C   1.2623273482 -0.5643420527  0.0452815520
H   0.7068326645 -0.8442905265  0.9381432753
H   0.9753897902 -1.1420338608 -0.8317492233
H   2.3196038858 -0.7230622332  0.2496295921
7
Iter 9 Image 8  Energy = -153.9307951925
C   0.8782273374  0.9030056606  0.0211310051
H   0.6820164893  1.3377738219 -0.9836049787
O   0.8223813700  1.5917815167  0.9885188683
C   1.2241043499 -0.5652151508  0.0540076490
H   0.6658248853 -1.0715114925  0.8401056970
H   1.0444068196 -1.0343311879 -0.9069504160
H   2.2842803995 -0.6711362930  0.2807309492
7
Iter 9 Image 9  Energy = -153.9310960092
C   0.8544540798  0.8922630929  0.0088289939
H   0.8164321523  1.3312559219 -1.0048309675
O   0.6160199423  1.5823078973  0.9724406910
C   1.2389065824 -0.5588559172  0.0733771411
H   0.7889098083 -1.0634034074  0.9259047986
H   0.9629591134 -1.0682900184 -0.8466605844
H   2.3235599375 -0.6249107132  0.1648787373
7
Iter 9 Image 10  Energy = -153.9314630136
C   0.8233016467  0.8805416493 -0.0134476617
H   0.9183847026  1.3283252747 -1.0199858061
O   0.3955403047  1.5412498014  0.9042702838
C   1.2698992508 -0.5485729622  0.0967324641
H   0.9362810354 -0.9991449669  1.0281936886
H   0.8981057678 -1.1226730519 -0.7514262718
H   2.3597289015 -0.5893589038  0.0496020247
7
Iter 9 Image 11  Energy = -153.9315568446
C   0.7840367852  0.8656586589 -0.0371164025
H   0.9809293880  1.3403901038 -1.0231241499
O   0.1875804579  1.4681235287  0.8223429327
C   1.3100769769 -0.5359012779  0.1153731248
H   1.0639489065 -0.9236344469  1.1059940899
H   0.8779311114 -1.1816924395 -0.6582837811
H   2.3967379442 -0.5425772870 -0.0312469938
7
Iter 10 Image 0  Energy = -153.9146221658
C   0.8260657415  0.5508603911 -0.1261794589
H   0.4554445983  1.2417513435 -0.8784317668
O   0.5680753083  1.0246514429  1.1187434847
C   1.4411098584 -0.5873603774 -0.4363613732
H   0.9099091373  0.3932317500  1.7666320721
H   1.5916834696 -0.8592929697 -1.4741885892
H   1.8089534565 -1.2734747403  0.3237244514
7
Iter 10 Image 1  Energy = -153.9129088616
C   0.8578727624  0.5800282773 -0.1576367995
H   0.4664324243  1.2420805252 -0.9235595434
O   0.7228936903  1.0930950824  1.0952562430
C   1.3944652845 -0.6023967732 -0.4105226921
H   0.8618488136  0.3566086644  1.7030187278
H   1.4278065458 -1.0243408380 -1.4031928709
H   1.8699218235 -1.1547079794  0.3905750349
7
Iter 10 Image 2  Energy = -153.9057346624
C   0.8878027743  0.6136112558 -0.1929166139
H   0.4809203771  1.2629438343 -0.9640089657
O   0.7836527854  1.0990253668  1.0745868867
C   1.3881735898 -0.5858653003 -0.3839006595
H   0.8568014287  0.2797901989  1.5779439164
H   1.2844341703 -1.1653275509 -1.2810084000
H   1.9194559830 -1.0138110398  0.4632412592
7
Iter 10 Image 3  Energy = -153.8827195055
C   0.9273593610  0.6697555663 -0.2067538386
H   0.5246709355  1.3377341720 -0.9475337740
O   0.8076882798  1.0501195508  1.0922368778
C   1.3948643520 -0.5705578288 -0.3302411995
H   0.7415364172  0.1228759792  1.3725613828
H   1.1351731406 -1.2355632472 -1.1306447132
H   2.0699487096 -0.8839974774  0.4443132475
7
Iter 10 Image 4  Energy = -153.8520240737
C   0.9290534786  0.7022424159 -0.1908978713
H   0.5603429655  1.3799106171 -0.9431300716
O   0.7924634410  1.0375028356  1.1182234698
C   1.3481600240 -0.5752444178 -0.2587577690
H   0.7272612758  0.0301296778  1.1637539411
H   1.0755380081 -1.2434179095 -1.0207356025
H   2.1684219984 -0.8407563746  0.4254816852
7
Iter 10 Image 5  Energy = -153.8437060245
C   0.9234303306  0.7959678354 -0.1212036699
H   0.5715995971  1.3889445534 -0.9672455381
O   0.7979341069  1.2322161324  1.0318968622
C   1.2808319579 -0.5847275115 -0.1066046386
H   0.7554092416 -0.2828353261  1.0356471044
H   1.0562869530 -1.2247997735 -0.9732319090
H   2.2157490520 -0.8343989453  0.3946797180
7
Iter 10 Image 6  Energy = -153.9020891797
C   0.9230574042  0.8554639775 -0.0954586968
H   0.6188259689  1.3806095898 -1.0125525664
O   0.7904328367  1.4018257350  0.9757450162
C   1.2619850029 -0.5808234224 -0.0124935273
H   0.7460486612 -0.5502446299  0.9800465450
H   0.9855546126 -1.2166016142 -0.8650562555
H   2.2753365975 -0.7998628955  0.3237075237
7
Iter 10 Image 7  Energy = -153.9276771029
C   0.9025570035  0.8894806042 -0.0414316624
H   0.6805849472  1.3412602682 -1.0264546173
O   0.7537420917  1.5333459496  0.9607590251
C   1.2625309696 -0.5643838325  0.0454877196
H   0.7064974437 -0.8448279229  0.9380458546
H   0.9754712872 -1.1416806762 -0.8316829982
H   2.3198574369 -0.7228277046  0.2492141634
7
Iter 10 Image 8  Energy = -153.9307071180
C   0.8782134443  0.9035592289  0.0218487195
H   0.6819810993  1.3379121658 -0.9837346299
O   0.8224167618  1.5910971755  0.9876468657
C   1.2240033473 -0.5652966657  0.0540503302
H   0.6658565950 -1.0713922538  0.8402997465
H   1.0445435799 -1.0343194134 -0.9067487479
H   2.2842268227 -0.6711933641  0.2805764824
7
Iter 10 Image 9  Energy = -153.9310645716
C   0.8546237426  0.8919925319  0.0083388291
H   0.8162419019  1.3312623602 -1.0047747772
O   0.6162493637  1.5827519186  0.9728586993
C   1.2388197014 -0.5588352897  0.0734374279
H   0.7887196673 -1.0637038866  0.9257628828
H   0.9631429193 -1.0682005195 -0.8466612721
H   2.3234443182 -0.6249002609  0.1649770231
7
Iter 10 Image 10  Energy = -153.9314356694
C   0.8234306883  0.8802394901 -0.0139300299
H   0.9184960218  1.3283275882 -1.0199785246
O   0.3951102741  1.5415645979  0.9045477036
C   1.2699162283 -0.5485360768  0.0967927928
H   0.9364745185 -0.9992239831  1.0283462851
H   0.8980558244 -1.1227156122 -0.7512920281
H   2.3597580552 -0.5892891678  0.0494525199
7
Iter 10 Image 11  Energy = -153.9315568446
C   0.7840367852  0.8656586589 -0.0371164025
H   0.9809293880  1.3403901038 -1.0231241499
O   0.1875804579  1.4681235287  0.8223429327
C   1.3100769769 -0.5359012779  0.1153731248
H   1.0639489065 -0.9236344469  1.1059940899
H   0.8779311114 -1.1816924395 -0.6582837811
H   2.3967379442 -0.5425772870 -0.0312469938
7
Iter 11 Image 0  Energy = -153.9146221658
C   0.8260657415  0.5508603911 -0.1261794589
H   0.4554445983  1.2417513435 -0.8784317668
O   0.5680753083  1.0246514429  1.1187434847
C   1.4411098584 -0.5873603774 -0.4363613732
H   0.9099091373  0.3932317500  1.7666320721
H   1.5916834696 -0.8592929697 -1.4741885892
H   1.8089534565 -1.2734747403  0.3237244514
7
Iter 11 Image 1  Energy = -153.9128942355
C   0.8580577089  0.5799258965 -0.1575589646
H   0.4663833782  1.2422120439 -0.9235462417
O   0.7229235283  1.0931671228  1.0952467148
C   1.3941264141 -0.6022405275 -0.4104408820
H   0.8617101524  0.3561676050  1.7029392492
H   1.4279663847 -1.0242640103 -1.4032234441
H   1.8700737809 -1.1546011708  0.3905216581
7
Iter 11 Image 2  Energy = -153.9057270507
C   0.8882198496  0.6129261827 -0.1928122120
H   0.4807057277  1.2626173896 -0.9642230051
O   0.7834136897  1.0991656448  1.0745461708
C   1.3878134172 -0.5853355473 -0.3841510350
H   0.8572995987  0.2802117866  1.5785196430
H   1.2847694131 -1.1650415729 -1.2814479772
H   1.9190194154 -1.0141771174  0.4635058291
7
Iter 11 Image 3  Energy = -153.8826000386
C   0.9276692413  0.6702106105 -0.2070328625
H   0.5246793856  1.3376452214 -0.9473212538
O   0.8076269319  1.0500686119  1.0920639280
C   1.3953180753 -0.5706501170 -0.3296228631
H   0.7413670474  0.1223942271  1.3721477952
H   1.1345086175 -1.2357371729 -1.1304301073
H   2.0700718984 -0.8835646714  0.4441333554
7
Iter 11 Image 4  Energy = -153.8526522738
C   0.9292422286  0.7013614932 -0.1923782539
H   0.5595329827  1.3792816875 -0.9427136110
O   0.7927082999  1.0346781567  1.1192511193
C   1.3489413482 -0.5756781021 -0.2614397637
H   0.7272632138  0.0351296778  1.1665980671
H   1.0765138299 -1.2430370333 -1.0218909710
H   2.1670392879 -0.8413690370  0.4265111800
7
Iter 11 Image 5  Energy = -153.8436698413
C   0.9236477834  0.7960408915 -0.1216439292
H   0.5714522458  1.3887392276 -0.9672775995
O   0.7979584387  1.2324684040  1.0317376061
C   1.2811249221 -0.5848355350 -0.1067443948
H   0.7553037182 -0.2829382447  1.0363755844
H   1.0560974788 -1.2246730884 -0.9731275324
H   2.2156566573 -0.8344346732  0.3946181939
7
Iter 11 Image 6  Energy = -153.9020829134
C   0.9233177495  0.8552504319 -0.0957685698
H   0.6190609768  1.3805867262 -1.0128501993
O   0.7900991682  1.4019255178  0.9753710641
C   1.2616505378 -0.5808074207 -0.0120193217
H   0.7464082174 -0.5499285404  0.9805824253
H   0.9850421547 -1.2167260758 -0.8645400281
H   2.2756622850 -0.7999339040  0.3231626772
7
Iter 11 Image 7  Energy = -153.9276866324
C   0.9026892759  0.8896939765 -0.0411697214
H   0.6806525091  1.3411356695 -1.0264139955
O   0.7533366916  1.5332491191  0.9606993618
C   1.2627373136 -0.5644269485  0.0456945437
H   0.7061592326 -0.8453693965  0.9379480941
H   0.9755536109 -1.1413245556 -0.8316160168
H   2.3201125435 -0.7225911738  0.2487952176
7
Iter 11 Image 8  Energy = -153.9305934621
C   0.8781957442  0.9041768391  0.0226589708
H   0.6819447306  1.3380528778 -0.9838709107
O   0.8224547182  1.5903477705  0.9866847760
C   1.2239026822 -0.5653831370  0.0540894398
H   0.6658899401 -1.0712633785  0.8404985090
H   1.0446798093 -1.0343119270 -0.9065418286
H   2.2841740253 -0.6712521733  0.2804198026
7
Iter 11 Image 9  Energy = -153.9310272286
C   0.8548017794  0.8917027970  0.0078182566
H   0.8160451424  1.3312683985 -1.0047148775
O   0.6164826045  1.5832162141  0.9733038791
C   1.2387312663 -0.5588128681  0.0734987405
H   0.7885235343 -1.0640075424  0.9256168912
H   0.9633310286 -1.0681086581 -0.8466643424
H   2.3233262572 -0.6248914891  0.1650802688
7
Iter 11 Image 10  Energy = -153.9314024116
C   0.8235736772  0.8799162201 -0.0144443362
H   0.9186075374  1.3283291687 -1.0199686517
O   0.3946658455  1.5418997601  0.9048522807
C   1.2699325584 -0.5484967460  0.0968543649
H   0.9366692072 -0.9993047122  1.0285000637
H   0.8980054313 -1.1227580421 -0.7511572097
H   2.3597873547 -0.5892188166  0.0493022044
7
Iter 11 Image 11  Energy = -153.9315568446
C   0.7840367852  0.8656586589 -0.0371164025
H   0.9809293880  1.3403901038 -1.0231241499
O   0.1875804579  1.4681235287  0.8223429327
C   1.3100769769 -0.5359012779  0.1153731248
H   1.0639489065 -0.9236344469  1.1059940899
H   0.8779311114 -1.1816924395 -0.6582837811
H   2.3967379442 -0.5425772870 -0.0312469938
7
Iter 12 Image 0  Energy = -153.9146221658
C   0.8260657415  0.5508603911 -0.1261794589
H   0.4554445983  1.2417513435 -0.8784317668
O   0.5680753083  1.0246514429  1.1187434847
C   1.4411098584 -0.5873603774 -0.4363613732
H   0.9099091373  0.3932317500  1.7666320721
H   1.5916834696 -0.8592929697 -1.4741885892
H   1.8089534565 -1.2734747403  0.3237244514
7
Iter 12 Image 1  Energy = -153.9128784469
C   0.8582484513  0.5798126959 -0.1574802521
H   0.4663329937  1.2423459585 -0.9235339445
O   0.7229526407  1.0932422371  1.0952361174
C   1.3937807714 -0.6020739887 -0.4103572696
H   0.8615709381  0.3557219751  1.7028608914
H   1.4281282871 -1.0241867226 -1.4032562200
H   1.8702272687 -1.1544951949  0.3904687570
7
Iter 12 Image 2  Energy = -153.9057102238
C   0.8886568995  0.6122002028 -0.1927080068
H   0.4804873914  1.2622950430 -0.9644425816
O   0.7831716231  1.0993108678  1.0745064790
C   1.3874355381 -0.5847666507 -0.3843985937
H   0.8577997319  0.2806319449  1.5790959574
H   1.2851043243 -1.1647579190 -1.2818917865
H   1.9185856060 -1.0145467217  0.4637759360
7
Iter 12 Image 3  Energy = -153.8824757643
C   0.9279752946  0.6706795888 -0.2073198354
H   0.5246903504  1.3375547450 -0.9471032247
O   0.8075652917  1.0500112720  1.0918948064
C   1.3957838999 -0.5707541765 -0.3289979270
H   0.7411944642  0.1219148290  1.3717273436
H   1.1338374679 -1.2359134845 -1.1302116941
H   2.0701944301 -0.8831260686  0.4439485331
7
Iter 12 Image 4  Energy = -153.8532160777
C   0.9294347737  0.7004896073 -0.1938351854
H   0.5587147693  1.3786527288 -0.9423120488
O   0.7929661495  1.0317869282  1.1202384633
C   1.3496798580 -0.5760636937 -0.2640372395
H   0.7272965268  0.0401296778  1.1693800608
H   1.0774917934 -1.2426427040 -1.0230393420
H   2.1656573203 -0.8419857030  0.4275430439
7
Iter 12 Image 5  Energy = -153.8436291650
C   0.9238676815  0.7961082696 -0.1221197756
H   0.5713031760  1.3885301757 -0.9673042029
O   0.7979803409  1.2327397101  1.0316037562
C   1.2814279018 -0.5849515877 -0.1068932925
H   0.7551962389 -0.2830432553  1.0371209444
H   1.0559096682 -1.2245448426 -0.9730270066
H   2.2155562423 -0.8344714709  0.3945575062
7
Iter 12 Image 6  Energy = -153.9020757140
C   0.9235806878  0.8550330692 -0.0960797629
H   0.6192970265  1.3805642164 -1.0131504584
O   0.7897631239  1.4020248016  0.9749944771
C   1.2613106621 -0.5807886251 -0.0115391921
H   0.7467714385 -0.5496084735  0.9811197630
H   0.9845260513 -1.2168521966 -0.8640214641
H   2.2759921050 -0.8000060619  0.3226146949
7
Iter 12 Image 7  Energy = -153.9276952386
C   0.9028207332  0.8899158175 -0.0408949401
H   0.6807205294  1.3410102730 -1.0263736176
O   0.7529297465  1.5331449320  0.9606293106
C   1.2629459240 -0.5644711928  0.0459019557
H   0.7058184257 -0.8459143933  0.9378499853
H   0.9756366890 -1.1409658363 -0.8315483794
H   2.3203691269 -0.7223529046  0.2483731677
7
Iter 12 Image 8  Energy = -153.9304490969
C   0.8781744395  0.9048567062  0.0235588896
H   0.6819074620  1.3381957500 -0.9840136260
O   0.8224947497  1.5895347061  0.9856347680
C   1.2238027706 -0.5654741640  0.0541251325
H   0.6659250555 -1.0711239030  0.8407023229
H   1.0448149742 -1.0343092854 -0.9063295851
H   2.2841221978 -0.6713129397  0.2802608488
7
Iter 12 Image 9  Energy = -153.9309836358
C   0.8549870213  0.8913970508  0.0072721724
H   0.8158419845  1.3312741347 -1.0046516314
O   0.6167205107  1.5836975794  0.9737718733
C   1.2386413729 -0.5587888984  0.0735608886
H   0.7883215266 -1.0643139978  0.9254668939
H   0.9635233396 -1.0680145835 -0.8466698139
H   2.3232058551 -0.6248844356  0.1651884363
7
Iter 12 Image 10  Energy = -153.9313627741
C   0.8237287809  0.8795746506 -0.0149863926
H   0.9187192180  1.3283300921 -1.0199564523
O   0.3942089187  1.5422525671  0.9051803361
C   1.2699483059 -0.5484552335  0.0969170971
H   0.9368649758 -0.9993869625  1.0286548523
H   0.8979546386 -1.1228003660 -0.7510218972
H   2.3598167752 -0.5891479204  0.0491511701
7
Iter 12 Image 11  Energy = -153.9315568446
C   0.7840367852  0.8656586589 -0.0371164025
H   0.9809293880  1.3403901038 -1.0231241499
O   0.1875804579  1.4681235287  0.8223429327
C   1.3100769769 -0.5359012779  0.1153731248
H   1.0639489065 -0.9236344469  1.1059940899
H   0.8779311114 -1.1816924395 -0.6582837811
H   2.3967379442 -0.5425772870 -0.0312469938
7
Iter 13 Image 0  Energy = -153.9146221658
C   0.8260657415  0.5508603911 -0.1261794589
H   0.4554445983  1.2417513435 -0.8784317668
O   0.5680753083  1.0246514429  1.1187434847
C   1.4411098584 -0.5873603774 -0.4363613732
H   0.9099091373  0.3932317500  1.7666320721
H   1.5916834696 -0.8592929697 -1.4741885892
H   1.8089534565 -1.2734747403  0.3237244514
7
Iter 13 Image 1  Energy = -153.9128611031
C   0.8584441426  0.5796901881 -0.1574008723
H   0.4662814578  1.2424819061 -0.9235224176
O   0.7229811338  1.0933197936  1.0952248791
C   1.3934292201 -0.6018985858 -0.4102720972
H   0.8614311573  0.3552725463  1.7027834348
H   1.4282921745 -1.0241088513 -1.4032910275
H   1.8703820684 -1.1543900357  0.3904161700
7
Iter 13 Image 2  Energy = -153.9056833324
C   0.8891117135  0.6114379593 -0.1926044236
H   0.4802659274  1.2619762733 -0.9646668643
O   0.7829269647  1.0994602888  1.0744677762
C   1.3870421445 -0.5841627651 -0.3846428114
H   0.8583014607  0.2810506540  1.5796724446
H   1.2854386564 -1.1644765064 -1.2823393164
H   1.9181542500 -1.0149191358  0.4640505888
7
Iter 13 Image 3  Energy = -153.8823464016
C   0.9282782249  0.6711604871 -0.2076140818
H   0.5247035341  1.3374631331 -0.9468803755
O   0.8075032046  1.0499463942  1.0917303281
C   1.3962593209 -0.5708690531 -0.3283688178
H   0.7410190724  0.1214393691  1.3712994979
H   1.1331605698 -1.2360912232 -1.1299886487
H   2.0703172734 -0.8826824072  0.4437601096
7
Iter 13 Image 4  Energy = -153.8537097906
C   0.9296317121  0.6996258872 -0.1952672829
H   0.5578902949  1.3780263160 -0.9419247815
O   0.7932341429  1.0288318754  1.1211862789
C   1.3503827696 -0.5764019789 -0.2665503616
H   0.7273574254  0.0451296778  1.1721029190
H   1.0784675963 -1.2422409288 -1.0241824272
H   2.1642772494 -0.8426040084  0.4285733928
7
Iter 13 Image 5  Energy = -153.8435840613
C   0.9240896474  0.7961704064 -0.1226268527
H   0.5711528282  1.3883177612 -0.9673261559
O   0.7980000826  1.2330271047  1.0314925347
C   1.2817394679 -0.5850746102 -0.1070501532
H   0.7550867963 -0.2831493466  1.0378804140
H   1.0557228702 -1.2244152483 -0.9729293280
H   2.2154495624 -0.8345090509  0.3944974704
7
Iter 13 Image 6  Energy = -153.9020676740
C   0.9238458009  0.8548127215 -0.0963918297
H   0.6195341213  1.3805419174 -1.0134531371
O   0.7894249905  1.4021235646  0.9746150393
C   1.2609664253 -0.5807675801 -0.0110540307
H   0.7471378130 -0.5492849798  0.9816588773
H   0.9840065426 -1.2169797501 -0.8635005691
H   2.2763254075 -0.8000791683  0.3220637163
7
Iter 13 Image 7  Energy = -153.9277026833
C   0.9029514756  0.8901450970 -0.0406086132
H   0.6807889560  1.3408841882 -1.0263334732
O   0.7525213833  1.5330341396  0.9605499587
C   1.2631564205 -0.5645163411  0.0461099548
H   0.7054753356 -0.8464624890  0.9377515115
H   0.9757204515 -1.1406047905 -0.8314801906
H   2.3206271496 -0.7221131037  0.2479483332
7
Iter 13 Image 8  Energy = -153.9302688611
C   0.8781498253  0.9055956568  0.0245434908
H   0.6818693882  1.3383405639 -0.9841624502
O   0.8225362754  1.5886607124  0.9845009059
C   1.2237039362 -0.5655692731  0.0541576672
H   0.6659620718 -1.0709729312  0.8409115249
H   1.0449485811 -1.0343119651 -0.9061119333
H   2.2840715708 -0.6713758953  0.2800995370
7
Iter 13 Image 9  Energy = -153.9309336589
C   0.8551782493  0.8910785766  0.0067056182
H   0.8156326229  1.3312796692 -1.0045854511
O   0.6169638371  1.5841927377  0.9742581888
C   1.2385501361 -0.5587636695  0.0736236806
H   0.7881138312 -1.0646229266  0.9253130155
H   0.9637197195 -1.0679184458 -0.8466776329
H   2.3230832128 -0.6248790943  0.1653014032
7
Iter 13 Image 10  Energy = -153.9313165078
C   0.8238940233  0.8792177956 -0.0155517192
H   0.9188310658  1.3283304386 -1.0199422274
O   0.3937414477  1.5426201248  0.9055279116
C   1.2699635614 -0.5484118341  0.0969808773
H   0.9370617354 -0.9994705488  1.0288105297
H   0.8979034865 -1.1228426255 -0.7508861336
H   2.3598462943 -0.5890765280  0.0489994720
7
Iter 13 Image 11  Energy = -153.9315568446
C   0.7840367852  0.8656586589 -0.0371164025
H   0.9809293880  1.3403901038 -1.0231241499
O   0.1875804579  1.4681235287  0.8223429327
C   1.3100769769 -0.5359012779  0.1153731248
H   1.0639489065 -0.9236344469  1.1059940899
H   0.8779311114 -1.1816924395 -0.6582837811
H   2.3967379442 -0.5425772870 -0.0312469938
7
Iter 14 Image 0  Energy = -153.9146221658
C   0.8260657415  0.5508603911 -0.1261794589
H   0.4554445983  1.2417513435 -0.8784317668
O   0.5680753083  1.0246514429  1.1187434847
C   1.4411098584 -0.5873603774 -0.4363613732
H   0.9099091373  0.3932317500  1.7666320721
H   1.5916834696 -0.8592929697 -1.4741885892
H   1.8089534565 -1.2734747403  0.3237244514
7
Iter 14 Image 1  Energy = -153.9128423727
C   0.8586440053  0.5795598083 -0.1573209923
H   0.4662289387  1.2426195734 -0.9235114385
O   0.7230091079  1.0933992244  1.0952133763
C   1.3930725330 -0.6017156750 -0.4101856147
H   0.8612907780  0.3548199519  1.7027066710
H   1.4284579923 -1.0240302631 -1.4033276843
H   1.8705380031 -1.1542856580  0.3903637414
7
Iter 14 Image 2  Energy = -153.9056456121
C   0.8895821273  0.6106440279 -0.1925018090
H   0.4800418466  1.2616604837 -0.9648950786
O   0.7826800414  1.0996132214  1.0744300008
C   1.3866353500 -0.5835280483 -0.3848833920
H   0.8588045316  0.2814679772  1.5802488355
H   1.2857722526 -1.1641971431 -1.2827900908
H   1.9177249708 -1.0152937495  0.4643289179
7
Iter 14 Image 3  Energy = -153.8822123196
C   0.9285787711  0.6716513382 -0.2079149878
H   0.5247186181  1.3373707278 -0.9466533199
O   0.8074405704  1.0498730326  1.0915710310
C   1.3967421789 -0.5709936184 -0.3277375458
H   0.7408412099  0.1209691795  1.3708639765
H   1.1324786513 -1.2362696344 -1.1297603862
H   2.0704412019 -0.8822343308  0.4435692543
7
Iter 14 Image 4  Energy = -153.8541273164
C   0.9298333072  0.6987699338 -0.1966739497
H   0.5570612988  1.3774043572 -0.9415509885
O   0.7935097108  1.0258164169  1.1220962979
C   1.3510563686 -0.5766953864 -0.2689813412
H   0.7274424612  0.0501296778  1.1747695450
H   1.0794378534 -1.2418361854 -1.0253210908
H   2.1629001904 -0.8432219745  0.4295992503
7
Iter 14 Image 5  Energy = -153.8435343156
C   0.9243134020  0.7962276924 -0.1231610539
H   0.5710015516  1.3881022584 -0.9673442343
O   0.7980179588  1.2333278887  1.0314010833
C   1.2820584835 -0.5852035628 -0.1072141309
H   0.7549753381 -0.2832556167  1.0386519608
H   1.0555365001 -1.2242844656 -0.9728335864
H   2.2153380263 -0.8345471607  0.3944378909
7
Iter 14 Image 6  Energy = -153.9020587606
C   0.9241127453  0.8545901027 -0.0967044783
H   0.6197722801  1.3805196998 -1.0137580619
O   0.7890849762  1.4022218324  0.9742325851
C   1.2606187205 -0.5807448034 -0.0105645653
H   0.7475069484 -0.5489584956  0.9822000844
H   0.9834838011 -1.2171085512 -0.8629773081
H   2.2766616351 -0.8001530643  0.3215098203
7
Iter 14 Image 7  Energy = -153.9277092136
C   0.9030816273  0.8903808252 -0.0403120608
H   0.6808577577  1.3407574852 -1.0262935369
O   0.7521116382  1.5329175039  0.9604624461
C   1.2633685139 -0.5645622082  0.0463185636
H   0.7051302019 -0.8470133712  0.9376526512
H   0.9758048491 -1.1402416063 -0.8314115207
H   2.3208865813 -0.7218719231  0.2475209376
7
Iter 14 Image 8  Energy = -153.9300475395
C   0.8781222513  0.9063900630  0.0256071018
H   0.6818306022  1.3384871106 -0.9843170537
O   0.8225786633  1.5877289320  0.9832878553
C   1.2236064926 -0.5656679670  0.0541873419
H   0.6660011271 -1.0708095515  0.8411264944
H   1.0450801473 -1.0343204373 -0.9058887501
H   2.2840223643 -0.6714412830  0.2799357444
7
Iter 14 Image 9  Energy = -153.9308772636
C   0.8553743135  0.8907504725  0.0061233623
H   0.8154172760  1.3312850999 -1.0045167393
O   0.6172132490  1.5846986081  0.9747585661
C   1.2384576469 -0.5587374498  0.0736869365
H   0.7879006534 -1.0649340596  0.9251554007
H   0.9639200366 -1.0678203922 -0.8466877149
H   2.3229584316 -0.6248754340  0.1654190141
7
Iter 14 Image 10  Energy = -153.9312634238
C   0.8240674836  0.8788485366 -0.0161360167
H   0.9189431023  1.3283302963 -1.0199262786
O   0.3932652741  1.5429996627  0.9058911849
C   1.2699783838 -0.5483668382  0.0970456064
H   0.9372594412 -0.9995553035  1.0289669968
H   0.8978520112 -1.1228848531 -0.7507499291
H   2.3598759195 -0.5890046829  0.0488471435
7
Iter 14 Image 11  Energy = -153.9315568446
C   0.7840367852  0.8656586589 -0.0371164025
H   0.9809293880  1.3403901038 -1.0231241499
O   0.1875804579  1.4681235287  0.8223429327
C   1.3100769769 -0.5359012779  0.1153731248
H   1.0639489065 -0.9236344469  1.1059940899
H   0.8779311114 -1.1816924395 -0.6582837811
H   2.3967379442 -0.5425772870 -0.0312469938
7
Iter 15 Image 0  Energy = -153.9146221658
C   0.8260657415  0.5508603911 -0.1261794589
H   0.4554445983  1.2417513435 -0.8784317668
O   0.5680753083  1.0246514429  1.1187434847
C   1.4411098584 -0.5873603774 -0.4363613732
H   0.9099091373  0.3932317500  1.7666320721
H   1.5916834696 -0.8592929697 -1.4741885892
H   1.8089534565 -1.2734747403  0.3237244514
7
Iter 15 Image 1  Energy = -153.9128222684
C   0.8588473444  0.5794228676 -0.1572407449
H   0.4661755851  1.2427586828 -0.9235008035
O   0.7230366609  1.0934800239  1.0952019340
C   1.3927113786 -0.6015264770 -0.4100980327
H   0.8611497542  0.3543647000  1.7026304122
H   1.4286257131 -1.0239508200 -1.4033660367
H   1.8706949256 -1.1541820146  0.3903113200
7
Iter 15 Image 2  Energy = -153.9055965525
C   0.8900661660  0.6098226302 -0.1924004283
H   0.4798155939  1.2613470790 -0.9651265399
O   0.7824311207  1.0997690443  1.0743930697
C   1.3862170800 -0.5828663681 -0.3851201652
H   0.8593087753  0.2818840300  1.5808249612
H   1.2861050122 -1.1639195951 -1.2832436926
H   1.9172973753 -1.0156700501  0.4646101685
7
Iter 15 Image 3  Energy = -153.8820733844
C   0.9288776486  0.6721503339 -0.2082220222
H   0.5247352776  1.3372778335 -0.9464225875
O   0.8073773203  1.0497902883  1.0914173018
C   1.3972306427 -0.5711267601 -0.3271058377
H   0.7406611524  0.1205054969  1.3704206263
H   1.1317923092 -1.2364481057 -1.1295264614
H   2.0705668527 -0.8817823975  0.4433770125
7
Iter 15 Image 4  Energy = -153.8544612500
C   0.9300396306  0.6979217085 -0.1980549436
H   0.5562293090  1.3767882768 -0.9411898156
O   0.7937906026  1.0227439130  1.1229705257
C   1.3517060089 -0.5769469825 -0.2713331378
H   0.7275486213  0.0551296778  1.1773824254
H   1.0803998150 -1.2414318430 -1.0264556064
H   2.1615272028 -0.8438379115  0.4306182609
7
Iter 15 Image 5  Energy = -153.8434798626
C   0.9245387422  0.7962804354 -0.1237187074
H   0.5708496090  1.3878838809 -0.9673591568
O   0.7980342587  1.2336396519  1.0313267458
C   1.2823840808 -0.5853375043 -0.1073845915
H   0.7548617870 -0.2833612124  1.0394340673
H   1.0553500446 -1.2241526197 -0.9727390014
H   2.2152227441 -0.8345855797  0.3943785734
7
Iter 15 Image 6  Energy = -153.9020491068
C   0.9243812450  0.8543657965 -0.0970175232
H   0.6200115399  1.3804974511 -1.0140651100
O   0.7887432263  1.4023196517  0.9738469637
C   1.2602682766 -0.5807207549 -0.0100713644
H   0.7478785492 -0.5486293567  0.9827436944
H   0.9829579236 -1.2172384475 -0.8624516032
H   2.2770003519 -0.8002276247  0.3209530285
7
Iter 15 Image 7  Energy = -153.9277143397
C   0.9032113213  0.8906220717 -0.0400065298
H   0.6809269184  1.3406302160 -1.0262537769
O   0.7517004752  1.5327957652  0.9603678784
C   1.2635819689 -0.5646086285  0.0465278321
H   0.7047832079 -0.8475668200  0.9375533747
H   0.9758898399 -1.1398764172 -0.8313424340
H   2.3211474351 -0.7216294766  0.2470911343
7
Iter 15 Image 8  Energy = -153.9297797715
C   0.8780920693  0.9072364412  0.0267442225
H   0.6817911942  1.3386352008 -0.9844771354
O   0.8226212565  1.5867423140  0.9820000431
C   1.2235107576 -0.5657697737  0.0542144500
H   0.6660423717 -1.0706327475  0.8413476826
H   1.0452091862 -1.0343352017 -0.9056598390
H   2.2839748118 -0.6715093682  0.2797693017
7
Iter 15 Image 9  Energy = -153.9308145472
C   0.8555741802  0.8904155472  0.0055297076
H   0.8151961477  1.3312905155 -1.0044458628
O   0.6174693371  1.5852124155  0.9752691469
C   1.2383639768 -0.5587104871  0.0737505181
H   0.7876821852 -1.0652471778  0.9249941778
H   0.9641241742 -1.0677205555 -0.8466999709
H   2.3228316039 -0.6248734152  0.1655411119
7
Iter 15 Image 10  Energy = -153.9312035331
C   0.8242474018  0.8784695060 -0.0167353682
H   0.9190553614  1.3283297404 -1.0199088839
O   0.3927820487  1.5433886640  0.9062666663
C   1.2699928629 -0.5483204978  0.0971111854
H   0.9374580617 -0.9996410896  1.0291241946
H   0.8978002412 -1.1229270943 -0.7506132857
H   2.3599056392 -0.5889324160  0.0486941957
7
Iter 15 Image 11  Energy = -153.9315568446
C   0.7840367852  0.8656586589 -0.0371164025
H   0.9809293880  1.3403901038 -1.0231241499
O   0.1875804579  1.4681235287  0.8223429327
C   1.3100769769 -0.5359012779  0.1153731248
H   1.0639489065 -0.9236344469  1.1059940899
H   0.8779311114 -1.1816924395 -0.6582837811
H   2.3967379442 -0.5425772870 -0.0312469938
7
Iter 16 Image 0  Energy = -153.9146221658
C   0.8260657415  0.5508603911 -0.1261794589
H   0.4554445983  1.2417513435 -0.8784317668
O   0.5680753083  1.0246514429  1.1187434847
C   1.4411098584 -0.5873603774 -0.4363613732
H   0.9099091373  0.3932317500  1.7666320721
H   1.5916834696 -0.8592929697 -1.4741885892
H   1.8089534565 -1.2734747403  0.3237244514
7
Iter 16 Image 1  Energy = -153.9128006636
C   0.8590535377  0.5792805656 -0.1571602250
H   0.4661215251  1.2428990038 -0.9234903207
O   0.7230638803  1.0935617606  1.0951908337
C   1.3923463392 -0.6013321156 -0.4100095366
H   0.8610080271  0.3539071747  1.7025544891
H   1.4287953428 -1.0238703798 -1.4034059502
H   1.8708527134 -1.1540790456  0.3902587473
7
Iter 16 Image 2  Energy = -153.9055357013
C   0.8905620712  0.6089775590 -0.1923005176
H   0.4795875540  1.2610354606 -0.9653606432
O   0.7821804147  1.0999272023  1.0743569077
C   1.3857890547 -0.5821812167 -0.3853530312
H   0.8598141023  0.2822989747  1.5814007317
H   1.2864368812 -1.1636435967 -1.2836997723
H   1.9168710484 -1.0160476120  0.4648936879
7
Iter 16 Image 3  Energy = -153.8819299298
C   0.9291755731  0.6726557774 -0.2085347761
H   0.5247531989  1.3371847206 -0.9461886225
O   0.8073133983  1.0496972258  1.0912694866
C   1.3977231266 -0.5712673656 -0.3264751833
H   0.7404791193  0.1200495418  1.3699693236
H   1.1311020107 -1.2366261499 -1.1292865089
H   2.0706947781 -0.8813270659  0.4431843225
7
Iter 16 Image 4  Energy = -153.8547039885
C   0.9302506671  0.6970815299 -0.1994102034
H   0.5553956852  1.3761791933 -0.9408404643
O   0.7940748113  1.0196173064  1.1238109348
C   1.3523362887 -0.5771599874 -0.2736086847
H   0.7276732935  0.0601296778  1.1799435394
H   1.0813511099 -1.2410305404 -1.0275858413
H   2.1601593344 -0.8444503409  0.4316284138
7
Iter 16 Image 5  Energy = -153.8434205249
C   0.9247655328  0.7963288702 -0.1242966631
H   0.5706972021  1.3876627727 -0.9673715631
O   0.7980492463  1.2339602903  1.0312671625
C   1.2827155820 -0.5854755773 -0.1075610909
H   0.7547460404 -0.2834653455  1.0402256312
H   1.0551630349 -1.2240198151 -0.9726448939
H   2.2151046335 -0.8346241259  0.3943193463
7
Iter 16 Image 6  Energy = -153.9020385709
C   0.9246510905  0.8541402944 -0.0973308720
H   0.6202519622  1.3804750620 -1.0143742121
O   0.7883998237  1.4024170889  0.9734580223
C   1.2599156820 -0.5806958371 -0.0095748669
H   0.7482524077 -0.5482978194  0.9832900499
H   0.9824289255 -1.2173693257 -0.8619233231
H   2.2773412266 -0.8003027528  0.3203932974
7
Iter 16 Image 7  Energy = -153.9277184528
C   0.9033406917  0.8908680231 -0.0396931476
H   0.6809964388  1.3405024031 -1.0262141493
O   0.7512878022  1.5326695786  0.9602672657
C   1.2637965951 -0.5646554608  0.0467378234
H   0.7044344690 -0.8481227128  0.9374536533
H   0.9759754011 -1.1395092819 -0.8312729689
H   2.3214097662 -0.7213858334  0.2466590010
7
Iter 16 Image 8  Energy = -153.9294596844
C   0.8780596126  0.9081317915  0.0279500052
H   0.6817512480  1.3387846694 -0.9846424688
O   0.8226633689  1.5857032704  0.9806411874
C   1.2234170665 -0.5658742584  0.0542392714
H   0.6660859854 -1.0704413081  0.8415756425
H   1.0453351782 -1.0343568392 -0.9054249017
H   2.2839291869 -0.6715804624  0.2795999810
7
Iter 16 Image 9  Energy = -153.9307457156
C   0.8557769233  0.8900763448  0.0049285564
H   0.8149694055  1.3312960023 -1.0043731672
O   0.6177326614  1.5857316730  0.9757864410
C   1.2382691837 -0.5586830184  0.0738142830
H   0.7874585835 -1.0655621190  0.9248294591
H   0.9643320525 -1.0676190422 -0.8467143000
H   2.3227027931 -0.6248730001  0.1656675593
7
Iter 16 Image 10  Energy = -153.9311367896
C   0.8244321956  0.8780830647 -0.0173462557
H   0.9191678864  1.3283288440 -1.0198903042
O   0.3922932225  1.5437848759  0.9066512066
C   1.2700070531 -0.5482730550  0.0971775375
H   0.9376575985 -0.9997277901  1.0292820745
H   0.8977481992 -1.1229693901 -0.7504761782
H   2.3599354628 -0.5888597414  0.0485406205
7
Iter 16 Image 11  Energy = -153.9315568446
C   0.7840367852  0.8656586589 -0.0371164025
H   0.9809293880  1.3403901038 -1.0231241499
O   0.1875804579  1.4681235287  0.8223429327
C   1.3100769769 -0.5359012779  0.1153731248
H   1.0639489065 -0.9236344469  1.1059940899
H   0.8779311114 -1.1816924395 -0.6582837811
H   2.3967379442 -0.5425772870 -0.0312469938
7
Iter 17 Image 0  Energy = -153.9146221658
C   0.8260657415  0.5508603911 -0.1261794589
H   0.4554445983  1.2417513435 -0.8784317668
O   0.5680753083  1.0246514429  1.1187434847
C   1.4411098584 -0.5873603774 -0.4363613732
H   0.9099091373  0.3932317500  1.7666320721
H   1.5916834696 -0.8592929697 -1.4741885892
H   1.8089534565 -1.2734747403  0.3237244514
7
Iter 17 Image 1  Energy = -153.9127775907
C   0.8592620549  0.5791339566 -0.1570795008
H   0.4660668654  1.2430403485 -0.9234798149
O   0.7230908508  1.0936440434  1.0951803232
C   1.3919778755 -0.6011335585 -0.4099202845
H   0.8608655198  0.3534476615  1.7024787441
H   1.4289669195 -1.0237887925 -1.4034473169
H   1.8710112833 -1.1539766942  0.3902058767
7
Iter 17 Image 2  Energy = -153.9054626663
C   0.8910682910  0.6081122041 -0.1922022761
H   0.4793580506  1.2607250352 -0.9655968637
O   0.7819280847  1.1000872039  1.0743214278
C   1.3853528007 -0.5814757234 -0.3855819362
H   0.8603204983  0.2827130047  1.5819761394
H   1.2867678486 -1.1633688621 -1.2841580575
H   1.9164455558 -1.0164260901  0.4651789191
7
Iter 17 Image 3  Energy = -153.8817820867
C   0.9294732435  0.6731661400 -0.2088529408
H   0.5247720715  1.3370916305 -0.9459517979
O   0.8072487573  1.0495928100  1.0911278958
C   1.3982182744 -0.5714144152 -0.3258469037
H   0.7402952858  0.1196025737  1.3695099532
H   1.1304081130 -1.2368033489 -1.1290401950
H   2.0708254611 -0.8808687110  0.4429920404
7
Iter 17 Image 4  Energy = -153.8548468832
C   0.9304663821  0.6962499970 -0.2007397983
H   0.5545616553  1.3755780311 -0.9405022295
O   0.7943605037  1.0164390690  1.1246194310
C   1.3529511804 -0.5773376021 -0.2758106709
H   0.7278141956  0.0651296778  1.1824543739
H   1.0822895994 -1.2406343996 -1.0287113452
H   2.1587976737 -0.8450579344  0.4326279189
7
Iter 17 Image 5  Energy = -153.8433561821
C   0.9249936926  0.7963731703 -0.1248921778
H   0.5705444888  1.3874390210 -0.9673820380
O   0.7980631677  1.2342879418  1.0312201862
C   1.2830525024 -0.5856170202 -0.1077433204
H   0.7546279634 -0.2835672678  1.0410258901
H   1.0549750183 -1.2238861273 -0.9725506380
H   2.2149844444 -0.8346626310  0.3942600269
7
Iter 17 Image 6  Energy = -153.9020273482
C   0.9249221281  0.8539140073 -0.0976445015
H   0.6204936362  1.3804524323 -1.0146853438
O   0.7880547934  1.4025142228  0.9730655721
C   1.2595614332 -0.5806704201 -0.0090753733
H   0.7486283955 -0.5479640632  0.9838395269
H   0.9818967438 -1.2175011032 -0.8613922771
H   2.2776839940 -0.8003783707  0.3198305023
7
Iter 17 Image 7  Energy = -153.9277211377
C   0.9034698820  0.8911179469 -0.0393729137
H   0.6810663314  1.3403740466 -1.0261746084
O   0.7508734674  1.5325395421  0.9601615374
C   1.2640122635 -0.5647025715  0.0469486431
H   0.7040840470 -0.8486810145  0.9373534374
H   0.9760615175 -1.1391402079 -0.8312031623
H   2.3216736526 -0.7211410207  0.2462245429
7
Iter 17 Image 8  Energy = -153.9290813952
C   0.8780252097  0.9090736923  0.0292203939
H   0.6817108389  1.3389353714 -0.9848129064
O   0.8227042694  1.5846135526  0.9792141366
C   1.2233257905 -0.5659810181  0.0542620596
H   0.6661321852 -1.0702337697  0.8418110578
H   1.0454575515 -1.0343860387 -0.9051835187
H   2.2838858007 -0.6716549284  0.2794274856
7
Iter 17 Image 9  Energy = -153.9306710729
C   0.8559817090  0.8897352038  0.0043234607
H   0.8147371771  1.3313016399 -1.0042989543
O   0.6180037744  1.5862541127  0.9763072465
C   1.2381733095 -0.5586552443  0.0738781263
H   0.7872299639 -1.0658787709  0.9246613359
H   0.9645436184 -1.0675159495 -0.8467306198
H   2.3225720487 -0.6248741538  0.1657982394
7
Iter 17 Image 10  Energy = -153.9310633527
C   0.8246204144  0.8776913457 -0.0179655039
H   0.9192807334  1.3283276746 -1.0198707762
O   0.3918000780  1.5441862629  0.9070419367
C   1.2700210371 -0.5482247120  0.0972445973
H   0.9378580772 -0.9998153175  1.0294406246
H   0.8976958960 -1.1230117846 -0.7503385727
H   2.3599653835 -0.5887866663  0.0483863922
7
Iter 17 Image 11  Energy = -153.9315568446
C   0.7840367852  0.8656586589 -0.0371164025
H   0.9809293880  1.3403901038 -1.0231241499
O   0.1875804579  1.4681235287  0.8223429327
C   1.3100769769 -0.5359012779  0.1153731248
H   1.0639489065 -0.9236344469  1.1059940899
H   0.8779311114 -1.1816924395 -0.6582837811
H   2.3967379442 -0.5425772870 -0.0312469938
7
Iter 18 Image 0  Energy = -153.9146221658
C   0.8260657415  0.5508603911 -0.1261794589
H   0.4554445983  1.2417513435 -0.8784317668
O   0.5680753083  1.0246514429  1.1187434847
C   1.4411098584 -0.5873603774 -0.4363613732
H   0.9099091373  0.3932317500  1.7666320721
H   1.5916834696 -0.8592929697 -1.4741885892
H   1.8089534565 -1.2734747403  0.3237244514
7
Iter 18 Image 1  Energy = -153.9127531242
C   0.8594724150  0.5789840360 -0.1569986332
H   0.4660117009  1.2431825557 -0.9234691097
O   0.7231176521  1.0937265241  1.0951706424
C   1.3916063827 -0.6009317202 -0.4098304129
H   0.8607221382  0.3529863569  1.7024030215
H   1.4291405105 -1.0237058993 -1.4034900438
H   1.8711705736 -1.1538748876  0.3901525518
7
Iter 18 Image 2  Energy = -153.9053770385
C   0.8915834469  0.6072296131 -0.1921058846
H   0.4791273564  1.2604151943 -0.9658347355
O   0.7816742428  1.1002486107  1.0742865434
C   1.3849096890 -0.5807527197 -0.3858068599
H   0.8608280249  0.2831263603  1.5825512490
H   1.2870979469 -1.1630950748 -1.2846183468
H   1.9160204259 -1.0168052105  0.4654653772
7
Iter 18 Image 3  Energy = -153.8816300260
C   0.9297713747  0.6736799735 -0.2091763001
H   0.5247915787  1.3369987763 -0.9457124279
O   0.8071833492  1.0494758847  1.0909928397
C   1.3987148721 -0.5715669159 -0.3252222289
H   0.7401097963  0.1191659460  1.3690424019
H   1.1297108868 -1.2369793375 -1.1287872128
H   2.0709593503 -0.8804076530  0.4428009898
7
Iter 18 Image 4  Energy = -153.8548808236
C   0.9306867269  0.6954280336 -0.2020439936
H   0.5537283625  1.3749855652 -0.9401744753
O   0.7946459516  1.0132112401  1.1253979214
C   1.3535542074 -0.5774830262 -0.2779414561
H   0.7279692984  0.0701296778  1.1849159872
H   1.0832132748 -1.2402451848 -1.0298314198
H   2.1574433686 -0.8456594668  0.4336151014
7
Iter 18 Image 5  Energy = -153.8432866370
C   0.9252231889  0.7964134588 -0.1255028771
H   0.5703916020  1.3872126501 -0.9673911387
O   0.7980762487  1.2346209613  1.0311838691
C   1.2833945031 -0.5857611433 -0.1079310974
H   0.7545073889 -0.2836662764  1.0418343843
H   1.0547855338 -1.2237516073 -0.9724556299
H   2.2148628178 -0.8347009384  0.3942004189
7
Iter 18 Image 6  Energy = -153.9020154032
C   0.9251942507  0.8536872891 -0.0979584378
H   0.6207366808  1.3804294598 -1.0149985292
O   0.7877081071  1.4026111437  0.9726693807
C   1.2592059121 -0.5806448433 -0.0085730959
H   0.7490064548 -0.5476282016  0.9843925538
H   0.9813612412 -1.2176337212 -0.8608582085
H   2.2780284833 -0.8004544267  0.3192644523
7
Iter 18 Image 7  Energy = -153.9277226710
C   0.9035990471  0.8913711731 -0.0390467510
H   0.6811366211  1.3402451286 -1.0261351021
O   0.7504572590  1.5324062184  0.9600515793
C   1.2642288785 -0.5647498442  0.0471604054
H   0.7037319406 -0.8492417819  0.9372526775
H   0.9761481932 -1.1387691393 -0.8311330307
H   2.3219392193 -0.7208950283  0.2457876969
7
Iter 18 Image 8  Energy = -153.9286382596
C   0.8779891732  0.9100603235  0.0305521330
H   0.6816700393  1.3390871780 -0.9849883777
O   0.8227431674  1.5834742231  0.9777208350
C   1.2232373540 -0.5660896865  0.0542830595
H   0.6661812294 -1.0700083647  0.8420547560
H   1.0455756652 -1.0344236222 -0.9049351437
H   2.2838450163 -0.6717331913  0.2792514375
7
Iter 18 Image 9  Energy = -153.9305910214
C   0.8561877779  0.8893942993  0.0037177265
H   0.8144995553  1.3313075098 -1.0042235165
O   0.6182832222  1.5867776549  0.9768285887
C   1.2380763823 -0.5586273755  0.0739419481
H   0.7869964160 -1.0661970577  0.9244898755
H   0.9647588532 -1.0674113516 -0.8467488363
H   2.3224393923 -0.6248768437  0.1659330519
7
Iter 18 Image 10  Energy = -153.9309834118
C   0.8248107232  0.8772963087 -0.0185902016
H   0.9193939703  1.3283262942 -1.0198505210
O   0.3913037512  1.5445909697  0.9074362075
C   1.2700348729 -0.5481756695  0.0973123132
H   0.9380595535 -0.9999035964  1.0295998451
H   0.8976433389 -1.1230543254 -0.7502004112
H   2.3599954108 -0.5887131834  0.0482314629
7
Iter 18 Image 11  Energy = -153.9315568446
C   0.7840367852  0.8656586589 -0.0371164025
H   0.9809293880  1.3403901038 -1.0231241499
O   0.1875804579  1.4681235287  0.8223429327
C   1.3100769769 -0.5359012779  0.1153731248
H   1.0639489065 -0.9236344469  1.1059940899
H   0.8779311114 -1.1816924395 -0.6582837811
H   2.3967379442 -0.5425772870 -0.0312469938
7
Iter 19 Image 0  Energy = -153.9146221658
C   0.8260657415  0.5508603911 -0.1261794589
H   0.4554445983  1.2417513435 -0.8784317668
O   0.5680753083  1.0246514429  1.1187434847
C   1.4411098584 -0.5873603774 -0.4363613732
H   0.9099091373  0.3932317500  1.7666320721
H   1.5916834696 -0.8592929697 -1.4741885892
H   1.8089534565 -1.2734747403  0.3237244514
7
Iter 19 Image 1  Energy = -153.9127271254
C   0.8596841992  0.5788317048 -0.1569176611
H   0.4659561112  1.2433254979 -0.9234580411
O   0.7231443642  1.0938088812  1.0951620142
C   1.3912321713 -0.6007274183 -0.4097400424
H   0.8605777705  0.3525233800  1.7023271659
H   1.4293162083 -1.0236215303 -1.4035340480
H   1.8713305520 -1.1537735486  0.3900986178
7
Iter 19 Image 2  Energy = -153.9052787320
C   0.8921062967  0.6063325710 -0.1920115065
H   0.4788956995  1.2601053147 -0.9660738545
O   0.7814189588  1.1004110290  1.0742521745
C   1.3844609636 -0.5800148037 -0.3860278181
H   0.8613368112  0.2835393292  1.5831262080
H   1.2874272512 -1.1628218962 -1.2850805147
H   1.9155951551 -1.0171847693  0.4657526439
7
Iter 19 Image 3  Energy = -153.8814740315
C   0.9300706925  0.6741959243 -0.2095047179
H   0.5248113886  1.3369063364 -0.9454707811
O   0.8071171315  1.0493451723  1.0908646165
C   1.3992118626 -0.5717239259 -0.3246022998
H   0.7399227743  0.1187411138  1.3685666031
H   1.1290105367 -1.2371537938 -1.1285273023
H   2.0710968234 -0.8799441586  0.4426119531
7
Iter 19 Image 4  Energy = -153.8547957662
C   0.9309116559  0.6946168182 -0.2033232689
H   0.5528968802  1.3744024636 -0.9398566413
O   0.7949295032  1.0099355059  1.1261483884
C   1.3541485059 -0.5775994654 -0.2800031554
H   0.7281367650  0.0751296778  1.1873290768
H   1.0841202267 -1.2398643601 -1.0309451292
H   2.1560976534 -0.8462538009  0.4345883805
7
Iter 19 Image 5  Energy = -153.8432119516
C   0.9254540366  0.7964498023 -0.1261266633
H   0.5702386575  1.3869836288 -0.9673994087
O   0.7980887039  1.2349578768  1.0311563825
C   1.2837413893 -0.5859072993 -0.1081243631
H   0.7543841096 -0.2837617160  1.0426509435
H   1.0545941002 -1.2236162805 -0.9723592622
H   2.2147402921 -0.8347388896  0.3941403003
7
Iter 19 Image 6  Energy = -153.9020027338
C   0.9254673961  0.8534604418 -0.0982727634
H   0.6209812396  1.3804060486 -1.0153138332
O   0.7873596870  1.4027079576  0.9722691818
C   1.2588494384 -0.5806194325 -0.0080681381
H   0.7493865920 -0.5472902902  0.9849496034
H   0.9808222098 -1.2177671481 -0.8603208110
H   2.2783745731 -0.8005308826  0.3186948861
7
Iter 19 Image 7  Energy = -153.9277229125
C   0.9037283493  0.8916271018 -0.0387154910
H   0.6812073437  1.3401156112 -1.0260955773
O   0.7500389132  1.5322701267  0.9599382223
C   1.2644463853 -0.5647971792  0.0473732610
H   0.7033781023 -0.8498051513  0.9371513017
H   0.9762354416 -1.1383959680 -0.8310625804
H   2.3222066207 -0.7206478097  0.2453483378
7
Iter 19 Image 8  Energy = -153.9281231863
C   0.8779518164  0.9110903863  0.0319426513
H   0.6816289155  1.3392399764 -0.9851688975
O   0.8227791977  1.5822857218  0.9761624329
C   1.2231522186 -0.5661999267  0.0543024992
H   0.6662334229 -1.0697630101  0.8423077125
H   1.0456887993 -1.0344705463 -0.9046790888
H   2.2838072736 -0.6718157434  0.2790713812
7
Iter 19 Image 9  Energy = -153.9305059927
C   0.8563944280  0.8890556823  0.0031144641
H   0.8142566162  1.3313136912 -1.0041471335
O   0.6185715360  1.5873003497  0.9773476584
C   1.2379784058 -0.5585995999  0.0740056642
H   0.7867580096 -1.0665169402  0.9243151363
H   0.9649777557 -1.0673053151 -0.8467688476
H   2.3223048459 -0.6248810346  0.1660718991
7
Iter 19 Image 10  Energy = -153.9308973361
C   0.8250018765  0.8768997563 -0.0192176724
H   0.9195076776  1.3283247659 -1.0198297530
O   0.3908052537  1.5449972921  0.9078315625
C   1.2700486270 -0.5481261082  0.0973806433
H   0.9382621060 -0.9999925744  1.0297597651
H   0.8975905274 -1.1230970610 -0.7500616207
H   2.3600255538 -0.5886392779  0.0480757670
7
Iter 19 Image 11  Energy = -153.9315568446
C   0.7840367852  0.8656586589 -0.0371164025
H   0.9809293880  1.3403901038 -1.0231241499
O   0.1875804579  1.4681235287  0.8223429327
C   1.3100769769 -0.5359012779  0.1153731248
H   1.0639489065 -0.9236344469  1.1059940899
H   0.8779311114 -1.1816924395 -0.6582837811
H   2.3967379442 -0.5425772870 -0.0312469938
7
Iter 20 Image 0  Energy = -153.9146221658
C   0.8260657415  0.5508603911 -0.1261794589
H   0.4554445983  1.2417513435 -0.8784317668
O   0.5680753083  1.0246514429  1.1187434847
C   1.4411098584 -0.5873603774 -0.4363613732
H   0.9099091373  0.3932317500  1.7666320721
H   1.5916834696 -0.8592929697 -1.4741885892
H   1.8089534565 -1.2734747403  0.3237244514
7
Iter 20 Image 1  Energy = -153.9126997116
C   0.8598970176  0.5786778436 -0.1568366065
H   0.4659001694  1.2434690648 -0.9234464449
O   0.7231710674  1.0938908157  1.0951546516
C   1.3908555071 -0.6005214433 -0.4096492791
H   0.8604322905  0.3520587852  1.7022510154
H   1.4294941243 -1.0235355133 -1.4035792574
H   1.8714912043 -1.1536725852  0.3900439155
7
Iter 20 Image 2  Energy = -153.9051673771
C   0.8926356888  0.6054236905 -0.1919192716
H   0.4786632680  1.2597947498 -0.9663138553
O   0.7811622684  1.1005741094  1.0742182140
C   1.3840077846 -0.5792644381 -0.3862448733
H   0.8618470543  0.2839522329  1.5837012449
H   1.2877558840 -1.1625489499 -1.2855444895
H   1.9151691913 -1.0175646188  0.4660403531
7
Iter 20 Image 3  Energy = -153.8813143387
C   0.9303719404  0.6747126860 -0.2098381388
H   0.5248311503  1.3368144472 -0.9452270879
O   0.8070500676  1.0491993128  1.0907434943
C   1.3997083082 -0.5718844880 -0.3239881902
H   0.7397343304  0.1183296228  1.3680825958
H   1.1283072241 -1.2373264411 -1.1282602860
H   2.0712381902 -0.8794784764  0.4424256941
7
Iter 20 Image 4  Energy = -153.8545806868
C   0.9311411104  0.6938177687 -0.2045783993
H   0.5520682267  1.3738292874 -0.9395482122
O   0.7952095733  1.0066132809  1.1268729745
C   1.3547368784 -0.5776901907 -0.2819977222
H   0.7283149130  0.0801296778  1.1896940369
H   1.0850086380 -1.2394931119 -1.0320513226
H   2.1547618510 -0.8468398731  0.4355462816
7
Iter 20 Image 5  Energy = -153.8431318251
C   0.9256862910  0.7964822141 -0.1267617041
H   0.5700857628  1.3867518764 -0.9674073842
O   0.7981007300  1.2352973856  1.0311360376
C   1.2840930855 -0.5860548862 -0.1083231672
H   0.7542578828 -0.2838529708  1.0434756400
H   1.0544002133 -1.2234801524 -0.9722609124
H   2.2146173297 -0.8347763261  0.3940794190
7
Iter 20 Image 6  Energy = -153.9019893579
C   0.9257415443  0.8532337157 -0.0985876092
H   0.6212274778  1.3803821026 -1.0156313578
O   0.7870094134  1.4028047842  0.9718646835
C   1.2584922443 -0.5805944906 -0.0075605397
H   0.7497688686 -0.5469503397  0.9855111904
H   0.9802793889 -1.2179013656 -0.8597797211
H   2.2787222047 -0.8006077173  0.3181214892
7
Iter 20 Image 7  Energy = -153.9277216683
C   0.9038579666  0.8918851809 -0.0383799052
H   0.6812785446  1.3399854391 -1.0260559755
O   0.7496181202  1.5321317577  0.9598222618
C   1.2646647581 -0.5648444811  0.0475873884
H   0.7030224408 -0.8503713329  0.9370492288
H   0.9763232856 -1.1380205436 -0.8309918116
H   2.3224760376 -0.7203992835  0.2449062861
7
Iter 20 Image 8  Energy = -153.9275284467
C   0.8779134533  0.9121630353  0.0333899730
H   0.6815875333  1.3393936575 -0.9853545499
O   0.8228114115  1.5810479372  0.9745393715
C   1.2230709238 -0.5663114119  0.0543205995
H   0.6662891093 -1.0694953125  0.8425710502
H   1.0457961455 -1.0345279074 -0.9044145407
H   2.2837730665 -0.6719031420  0.2788867786
7
Iter 20 Image 9  Energy = -153.9304166407
C   0.8566010050  0.8887213009  0.0025166009
H   0.8140084366  1.3313202621 -1.0040700744
O   0.6188692046  1.5878203694  0.9778617983
C   1.2378793944 -0.5585721004  0.0740692023
H   0.7865148140 -1.0668384113  0.9241371878
H   0.9652003274 -1.0671979071 -0.8467905441
H   2.3221684133 -0.6248866826  0.1662146735
7
Iter 20 Image 10  Energy = -153.9308054514
C   0.8251926998  0.8765033747 -0.0198454145
H   0.9196219466  1.3283231498 -1.0198086771
O   0.3903054989  1.5454036418  0.9082256888
C   1.2700623556 -0.5480761955  0.0974495557
H   0.9384658333 -1.0000822098  1.0299204309
H   0.8975374548 -1.1231400466 -0.7499221172
H   2.3600558343 -0.5885649264  0.0479192221
7
Iter 20 Image 11  Energy = -153.9315568446
C   0.7840367852  0.8656586589 -0.0371164025
H   0.9809293880  1.3403901038 -1.0231241499
O   0.1875804579  1.4681235287  0.8223429327
C   1.3100769769 -0.5359012779  0.1153731248
H   1.0639489065 -0.9236344469  1.1059940899
H   0.8779311114 -1.1816924395 -0.6582837811
H   2.3967379442 -0.5425772870 -0.0312469938
7
Iter 21 Image 0  Energy = -153.9146221658
C   0.8260657415  0.5508603911 -0.1261794589
H   0.4554445983  1.2417513435 -0.8784317668
O   0.5680753083  1.0246514429  1.1187434847
C   1.4411098584 -0.5873603774 -0.4363613732
H   0.9099091373  0.3932317500  1.7666320721
H   1.5916834696 -0.8592929697 -1.4741885892
H   1.8089534565 -1.2734747403  0.3237244514
7
Iter 21 Image 1  Energy = -153.9126707843
C   0.8601106261  0.5785227819 -0.1567554744
H   0.4658439434  1.2436131397 -0.9234343908
O   0.7231977659  1.0939723617  1.0951483611
C   1.3904768689 -0.6003141524 -0.4095582216
H   0.8602858796  0.3515928716  1.7021746345
H   1.4296739097 -1.0234480820 -1.4036254829
H   1.8716523905 -1.1535719520  0.3899885578
7
Iter 21 Image 2  Energy = -153.9050430844
C   0.8931703035  0.6045053982 -0.1918287962
H   0.4784302282  1.2594835853 -0.9665545487
O   0.7809044251  1.1007376974  1.0741845893
C   1.3835511134 -0.5785041680 -0.3864587394
H   0.8623585000  0.2843650936  1.5842763068
H   1.2880839319 -1.1622761548 -1.2860098868
H   1.9147426404 -1.0179446751  0.4663283870
7
Iter 21 Image 3  Energy = -153.8811511314
C   0.9306748266  0.6752296986 -0.2101757047
H   0.5248506300  1.3367228855 -0.9449817568
O   0.8069824236  1.0490407948  1.0906280746
C   1.4002045791 -0.5720477772 -0.3233794337
H   0.7395447190  0.1179299323  1.3675930087
H   1.1276017722 -1.2374976423 -1.1279880067
H   2.0713822620 -0.8790112338  0.4422419095
7
Iter 21 Image 4  Energy = -153.8542247016
C   0.9313743144  0.6930285058 -0.2058145358
H   0.5512423521  1.3732648836 -0.9392473794
O   0.7954869219  1.0032505651  1.1275781866
C   1.3553184191 -0.5777593937 -0.2839362119
H   0.7285019016  0.0851296778  1.1920140780
H   1.0858810994 -1.2391289847 -1.0331484925
H   2.1534361824 -0.8474184142  0.4364919778
7
Iter 21 Image 5  Energy = -153.8430462543
C   0.9259198622  0.7965105854 -0.1274075215
H   0.5699334127  1.3865173763 -0.9674155094
O   0.7981122406  1.2356397119  1.0311224406
C   1.2844500287 -0.5862034837 -0.1085279345
H   0.7541285159 -0.2839407047  1.0443093506
H   1.0542036012 -1.2233433985 -0.9721600666
H   2.2144936396 -0.8348129277  0.3940171691
7
Iter 21 Image 6  Energy = -153.9019753852
C   0.9260164657  0.8530071487 -0.0989028944
H   0.6214750699  1.3803577020 -1.0159507048
O   0.7866576345  1.4029016618  0.9714566426
C   1.2581344522 -0.5805699743 -0.0070506757
H   0.7501529712 -0.5466087089  0.9860764428
H   0.9797334580 -1.2180362408 -0.8592356504
H   2.2790710963 -0.8006849047  0.3175449849
7
Iter 21 Image 7  Energy = -153.9277192583
C   0.9039876507  0.8921448876 -0.0380403931
H   0.6813497141  1.3398550253 -1.0260156901
O   0.7491965060  1.5319912306  0.9597045519
C   1.2648832352 -0.5648918717  0.0478022301
H   0.7026651985 -0.8509403447  0.9369457249
H   0.9764125531 -1.1376425114 -0.8309219619
H   2.3227462933 -0.7201496737  0.2444630097
7
Iter 21 Image 8  Energy = -153.9268448191
C   0.8778368785  0.9132903246  0.0349659028
H   0.6815779243  1.3395453593 -0.9854981598
O   0.8228829122  1.5798321543  0.9728822576
C   1.2229446047 -0.5664238441  0.0543507405
H   0.6663305765 -1.0694813754  0.8427447914
H   1.0459659525 -1.0344728271 -0.9042206791
H   2.2837027941 -0.6719229368  0.2787138212
7
Iter 21 Image 9  Energy = -153.9303229352
C   0.8568074766  0.8883904418  0.0019232682
H   0.8137561025  1.3313271487 -1.0039925141
O   0.6191743405  1.5883381420  0.9783717916
C   1.2377795477 -0.5585448402  0.0741326178
H   0.7862678245 -1.0671611694  0.9239566982
H   0.9654258221 -1.0670894208 -0.8468135573
H   2.3220304795 -0.6248934735  0.1663605432
7
Iter 21 Image 10  Energy = -153.9307078995
C   0.8253832249  0.8761071788 -0.0204732962
H   0.9197366598  1.3283214627 -1.0197873604
O   0.3898047771  1.5458099892  0.9086187561
C   1.2700760607 -0.5480260090  0.0975189412
H   0.9386705058 -1.0001724006  1.0300816834
H   0.8974841843 -1.1231832273 -0.7497820393
H   2.3600862118 -0.5884902107  0.0477620007
7
Iter 21 Image 11  Energy = -153.9315568446
C   0.7840367852  0.8656586589 -0.0371164025
H   0.9809293880  1.3403901038 -1.0231241499
O   0.1875804579  1.4681235287  0.8223429327
C   1.3100769769 -0.5359012779  0.1153731248
H   1.0639489065 -0.9236344469  1.1059940899
H   0.8779311114 -1.1816924395 -0.6582837811
H   2.3967379442 -0.5425772870 -0.0312469938
7
Iter 22 Image 0  Energy = -153.9146221658
C   0.8260657415  0.5508603911 -0.1261794589
H   0.4554445983  1.2417513435 -0.8784317668
O   0.5680753083  1.0246514429  1.1187434847
C   1.4411098584 -0.5873603774 -0.4363613732
H   0.9099091373  0.3932317500  1.7666320721
H   1.5916834696 -0.8592929697 -1.4741885892
H   1.8089534565 -1.2734747403  0.3237244514
7
Iter 22 Image 1  Energy = -153.9126405749
C   0.8603241447  0.5783684160 -0.1566743898
H   0.4657875869  1.2437574642 -0.9234214302
O   0.7232246320  1.0940526799  1.0951438594
C   1.3900967415 -0.6001072400 -0.4094671051
H   0.8601381747  0.3511258784  1.7020976367
H   1.4298560265 -1.0233586594 -1.4036727012
H   1.8718140815 -1.1534715698  0.3899321030
7
Iter 22 Image 2  Energy = -153.9049062283
C   0.8937081584  0.6035824607 -0.1917408242
H   0.4781970635  1.2591704525 -0.9667950568
O   0.7806454813  1.1009009410  1.0741511824
C   1.3830932386 -0.5777381747 -0.3866686883
H   0.8628714504  0.2847783680  1.5848515002
H   1.2884113322 -1.1620029144 -1.2864765404
H   1.9143144214 -1.0183243556  0.4666157291
7
Iter 22 Image 3  Energy = -153.8809852361
C   0.9309811577  0.6757438857 -0.2105177453
H   0.5248691425  1.3366322575 -0.9447351826
O   0.8069139182  1.0488641147  1.0905203995
C   1.4006977886 -0.5722122422 -0.3227797490
H   0.7393541018  0.1175477323  1.3670961108
H   1.1268944147 -1.2376662575 -1.1277086194
H   2.0715306906 -0.8785428380  0.4420628864
7
Iter 22 Image 4  Energy = -153.8537109668
C   0.9316125786  0.6922536069 -0.2070292123
H   0.5504262606  1.3727164454 -0.9389534974
O   0.7957547025  0.9998369132  1.1282684455
C   1.3558994360 -0.5778089424 -0.2858091655
H   0.7286918385  0.0901296778  1.1942694153
H   1.0867231877 -1.2387802867 -1.0342249462
H   2.1521331874 -0.8479805738  0.4374165697
7
Iter 22 Image 5  Energy = -153.8429548849
C   0.9261550564  0.7965337791 -0.1280615166
H   0.5697838378  1.3862793588 -0.9674260036
O   0.7981230870  1.2359810151  1.0311132121
C   1.2848139082 -0.5863508870 -0.1087400317
H   0.7539932442 -0.2840229254  1.0451529570
H   1.0539998233 -1.2232066442 -0.9720516051
H   2.2143723497 -0.8348465194  0.3939509163
7
Iter 22 Image 6  Energy = -153.9019608046
C   0.9262920665  0.8527815305 -0.0992187385
H   0.6217245648  1.3803325333 -1.0162722727
O   0.7863040263  1.4029987766  0.9710439355
C   1.2577769250 -0.5805466771 -0.0065386968
H   0.7505389928 -0.5462654038  0.9866470147
H   0.9791835144 -1.2181717627 -0.8586874310
H   2.2794210638 -0.8007623182  0.3169643443
7
Iter 22 Image 7  Energy = -153.9277154661
C   0.9041172497  0.8924047882 -0.0376967211
H   0.6814187811  1.3397257277 -1.0259722052
O   0.7487784285  1.5318470389  0.9595875688
C   1.2650993176 -0.5649397506  0.0480165529
H   0.7023060640 -0.8515125679  0.9368376098
H   0.9765069706 -1.1372591880 -0.8308577628
H   2.3230143367 -0.7198993010  0.2440224281
7
Iter 22 Image 8  Energy = -153.9260636098
C   0.8777535104  0.9144604418  0.0366046915
H   0.6815796786  1.3396973129 -0.9856419244
O   0.8229443144  1.5785752980  0.9711628895
C   1.2228169736 -0.5665357737  0.0543824149
H   0.6663808389 -1.0694771339  0.8429230107
H   1.0461331352 -1.0344164515 -0.9040243365
H   2.2836331915 -0.6719368405  0.2785319215
7
Iter 22 Image 9  Energy = -153.9302263060
C   0.8570120917  0.8880683636  0.0013424309
H   0.8134994888  1.3313345641 -1.0039149497
O   0.6194889545  1.5888489053  0.9788705618
C   1.2376787135 -0.5585182630  0.0741957552
H   0.7860168424 -1.0674857737  0.9237734056
H   0.9656546296 -1.0669796819 -0.8468379249
H   2.3218908710 -0.6249012882  0.1665095718
7
Iter 22 Image 10  Energy = -153.9306057345
C   0.8255706083  0.8757152905 -0.0210952632
H   0.9198520353  1.3283198283 -1.0197662275
O   0.3893053018  1.5462124465  0.9090050493
C   1.2700898773 -0.5479759089  0.0975887835
H   0.9388763986 -1.0002630857  1.0302436267
H   0.8974306915 -1.1232267357 -0.7496411755
H   2.3601167128 -0.5884150568  0.0476038891
7
Iter 22 Image 11  Energy = -153.9315568446
C   0.7840367852  0.8656586589 -0.0371164025
H   0.9809293880  1.3403901038 -1.0231241499
O   0.1875804579  1.4681235287  0.8223429327
C   1.3100769769 -0.5359012779  0.1153731248
H   1.0639489065 -0.9236344469  1.1059940899
H   0.8779311114 -1.1816924395 -0.6582837811
H   2.3967379442 -0.5425772870 -0.0312469938
7
Iter 23 Image 0  Energy = -153.9146221658
C   0.8260657415  0.5508603911 -0.1261794589
H   0.4554445983  1.2417513435 -0.8784317668
O   0.5680753083  1.0246514429  1.1187434847
C   1.4411098584 -0.5873603774 -0.4363613732
H   0.9099091373  0.3932317500  1.7666320721
H   1.5916834696 -0.8592929697 -1.4741885892
H   1.8089534565 -1.2734747403  0.3237244514
7
Iter 23 Image 1  Energy = -153.9126091121
C   0.8605372546  0.5782156203 -0.1565933390
H   0.4657311549  1.2439019856 -0.9234074098
O   0.7232517647  1.0941315306  1.0951413280
C   1.3897152758 -0.5999014745 -0.4093760089
H   0.8599890033  0.3506576566  1.7020198179
H   1.4300406075 -1.0232670774 -1.4037208129
H   1.8719763310 -1.1533712705  0.3898743868
7
Iter 23 Image 2  Energy = -153.9047572667
C   0.8942481181  0.6026574911 -0.1916553696
H   0.4779638607  1.2588545198 -0.9670351080
O   0.7803853718  1.1010635550  1.0741178677
C   1.3826352729 -0.5769690441 -0.3868750430
H   0.8633863614  0.2851926521  1.5854274014
H   1.2887384390 -1.1617286672 -1.2869445990
H   1.9138837251 -1.0187037278  0.4669021426
7
Iter 23 Image 3  Energy = -153.8808169363
C   0.9312918190  0.6762539968 -0.2108642663
H   0.5248861966  1.3365425151 -0.9444875807
O   0.8068445362  1.0486680256  1.0904204307
C   1.4011873649 -0.5723768138 -0.3221899940
H   0.7391626158  0.1171845815  1.3665926184
H   1.1261852581 -1.2378321226 -1.1274224137
H   2.0716834253 -0.8780735354  0.4418893155
7
Iter 23 Image 4  Energy = -153.8530252187
C   0.9318557648  0.6914950626 -0.2082240587
H   0.5496208104  1.3721842131 -0.9386661043
O   0.7960114162  0.9963734791  1.1289468223
C   1.3564813832 -0.5778427519 -0.2876183934
H   0.7288836074  0.0951296778  1.1964591747
H   1.0875335854 -1.2384472385 -1.0352788386
H   2.1508546244 -0.8485256004  0.4383189933
7
Iter 23 Image 5  Energy = -153.8428575745
C   0.9263920527  0.7965516619 -0.1287225060
H   0.5696372417  1.3860374611 -0.9674395885
O   0.7981334326  1.2363207367  1.0311067346
C   1.2851851440 -0.5864965290 -0.1089599466
H   0.7538516675 -0.2840995116  1.0460077335
H   1.0537881708 -1.2230697494 -0.9719345945
H   2.2142536034 -0.8348768748  0.3938800964
7
Iter 23 Image 6  Energy = -153.9019457612
C   0.9265684351  0.8525570332 -0.0995353971
H   0.6219761729  1.3803065198 -1.0165962394
O   0.7859483455  1.4030963096  0.9706261533
C   1.2574196805 -0.5805249116 -0.0060243950
H   0.7509271796 -0.5459203269  0.9872235325
H   0.9786291776 -1.2183079486 -0.8581345874
H   2.2797721683 -0.8008400020  0.3163790986
7
Iter 23 Image 7  Energy = -153.9277103241
C   0.9042470291  0.8926644921 -0.0373495829
H   0.6814858674  1.3395974614 -1.0259256262
O   0.7483632640  1.5316994227  0.9594717406
C   1.2653130243 -0.5649880562  0.0482306683
H   0.7019450643 -0.8520878108  0.9367250676
H   0.9766063518 -1.1368706086 -0.8307988816
H   2.3232805449 -0.7196481481  0.2435840836
7
Iter 23 Image 8  Energy = -153.9251745492
C   0.8776631794  0.9156738102  0.0383067081
H   0.6815928862  1.3398495223 -0.9857853993
O   0.8229958577  1.5772768764  0.9693803803
C   1.2226878263 -0.5666468991  0.0544158929
H   0.6664399261 -1.0694831154  0.8431056431
H   1.0462979069 -1.0343585349 -0.9038256102
H   2.2835640597 -0.6719448082  0.2783410445
7
Iter 23 Image 9  Energy = -153.9301276419
C   0.8572142686  0.8877568140  0.0007767125
H   0.8132387620  1.3313425820 -1.0038376521
O   0.6198133490  1.5893510975  0.9793557285
C   1.2375768808 -0.5584925443  0.0742585836
H   0.7857620038 -1.0678123782  0.9235873998
H   0.9658867429 -1.0668687357 -0.8468634766
H   2.3217495825 -0.6249100113  0.1666615581
7
Iter 23 Image 10  Energy = -153.9304996449
C   0.8257537597  0.8753292126 -0.0217090890
H   0.9199682126  1.3283183111 -1.0197454956
O   0.3888077721  1.5466096172  0.9093824685
C   1.2701038777 -0.5479260583  0.0976590622
H   0.9390836839 -1.0003542491  1.0304063750
H   0.8973769513 -1.1232706431 -0.7494993867
H   2.3601473695 -0.5883394173  0.0474447448
7
Iter 23 Image 11  Energy = -153.9315568446
C   0.7840367852  0.8656586589 -0.0371164025
H   0.9809293880  1.3403901038 -1.0231241499
O   0.1875804579  1.4681235287  0.8223429327
C   1.3100769769 -0.5359012779  0.1153731248
H   1.0639489065 -0.9236344469  1.1059940899
H   0.8779311114 -1.1816924395 -0.6582837811
H   2.3967379442 -0.5425772870 -0.0312469938
7
Iter 24 Image 0  Energy = -153.9146221658
C   0.8260657415  0.5508603911 -0.1261794589
H   0.4554445983  1.2417513435 -0.8784317668
O   0.5680753083  1.0246514429  1.1187434847
C   1.4411098584 -0.5873603774 -0.4363613732
H   0.9099091373  0.3932317500  1.7666320721
H   1.5916834696 -0.8592929697 -1.4741885892
H   1.8089534565 -1.2734747403  0.3237244514
7
Iter 24 Image 1  Energy = -153.9125764512
C   0.8607496600  0.5780652233 -0.1565122922
H   0.4656746981  1.2440466617 -0.9233921872
O   0.7232792641  1.0942086869  1.0951409015
C   1.3893326049 -0.5996975665 -0.4092849845
H   0.8598381997  0.3501880335  1.7019409912
H   1.4302277758 -1.0231731863 -1.4037697294
H   1.8721391929 -1.1532708809  0.3898152518
7
Iter 24 Image 2  Energy = -153.9045965307
C   0.8947890916  0.6017329897 -0.1915724007
H   0.4777306823  1.2585349894 -0.9672744742
O   0.7801240234  1.1012252938  1.0740845135
C   1.3821782721 -0.5761992730 -0.3870781702
H   0.8639037009  0.2856085366  1.5860046169
H   1.2890656239 -1.1614528629 -1.2874142372
H   1.9134497580 -1.0190828938  0.4671874338
7
Iter 24 Image 3  Energy = -153.8806467648
C   0.9316076476  0.6767588504 -0.2112152771
H   0.5249013020  1.3364535676 -0.9442391499
O   0.8067742718  1.0484514196  1.0903280330
C   1.4016729368 -0.5725404565 -0.3216109613
H   0.7389703719  0.1168419811  1.3660835048
H   1.1254744013 -1.2379951521 -1.1271298392
H   2.0718402860 -0.8776035683  0.4417218090
7
Iter 24 Image 4  Energy = -153.8521520403
C   0.9321036878  0.6907549991 -0.2094008124
H   0.5488269833  1.3716683637 -0.9383847279
O   0.7962556242  0.9928610778  1.1296162730
C   1.3570658248 -0.5778647041 -0.2893657797
H   0.7290759815  0.1001296778  1.1985824630
H   1.0883107822 -1.2381300104 -1.0363079876
H   2.1496023084 -0.8490525605  0.4391981539
7
Iter 24 Image 5  Energy = -153.8427541807
C   0.9266310409  0.7965641344 -0.1293892496
H   0.5694937924  1.3857914342 -0.9674568801
O   0.7981434319  1.2366580367  1.0311014844
C   1.2855640916 -0.5866398260 -0.1091880667
H   0.7537033583 -0.2841701670  1.0468745677
H   1.0535679320 -1.2229326569 -0.9718081731
H   2.2141376711 -0.8349037418  0.3938042467
7
Iter 24 Image 6  Energy = -153.9019301407
C   0.9268456672  0.8523337844 -0.0998531516
H   0.6222301191  1.3802795788 -1.0169227901
O   0.7855903481  1.4031944318  0.9702029280
C   1.2570627298 -0.5805049417 -0.0055075610
H   0.7513177583 -0.5455733717  0.9878066038
H   0.9780700387 -1.2184448315 -0.8575766290
H   2.2801245042 -0.8009179819  0.3157887755
7
Iter 24 Image 7  Energy = -153.9277038919
C   0.9043772574  0.8929236136 -0.0369996778
H   0.6815510916  1.3394701487 -1.0258760690
O   0.7479503711  1.5315485872  0.9593574659
C   1.2655244181 -0.5650367389  0.0484448491
H   0.7015822351 -0.8526657777  0.9366083424
H   0.9767104803 -1.1364768548 -0.8307449600
H   2.3235452897 -0.7193962203  0.2431475177
7
Iter 24 Image 8  Energy = -153.9241661329
C   0.8775656873  0.9169311386  0.0400727333
H   0.6816176360  1.3400019940 -0.9859281563
O   0.8230378150  1.5759361419  0.9675334654
C   1.2225569543 -0.5667569543  0.0544514320
H   0.6665078728 -1.0694998499  0.8432926119
H   1.0464604807 -1.0342988337 -0.9036245972
H   2.2834951959 -0.6719467868  0.2781411630
7
Iter 24 Image 9  Energy = -153.9300278426
C   0.8574134920  0.8874573118  0.0002284180
H   0.8129741631  1.3313512706 -1.0037608949
O   0.6201476399  1.5898433613  0.9798251989
C   1.2374740215 -0.5584678423  0.0743210929
H   0.7855035156 -1.0681411402  0.9233988146
H   0.9661221068 -1.0667566401 -0.8468900147
H   2.3216066489 -0.6249194997  0.1668162420
7
Iter 24 Image 10  Energy = -153.9303903167
C   0.8259317167  0.8749502574 -0.0223128147
H   0.9200853219  1.3283169775 -1.0197253739
O   0.3883127860  1.5470002847  0.9097491702
C   1.2701181324 -0.5478766140  0.0977297647
H   0.9392925275 -1.0004458817  1.0305700307
H   0.8973229399 -1.1233150125 -0.7493565364
H   2.3601782038 -0.5882632431  0.0472844354
7
Iter 24 Image 11  Energy = -153.9315568446
C   0.7840367852  0.8656586589 -0.0371164025
H   0.9809293880  1.3403901038 -1.0231241499
O   0.1875804579  1.4681235287  0.8223429327
C   1.3100769769 -0.5359012779  0.1153731248
H   1.0639489065 -0.9236344469  1.1059940899
H   0.8779311114 -1.1816924395 -0.6582837811
H   2.3967379442 -0.5425772870 -0.0312469938
7
Iter 25 Image 0  Energy = -153.9146221658
C   0.8260657415  0.5508603911 -0.1261794589
H   0.4554445983  1.2417513435 -0.8784317668
O   0.5680753083  1.0246514429  1.1187434847
C   1.4411098584 -0.5873603774 -0.4363613732
H   0.9099091373  0.3932317500  1.7666320721
H   1.5916834696 -0.8592929697 -1.4741885892
H   1.8089534565 -1.2734747403  0.3237244514
7
Iter 25 Image 1  Energy = -153.9125426249
C   0.8609611266  0.5779179922 -0.1564312078
H   0.4656182547  1.2441914794 -0.9233756444
O   0.7233072277  1.0942839850  1.0951426803
C   1.3889488019 -0.5994961613 -0.4091940790
H   0.8596855998  0.3497167612  1.7018609629
H   1.4304176327 -1.0230768755 -1.4038193373
H   1.8723027559 -1.1531702081  0.3897545657
7
Iter 25 Image 2  Energy = -153.9044244530
C   0.8953300639  0.6008112945 -0.1914918115
H   0.4774975403  1.2582110490 -0.9675129845
O   0.7798613319  1.1013859480  1.0740509771
C   1.3817231848 -0.5754312609 -0.3872785776
H   0.8644240086  0.2860267003  1.5865838733
H   1.2893933475 -1.1611749013 -1.2878857015
H   1.9130116785 -1.0194620486  0.4674714963
7
Iter 25 Image 3  Energy = -153.8804750584
C   0.9319294566  0.6772574839 -0.2115707603
H   0.5249140154  1.3363652853 -0.9439900611
O   0.8067031086  1.0482134795  1.0902428937
C   1.4021543115 -0.5727021595 -0.3210430331
H   0.7387774730  0.1165209899  1.3655697257
H   1.1247618170 -1.2381553606 -1.1268314304
H   2.0720010368 -0.8771330820  0.4415607943
7
Iter 25 Image 4  Energy = -153.8510746013
C   0.9323560983  0.6900358800 -0.2105613555
H   0.5480459177  1.3711689597 -0.9381087999
O   0.7964857576  0.9893006525  1.1302798804
C   1.3576544082 -0.5778792040 -0.2910537128
H   0.7292675937  0.1051296778  1.2006385525
H   1.0890531798 -1.2378286844 -1.0373099012
H   2.1483782375 -0.8495604363  0.4400529055
7
Iter 25 Image 5  Energy = -153.8426448667
C   0.9268722167  0.7965712546 -0.1300603114
H   0.5693536888  1.3855411068 -0.9674784760
O   0.7981532190  1.2369919667  1.0310957898
C   1.2859510269 -0.5867801889 -0.1094245229
H   0.7535478902 -0.2842347358  1.0477539741
H   1.0533382898 -1.2227953598 -0.9716714009
H   2.2140249924 -0.8349268120  0.3937228767
7
Iter 25 Image 6  Energy = -153.9019140016
C   0.9271239160  0.8521118222 -0.1001723280
H   0.6224866453  1.3802516480 -1.0172521405
O   0.7852297511  1.4032933163  0.9697739126
C   1.2567060204 -0.5804869911 -0.0049879404
H   0.7517109749 -0.5452243911  0.9883968527
H   0.9775056541 -1.2185824609 -0.8570130237
H   2.2804782096 -0.8009962803  0.3151928530
7
Iter 25 Image 7  Energy = -153.9276961093
C   0.9045082334  0.8931818347 -0.0366476797
H   0.6816145694  1.3393436968 -1.0258236682
O   0.7475390614  1.5313946862  0.9592451001
C   1.2657336254 -0.5650857553  0.0486593932
H   0.7012175758 -0.8532461504  0.9364877098
H   0.9768191117 -1.1360780343 -0.8306956097
H   2.3238089636 -0.7191435149  0.2427122219
7
Iter 25 Image 8  Energy = -153.9230253310
C   0.8774608164  0.9182333358  0.0419038552
H   0.6816540060  1.3401547550 -0.9860697869
O   0.8230704995  1.5745521546  0.9656206009
C   1.2224241169 -0.5668656973  0.0544892883
H   0.6665847127 -1.0695279017  0.8434838214
H   1.0466210996 -1.0342370757 -0.9034213873
H   2.2834263906 -0.6719427226  0.2779322530
7
Iter 25 Image 9  Energy = -153.9299275757
C   0.8576093313  0.8871711184 -0.0003005476
H   0.8127059759  1.3313606901 -1.0036849244
O   0.6204917933  1.5903245896  0.9802772231
C   1.2373701335 -0.5584442881  0.0743832895
H   0.7852416177 -1.0684722465  0.9232078148
H   0.9663606411 -1.0666434552 -0.8469173147
H   2.3214620931 -0.6249295892  0.1669733195
7
Iter 25 Image 10  Energy = -153.9302783583
C   0.8261036411  0.8745795418 -0.0229047741
H   0.9202035052  1.3283158863 -1.0197060546
O   0.3878207908  1.5473834181  0.9101035671
C   1.2701327106 -0.5478277155  0.0978008779
H   0.9395031119 -1.0005379781  1.0307347213
H   0.8972686256 -1.1233599112 -0.7492124757
H   2.3602092442 -0.5881864781  0.0471228110
7
Iter 25 Image 11  Energy = -153.9315568446
C   0.7840367852  0.8656586589 -0.0371164025
H   0.9809293880  1.3403901038 -1.0231241499
O   0.1875804579  1.4681235287  0.8223429327
C   1.3100769769 -0.5359012779  0.1153731248
H   1.0639489065 -0.9236344469  1.1059940899
H   0.8779311114 -1.1816924395 -0.6582837811
H   2.3967379442 -0.5425772870 -0.0312469938
7
Iter 26 Image 0  Energy = -153.9146221658
C   0.8260657415  0.5508603911 -0.1261794589
H   0.4554445983  1.2417513435 -0.8784317668
O   0.5680753083  1.0246514429  1.1187434847
C   1.4411098584 -0.5873603774 -0.4363613732
H   0.9099091373  0.3932317500  1.7666320721
H   1.5916834696 -0.8592929697 -1.4741885892
H   1.8089534565 -1.2734747403  0.3237244514
7
Iter 26 Image 1  Energy = -153.9125076262
C   0.8611715050  0.5777746040 -0.1563500172
H   0.4655618497  1.2443364606 -0.9233576909
O   0.7233357564  1.0943573304  1.0951466893
C   1.3885638575 -0.5992978124 -0.4091032979
H   0.8595310384  0.3492434782  1.7017795354
H   1.4306102528 -1.0229780768 -1.4038695043
H   1.8724671434 -1.1530690100  0.3896922152
7
Iter 26 Image 2  Energy = -153.9042419507
C   0.8958701305  0.5998945147 -0.1914134099
H   0.4772643748  1.2578818559 -0.9677505510
O   0.7795971480  1.1015453861  1.0740170998
C   1.3812708072 -0.5746672448 -0.3874769441
H   0.8649479280  0.2864479137  1.5871660735
H   1.2897221929 -1.1608941253 -1.2883593476
H   1.9125685772 -1.0198415177  0.4677543406
7
Iter 26 Image 3  Energy = -153.8803021020
C   0.9322580307  0.6777492431 -0.2119307100
H   0.5249239638  1.3362774897 -0.9437404351
O   0.8066310085  1.0479538178  1.0901644943
C   1.4026314984 -0.5728609535 -0.3204860339
H   0.7385840132  0.1162220128  1.3650521407
H   1.1240472912 -1.2383128815 -1.1265277908
H   2.0721654145 -0.8766620971  0.4414064729
7
Iter 26 Image 4  Energy = -153.8497741793
C   0.9326126279  0.6893406722 -0.2117077520
H   0.5472788816  1.3706859054 -0.9378376108
O   0.7967000612  0.9856935211  1.1309410277
C   1.3582487835 -0.5778916218 -0.2926854060
H   0.7294569807  0.1101296778  1.2026268834
H   1.0897592240 -1.2375431013 -1.0382817170
H   2.1471846347 -0.8500482061  0.4408821309
7
Iter 26 Image 5  Energy = -153.8425297388
C   0.9271157984  0.7965732889 -0.1307340152
H   0.5692171803  1.3852863461 -0.9675050094
O   0.7981629120  1.2373215409  1.0310877028
C   1.2863461327 -0.5869170021 -0.1096692200
H   0.7533848375 -0.2842933412  1.0486462307
H   1.0530982933 -1.2226578648 -0.9715231829
H   2.2139161751 -0.8349457181  0.3936354235
7
Iter 26 Image 6  Energy = -153.9018973905
C   0.9274034128  0.8518910665 -0.1004933619
H   0.6227460166  1.3802226793 -1.0175845239
O   0.7848662123  1.4033931491  0.9693388053
C   1.2563493635 -0.5804712262 -0.0044652111
H   0.7521071177 -0.5448731740  0.9889949259
H   0.9769355371 -1.2187209065 -0.8564431970
H   2.2808335172 -0.8010749304  0.3145907587
7
Iter 26 Image 7  Energy = -153.9276870316
C   0.9046402967  0.8934389179 -0.0362942436
H   0.6816764183  1.3392179881 -1.0257685663
O   0.7471285736  1.5312378454  0.9591349646
C   1.2659408573 -0.5651350968  0.0488746002
H   0.7008510111 -0.8538286438  0.9363634851
H   0.9769319815 -1.1356742441 -0.8306503878
H   2.3240719998 -0.7188899987  0.2422776142
7
Iter 26 Image 8  Energy = -153.9217378845
C   0.8773483357  0.9195814603  0.0438013877
H   0.6817020653  1.3403078531 -0.9862098933
O   0.8230942649  1.5731238375  0.9636400442
C   1.2222890341 -0.5669729220  0.0545297113
H   0.6666704733 -1.0695679003  0.8436791527
H   1.0467800545 -1.0341729335 -0.9032160503
H   2.2833574137 -0.6719325488  0.2777142849
7
Iter 26 Image 9  Energy = -153.9298275289
C   0.8578014705  0.8868991904 -0.0008087483
H   0.8124345035  1.3313708885 -1.0036099605
O   0.6208456428  1.5907939882  0.9807104714
C   1.2372651969 -0.5584219882  0.0744451959
H   0.7849765670 -1.0688059241  0.9230145719
H   0.9666022577 -1.0665292359 -0.8469451320
H   2.3213159456 -0.6249401021  0.1671324648
7
Iter 26 Image 10  Energy = -153.9301644647
C   0.8262688364  0.8742179402 -0.0234836621
H   0.9203229254  1.3283150993 -1.0196877229
O   0.3873320376  1.5477582170  0.9104443832
C   1.2701476923 -0.5477794811  0.0978723964
H   0.9397156510 -1.0006305454  1.0309006141
H   0.8972139610 -1.1234054125 -0.7490670361
H   2.3602405269 -0.5881090592  0.0469596971
7
Iter 26 Image 11  Energy = -153.9315568446
C   0.7840367852  0.8656586589 -0.0371164025
H   0.9809293880  1.3403901038 -1.0231241499
O   0.1875804579  1.4681235287  0.8223429327
C   1.3100769769 -0.5359012779  0.1153731248
H   1.0639489065 -0.9236344469  1.1059940899
H   0.8779311114 -1.1816924395 -0.6582837811
H   2.3967379442 -0.5425772870 -0.0312469938
7
Iter 27 Image 0  Energy = -153.9146221658
C   0.8260657415  0.5508603911 -0.1261794589
H   0.4554445983  1.2417513435 -0.8784317668
O   0.5680753083  1.0246514429  1.1187434847
C   1.4411098584 -0.5873603774 -0.4363613732
H   0.9099091373  0.3932317500  1.7666320721
H   1.5916834696 -0.8592929697 -1.4741885892
H   1.8089534565 -1.2734747403  0.3237244514
7
Iter 27 Image 1  Energy = -153.9124717470
C   0.8613807416  0.5776356323 -0.1562686210
H   0.4655054879  1.2444816732 -0.9233382710
O   0.7233649479  1.0944287318  1.0951528735
C   1.3881776666 -0.5991029631 -0.4090126075
H   0.8593743515  0.3487676785  1.7016965192
H   1.4308056900 -1.0228767749 -1.4039200825
H   1.8726325215 -1.1529670028  0.3896281079
7
Iter 27 Image 2  Energy = -153.9040494401
C   0.8964085488  0.5989844334 -0.1913368934
H   0.4770310429  1.2575465521 -0.9679871845
O   0.7793312663  1.1017035628  1.0739826968
C   1.3808217408 -0.5739092189 -0.3876741379
H   0.8654762138  0.2868730465  1.5877523026
H   1.2900528668 -1.1606098222 -1.2888356511
H   1.9121194823 -1.0202217701  0.4680361182
7
Iter 27 Image 3  Energy = -153.8801278042
C   0.9325941208  0.6782338282 -0.2122951113
H   0.5249308552  1.3361899454 -0.9434903304
O   0.8065579217  1.0476725532  1.0900920551
C   1.4031047613 -0.5730159247 -0.3199391533
H   0.7383900623  0.1159446815  1.3645315005
H   1.1233303941 -1.2384679852 -1.1262195855
H   2.0723331065 -0.8761904721  0.4412587723
7
Iter 27 Image 4  Energy = -153.8482304423
C   0.9328727651  0.6886728696 -0.2128422875
H   0.5465272148  1.3702188705 -0.9375703003
O   0.7968966438  0.9820414425  1.1316034539
C   1.3588504060 -0.5779084182 -0.2942650736
H   0.7296426756  0.1151296778  1.2045470312
H   1.0904275640 -1.2372726659 -1.0392201561
H   2.1460239250 -0.8505149267  0.4416848762
7
Iter 27 Image 5  Energy = -153.8424091375
C   0.9273620370  0.7965706871 -0.1314085605
H   0.5690845630  1.3850270261 -0.9675371497
O   0.7981726093  1.2376458645  1.0310750403
C   1.2867495971 -0.5870496481 -0.1099219049
H   0.7532137635 -0.2843464370  1.0495515687
H   1.0528468667 -1.2225201847 -0.9713622872
H   2.2138118985 -0.8349600397  0.3935412225
7
Iter 27 Image 6  Energy = -153.9018803462
C   0.9276844875  0.8516712926 -0.1008167645
H   0.6230085121  1.3801926568 -1.0179202137
O   0.7844993259  1.4034941172  0.9688973229
C   1.2559924312 -0.5804577465 -0.0039389718
H   0.7525065323 -0.5445194312  0.9896014995
H   0.9763591586 -1.2188602582 -0.8558665241
H   2.2811907354 -0.8011539780  0.3139818579
7
Iter 27 Image 7  Energy = -153.9276766325
C   0.9047738304  0.8936947080 -0.0359399978
H   0.6817367648  1.3390928720 -1.0257109188
O   0.7467180568  1.5310781778  0.9590273581
C   1.2661464359 -0.5651847787  0.0490908028
H   0.7004823790 -0.8544130449  0.9362360089
H   0.9770488008 -1.1352655677 -0.8306088039
H   2.3243348681 -0.7186355933  0.2418430162
7
Iter 27 Image 8  Energy = -153.9202879122
C   0.8772280038  0.9209766734  0.0457668019
H   0.6817618766  1.3404613607 -0.9863480894
O   0.8231094996  1.5716500309  0.9615899285
C   1.2221513721 -0.5670784678  0.0545729398
H   0.6667651761 -1.0696205590  0.8438784624
H   1.0469376914 -1.0341060123 -0.9030086364
H   2.2832880218 -0.6719161818  0.2774872232
7
Iter 27 Image 9  Energy = -153.9297284853
C   0.8579897297  0.8866421329 -0.0012953048
H   0.8121600493  1.3313819082 -1.0035361847
O   0.6212089030  1.5912511169  0.9811241014
C   1.2371591815 -0.5584010278  0.0745068564
H   0.7847086210 -1.0691424502  0.9228192589
H   0.9668468761 -1.0664140174 -0.8469732003
H   2.3211682215 -0.6249508483  0.1672933395
7
Iter 27 Image 10  Energy = -153.9300491812
C   0.8264267853  0.8738660339 -0.0240486035
H   0.9204437667  1.3283146744 -1.0196705446
O   0.3868465479  1.5481241545  0.9107707114
C   1.2701631522 -0.5477320056  0.0979443256
H   0.9399303935 -1.0007235982  1.0310679099
H   0.8971588862 -1.1234515951 -0.7489200199
H   2.3602721000 -0.5880309105  0.0467948876
7
Iter 27 Image 11  Energy = -153.9315568446
C   0.7840367852  0.8656586589 -0.0371164025
H   0.9809293880  1.3403901038 -1.0231241499
O   0.1875804579  1.4681235287  0.8223429327
C   1.3100769769 -0.5359012779  0.1153731248
H   1.0639489065 -0.9236344469  1.1059940899
H   0.8779311114 -1.1816924395 -0.6582837811
H   2.3967379442 -0.5425772870 -0.0312469938
7
Iter 28 Image 0  Energy = -153.9146221658
C   0.8260657415  0.5508603911 -0.1261794589
H   0.4554445983  1.2417513435 -0.8784317668
O   0.5680753083  1.0246514429  1.1187434847
C   1.4411098584 -0.5873603774 -0.4363613732
H   0.9099091373  0.3932317500  1.7666320721
H   1.5916834696 -0.8592929697 -1.4741885892
H   1.8089534565 -1.2734747403  0.3237244514
7
Iter 28 Image 1  Energy = -153.9124347807
C   0.8615888982  0.5775014954 -0.1561868795
H   0.4654491502  1.2446272347 -0.9233173698
O   0.7233948951  1.0944982882  1.0951610925
C   1.3877900121 -0.5989119005 -0.4089219311
H   0.8592153775  0.3482887301  1.7016117360
H   1.4310039803 -1.0227729981 -1.4039709197
H   1.8727990974 -1.1528638737  0.3895621796
7
Iter 28 Image 2  Energy = -153.9038477165
C   0.8969447840  0.5980824000 -0.1912618712
H   0.4767973190  1.2572042922 -0.9682230060
O   0.7790634297  1.1018605155  1.0739475858
C   1.3803763465 -0.5731588314 -0.3878712093
H   0.8660097107  0.2873030496  1.5883437902
H   1.2903861778 -1.1603212342 -1.2893151769
H   1.9116633972 -1.0206034071  0.4683171280
7
Iter 28 Image 3  Energy = -153.8799523872
C   0.9329383956  0.6787113606 -0.2126639628
H   0.5249344857  1.3361023633 -0.9432397204
O   0.8064837964  1.0473703369  1.0900245348
C   1.4035746892 -0.5731662882 -0.3194009267
H   0.7381956503  0.1156878429  1.3640084597
H   1.1226104754 -1.2386210951 -1.1259075530
H   2.0725037307 -0.8757178992  0.4411173249
7
Iter 28 Image 4  Energy = -153.8464210831
C   0.9331358813  0.6880362962 -0.2139675618
H   0.5457921955  1.3697672309 -0.9373059071
O   0.7970736341  0.9783466109  1.1322712093
C   1.3594603331 -0.5779369000 -0.2957979523
H   0.7298233312  0.1201296778  1.2063988641
H   1.0910572647 -1.2370162135 -1.0401216586
H   2.1448985553 -0.8509598503  0.4424605383
7
Iter 28 Image 5  Energy = -153.8422832896
C   0.9276112172  0.7965640365 -0.1320821960
H   0.5689561479  1.3847630134 -0.9675755615
O   0.7981823883  1.2379642195  1.0310555248
C   1.2871616341 -0.5871775568 -0.1101822461
H   0.7530342380 -0.2843947736  1.0504702746
H   1.0525828792 -1.2223823185 -0.9711874180
H   2.2137128357 -0.8349693345  0.3934395515
7
Iter 28 Image 6  Energy = -153.9018627237
C   0.9279675529  0.8514521315 -0.1011431559
H   0.6232744186  1.3801615872 -1.0182594993
O   0.7841286282  1.4035964229  0.9684492397
C   1.2556347413 -0.5804465758 -0.0034087197
H   0.7529096239 -0.5441627893  0.9902172412
H   0.9757759593 -1.2190006362 -0.8552823679
H   2.2815502647 -0.8012334928  0.3133654781
7
Iter 28 Image 7  Energy = -153.9276650397
C   0.9049092395  0.8939491715 -0.0355855051
H   0.6817957531  1.3389681576 -1.0256508918
O   0.7463065808  1.5309157616  0.9589225126
C   1.2663507826 -0.5652348406  0.0493083484
H   0.7001114308 -0.8549992386  0.9361056531
H   0.9771692574 -1.1348520605 -0.8305703119
H   2.3245980893 -0.7183801726  0.2414076593
7
Iter 28 Image 8  Energy = -153.9186576711
C   0.8770995710  0.9224202271  0.0478017182
H   0.6818334890  1.3406153793 -0.9864840213
O   0.8231166291  1.5701295118  0.9594682964
C   1.2220107585 -0.5671822309  0.0546192072
H   0.6668688333 -1.0696866662  0.8440815732
H   1.0470944085 -1.0340358569 -0.9027991812
H   2.2832179519 -0.6718935218  0.2772510304
7
Iter 28 Image 9  Energy = -153.9296308436
C   0.8581740875  0.8864001159 -0.0017600181
H   0.8118829003  1.3313937732 -1.0034637158
O   0.6215811764  1.5916959746  0.9815178679
C   1.2370520466 -0.5583814497  0.0745683429
H   0.7844380198 -1.0694821498  0.9226220340
H   0.9670944259 -1.0662978172 -0.8470012552
H   2.3210189240 -0.6249616351  0.1674556137
7
Iter 28 Image 10  Energy = -153.9299329521
C   0.8265771896  0.8735240644 -0.0245992455
H   0.9205662268  1.3283146595 -1.0196546485
O   0.3863640910  1.5484810307  0.9110820886
C   1.2701791654 -0.5476853454  0.0980166715
H   0.9401476123 -1.0008171749  1.0312368556
H   0.8971033265 -1.1234985402 -0.7487712137
H   2.3603040213 -0.5879519455  0.0466281553
7
Iter 28 Image 11  Energy = -153.9315568446
C   0.7840367852  0.8656586589 -0.0371164025
H   0.9809293880  1.3403901038 -1.0231241499
O   0.1875804579  1.4681235287  0.8223429327
C   1.3100769769 -0.5359012779  0.1153731248
H   1.0639489065 -0.9236344469  1.1059940899
H   0.8779311114 -1.1816924395 -0.6582837811
H   2.3967379442 -0.5425772870 -0.0312469938
7
Iter 29 Image 0  Energy = -153.9146221658
C   0.8260657415  0.5508603911 -0.1261794589
H   0.4554445983  1.2417513435 -0.8784317668
O   0.5680753083  1.0246514429  1.1187434847
C   1.4411098584 -0.5873603774 -0.4363613732
H   0.9099091373  0.3932317500  1.7666320721
H   1.5916834696 -0.8592929697 -1.4741885892
H   1.8089534565 -1.2734747403  0.3237244514
7
Iter 29 Image 1  Energy = -153.9123967757
C   0.8617961536  0.5773723905 -0.1561046425
H   0.4653927970  1.2447733028 -0.9232950079
O   0.7234256735  1.0945661939  1.0951711376
C   1.3874005792 -0.5987247091 -0.4088311572
H   0.8590539740  0.3478059250  1.7015250399
H   1.4312051394 -1.0226668172 -1.4040218711
H   1.8729670980 -1.1527593090  0.3894943982
7
Iter 29 Image 2  Energy = -153.9036371387
C   0.8974785772  0.5971891664 -0.1911878785
H   0.4765629093  1.2568543325 -0.9684582387
O   0.7787933478  1.1020163826  1.0739115798
C   1.3799346932 -0.5724171889 -0.3880692914
H   0.8665492787  0.2877388528  1.5889418017
H   1.2907229621 -1.1600276421 -1.2897985444
H   1.9111993998 -1.0209871174  0.4685978015
7
Iter 29 Image 3  Energy = -153.8797755677
C   0.9332913726  0.6791823537 -0.2130372795
H   0.5249347571  1.3360144109 -0.9429884968
O   0.8064085919  1.0470483666  1.0899607059
C   1.4040421782 -0.5733114446 -0.3188693864
H   0.7380007580  0.1154496320  1.3634836062
H   1.1218867354 -1.2387727624 -1.1255924764
H   2.0726768316 -0.8752439401  0.4409814926
7
Iter 29 Image 4  Energy = -153.8443228464
C   0.9334012757  0.6874346578 -0.2150864618
H   0.5450748283  1.3693300147 -0.9370434601
O   0.7972294509  0.9746116551  1.1329483530
C   1.3600790869 -0.5779845877 -0.2972901437
H   0.7299978690  0.1251296778  1.2081829701
H   1.0916480970 -1.2367719570 -1.0409827945
H   2.1438105883 -0.8513826053  0.4432090570
7
Iter 29 Image 5  Energy = -153.8421526863
C   0.9278636351  0.7965540055 -0.1327534426
H   0.5688321980  1.3844941818 -0.9676208180
O   0.7981923025  1.2382761678  1.0310270452
C   1.2875824843 -0.5873002728 -0.1104498745
H   0.7528458968 -0.2844393187  1.0514027087
H   1.0523053060 -1.2222442525 -0.9709974135
H   2.2136195233 -0.8349732073  0.3933297242
7
Iter 29 Image 6  Energy = -153.9018446198
C   0.9282530732  0.8512330852 -0.1014731952
H   0.6235439986  1.3801295083 -1.0186026735
O   0.7837536433  1.4037002585  0.9679944097
C   1.2552756805 -0.5804376492 -0.0028738984
H   0.7533168257 -0.5438028246  0.9908427382
H   0.9751854017 -1.2191421739 -0.8546901344
H   2.2819125715 -0.8013135619  0.3127409802
7
Iter 29 Image 7  Energy = -153.9276522060
C   0.9050469201  0.8942023960 -0.0352312219
H   0.6818535478  1.3388436242 -1.0255886658
O   0.7458931762  1.5307506560  0.9588205607
C   1.2665544097 -0.5652853546  0.0495275902
H   0.6997378686 -0.8555871858  0.9359728075
H   0.9772930113 -1.1344337777 -0.8305343225
H   2.3248621974 -0.7181235746  0.2409707158
7
Iter 29 Image 8  Energy = -153.9168275603
C   0.8769627941  0.9239134096  0.0499078551
H   0.6819169152  1.3407700301 -0.9866173839
O   0.8231161256  1.5685610460  0.9572731851
C   1.2218667999 -0.5672841655  0.0546687115
H   0.6669814284 -1.0697670311  0.8442882742
H   1.0472506384 -1.0339619828 -0.9025877202
H   2.2831469394 -0.6718644658  0.2770056945
7
Iter 29 Image 9  Energy = -153.9295348594
C   0.8583547060  0.8861727980 -0.0022034614
H   0.8116033128  1.3314064928 -1.0033926080
O   0.6219619476  1.5921290526  0.9818922224
C   1.2369437467 -0.5583632495  0.0746297380
H   0.7841649726 -1.0698253717  0.9224230420
H   0.9673448480 -1.0661806340 -0.8470290438
H   2.3208680448 -0.6249722788  0.1676189836
7
Iter 29 Image 10  Energy = -153.9298161627
C   0.8267200354  0.8731918462 -0.0251358566
H   0.9206904982  1.3283150913 -1.0196401264
O   0.3858841749  1.5488290435  0.9113786187
C   1.2701957916 -0.5476395188  0.0980894515
H   0.9403675816 -1.0009113240  1.0314077014
H   0.8970472047 -1.1235463190 -0.7486204025
H   2.3603363478 -0.5878720757  0.0464592739
7
Iter 29 Image 11  Energy = -153.9315568446
C   0.7840367852  0.8656586589 -0.0371164025
H   0.9809293880  1.3403901038 -1.0231241499
O   0.1875804579  1.4681235287  0.8223429327
C   1.3100769769 -0.5359012779  0.1153731248
H   1.0639489065 -0.9236344469  1.1059940899
H   0.8779311114 -1.1816924395 -0.6582837811
H   2.3967379442 -0.5425772870 -0.0312469938
7
Iter 30 Image 0  Energy = -153.9146221658
C   0.8260657415  0.5508603911 -0.1261794589
H   0.4554445983  1.2417513435 -0.8784317668
O   0.5680753083  1.0246514429  1.1187434847
C   1.4411098584 -0.5873603774 -0.4363613732
H   0.9099091373  0.3932317500  1.7666320721
H   1.5916834696 -0.8592929697 -1.4741885892
H   1.8089534565 -1.2734747403  0.3237244514
7
Iter 30 Image 1  Energy = -153.9123578632
C   0.8620027761  0.5772482689 -0.1560217458
H   0.4653363691  1.2449200564 -0.9232712565
O   0.7234573285  1.0946327258  1.0951827364
C   1.3870090133 -0.5985412648 -0.4087401575
H   0.8588900479  0.3473185782  1.7014363548
H   1.4314091490 -1.0225583459 -1.4040728233
H   1.8731367344 -1.1526530406  0.3894247783
7
Iter 30 Image 2  Energy = -153.9034181542
C   0.8980099899  0.5963047506 -0.1911144333
H   0.4763274927  1.2564961653 -0.9686931901
O   0.7785207455  1.1021713842  1.0738745244
C   1.3794965319 -0.5716846810 -0.3882694557
H   0.8670956527  0.2881812210  1.5895474440
H   1.2910639566 -1.1597284750 -1.2902863182
H   1.9107268019 -1.0213735783  0.4688786488
7
Iter 30 Image 3  Energy = -153.8795968995
C   0.9336533076  0.6796476815 -0.2134150772
H   0.5249316890  1.3359257395 -0.9427364821
O   0.8063322910  1.0467082906  1.0898992826
C   1.4045083690 -0.5734510980 -0.3183423125
H   0.7378053223  0.1152277061  1.3629574909
H   1.1211583639 -1.2389236077 -1.1252751525
H   2.0728518833 -0.8747681010  0.4408504251
7
Iter 30 Image 4  Energy = -153.8419120481
C   0.9336682910  0.6868707155 -0.2162020310
H   0.5443755577  1.3689058768 -0.9367821176
O   0.7973631641  0.9708397190  1.1336384723
C   1.3607065918 -0.5780580248 -0.2987482459
H   0.7301656287  0.1301296778  1.2099014006
H   1.0922008792 -1.2365376620 -1.0418010964
H   2.1427610846 -0.8517834432  0.4439311263
7
Iter 30 Image 5  Energy = -153.8420178281
C   0.9281195434  0.7965412500 -0.1334213175
H   0.5687128359  1.3842204643 -0.9676732682
O   0.7982023812  1.2385816415  1.0309880050
C   1.2880123336 -0.5874175528 -0.1107243862
H   0.7526485559 -0.2844811116  1.0523491767
H   1.0520134738 -1.2221059578 -0.9707915395
H   2.2135322275 -0.8349714117  0.3932112596
7
Iter 30 Image 6  Energy = -153.9018257963
C   0.9285414893  0.8510136020 -0.1018074957
H   0.6238174426  1.3800964787 -1.0189499707
O   0.7833739624  1.4038057825  0.9675328266
C   1.2549146001 -0.5804308129 -0.0023339791
H   0.7537285247 -0.5434391343  0.9914783712
H   0.9745870711 -1.2192850023 -0.8540893882
H   2.2822781098 -0.8013942766  0.3121078725
7
Iter 30 Image 7  Energy = -153.9276380229
C   0.9051871986  0.8944545807 -0.0348774500
H   0.6819103326  1.3387190431 -1.0255244547
O   0.7454769322  1.5305828926  0.9587214845
C   1.2667578712 -0.5653363876  0.0497488329
H   0.6993614061 -0.8561768758  0.9358378911
H   0.9774196871 -1.1340108228 -0.8305002275
H   2.3251277011 -0.7178656418  0.2405313869
7
Iter 30 Image 8  Energy = -153.9147759709
C   0.8768174679  0.9254574595  0.0520869030
H   0.6820120876  1.3409254371 -0.9867479538
O   0.8231085159  1.5669434927  0.9550027980
C   1.2217191492 -0.5673843108  0.0547215780
H   0.6671028832 -1.0698623678  0.8444983109
H   1.0474068016 -1.0338839392 -0.9023743042
H   2.2830747354 -0.6718289327  0.2767512774
7
Iter 30 Image 9  Energy = -153.9294407142
C   0.8585319243  0.8859593028 -0.0026270209
H   0.8113215045  1.3314200501 -1.0033228338
O   0.6223505898  1.5925513263  0.9822483481
C   1.2368342352 -0.5583463701  0.0746911433
H   0.7838896599 -1.0701724231  0.9222224038
H   0.9675980815 -1.0660624527 -0.8470563597
H   2.3207155815 -0.6249826261  0.1677831949
7
Iter 30 Image 10  Energy = -153.9296989906
C   0.8268556344  0.8728687410 -0.0256593809
H   0.9208167306  1.3283159879 -1.0196270012
O   0.3854060951  1.5491688178  0.9116610375
C   1.2702130792 -0.5475944898  0.0981626912
H   0.9405905237 -1.0010061055  1.0315806688
H   0.8969904503 -1.1235949853 -0.7484674174
H   2.3603691221 -0.5877912276  0.0462880589
7
Iter 30 Image 11  Energy = -153.9315568446
C   0.7840367852  0.8656586589 -0.0371164025
H   0.9809293880  1.3403901038 -1.0231241499
O   0.1875804579  1.4681235287  0.8223429327
C   1.3100769769 -0.5359012779  0.1153731248
H   1.0639489065 -0.9236344469  1.1059940899
H   0.8779311114 -1.1816924395 -0.6582837811
H   2.3967379442 -0.5425772870 -0.0312469938
7
Iter 31 Image 0  Energy = -153.9146221658
C   0.8260657415  0.5508603911 -0.1261794589
H   0.4554445983  1.2417513435 -0.8784317668
O   0.5680753083  1.0246514429  1.1187434847
C   1.4411098584 -0.5873603774 -0.4363613732
H   0.9099091373  0.3932317500  1.7666320721
H   1.5916834696 -0.8592929697 -1.4741885892
H   1.8089534565 -1.2734747403  0.3237244514
7
Iter 31 Image 1  Energy = -153.9124140373
C   0.8617026791  0.5774333459 -0.1561420668
H   0.4654140323  1.2447178089 -0.9232831393
O   0.7234166054  1.0945020130  1.0952174737
C   1.3875354000 -0.5988051500 -0.4088730053
H   0.8590918760  0.3479945120  1.7015479913
H   1.4311771743 -1.0226603118 -1.4040286296
H   1.8729036477 -1.1528152412  0.3894992737
7
Iter 31 Image 2  Energy = -153.9037005826
C   0.8973166025  0.5974675062 -0.1912652366
H   0.4766570582  1.2569698445 -0.9683618110
O   0.7788824688  1.1019463115  1.0739353740
C   1.3801066977 -0.5726167815 -0.3878907828
H   0.8663557587  0.2875631276  1.5886826659
H   1.2905608231 -1.1601460067 -1.2896247906
H   1.9113617592 -1.0208172166  0.4684618131
7
Iter 31 Image 3  Energy = -153.8799013502
C   0.9332078708  0.6789025858 -0.2129667021
H   0.5248822298  1.3360383514 -0.9430757700
O   0.8064379135  1.0468828602  1.0901113763
C   1.4038678248 -0.5733009358 -0.3193940073
H   0.7380499807  0.1159593544  1.3637919773
H   1.1221922928 -1.2386646325 -1.1256799301
H   2.0726031120 -0.8754509661  0.4411512209
7
Iter 31 Image 4  Energy = -153.8441291636
C   0.9334292938  0.6871784745 -0.2145758357
H   0.5451035432  1.3695904682 -0.9372610496
O   0.7973176048  0.9738331547  1.1325023821
C   1.3598278673 -0.5770683979 -0.2961026726
H   0.7302014120  0.1251296778  1.2073700842
H   1.0915051813 -1.2369998035 -1.0410374613
H   2.1438562940 -0.8512967154  0.4430420724
7
Iter 31 Image 5  Energy = -153.8421294869
C   0.9277740924  0.7964772002 -0.1327153371
H   0.5686727104  1.3845918989 -0.9674637015
O   0.7982457154  1.2382495846  1.0312506946
C   1.2874160010 -0.5873569121 -0.1104336985
H   0.7529930122 -0.2842304292  1.0511294117
H   1.0526764531 -1.2222410308 -0.9714311526
H   2.2134633621 -0.8351230068  0.3936017132
7
Iter 31 Image 6  Energy = -153.9018584003
C   0.9281310199  0.8513635713 -0.1013343810
H   0.6234706134  1.3801202750 -1.0185103657
O   0.7838798251  1.4036696867  0.9680740179
C   1.2554435643 -0.5804722410 -0.0030425456
H   0.7531926930 -0.5439285552  0.9906849420
H   0.9753438044 -1.2190977991 -0.8548537521
H   2.2817796749 -0.8012882926  0.3129203109
7
Iter 31 Image 7  Energy = -153.9276542173
C   0.9049895105  0.8941018906 -0.0353083820
H   0.6818335960  1.3388939162 -1.0256029626
O   0.7460315436  1.5307690386  0.9588346374
C   1.2664566397 -0.5652565251  0.0494546612
H   0.6998798450 -0.8553653794  0.9360038110
H   0.9772678090 -1.1345576956 -0.8305670715
H   2.3247821874 -0.7182184624  0.2411227718
7
Iter 31 Image 8  Energy = -153.9167356742
C   0.8769413257  0.9239910918  0.0500344635
H   0.6819568239  1.3407209132 -0.9865861412
O   0.8230710664  1.5685105581  0.9571676193
C   1.2219244894 -0.5672447080  0.0546545663
H   0.6670031274 -1.0697409464  0.8442747719
H   1.0471646064 -1.0340186164 -0.9026352637
H   2.2831802016 -0.6718514516  0.2770285996
7
Iter 31 Image 9  Energy = -153.9296067313
C   0.8582573091  0.8863709707 -0.0018710194
H   0.8116592575  1.3314067177 -1.0034220671
O   0.6219370183  1.5918789798  0.9816034193
C   1.2369719331 -0.5583768496  0.0746090394
H   0.7842212756 -1.0697223472  0.9224632221
H   0.9672886634 -1.0662125712 -0.8470385440
H   2.3209061214 -0.6249780912  0.1675948217
7
Iter 31 Image 10  Energy = -153.9298778283
C   0.8266327190  0.8733678608 -0.0248641737
H   0.9206452465  1.3283140607 -1.0196448912
O   0.3860906808  1.5486566368  0.9111883524
C   1.2701870609 -0.5476579295  0.0980729035
H   0.9402943478 -1.0008871096  1.0313413800
H   0.8970696224 -1.1235296233 -0.7486730721
H   2.3603219569 -0.5878971532  0.0465181609
7
Iter 31 Image 11  Energy = -153.9315568446
C   0.7840367852  0.8656586589 -0.0371164025
H   0.9809293880  1.3403901038 -1.0231241499
O   0.1875804579  1.4681235287  0.8223429327
C   1.3100769769 -0.5359012779  0.1153731248
H   1.0639489065 -0.9236344469  1.1059940899
H   0.8779311114 -1.1816924395 -0.6582837811
H   2.3967379442 -0.5425772870 -0.0312469938
7
Iter 32 Image 0  Energy = -153.9146221658
C   0.8260657415  0.5508603911 -0.1261794589
H   0.4554445983  1.2417513435 -0.8784317668
O   0.5680753083  1.0246514429  1.1187434847
C   1.4411098584 -0.5873603774 -0.4363613732
H   0.9099091373  0.3932317500  1.7666320721
H   1.5916834696 -0.8592929697 -1.4741885892
H   1.8089534565 -1.2734747403  0.3237244514
7
Iter 32 Image 1  Energy = -153.9124764071
C   0.8613526341  0.5776598041 -0.1562804938
H   0.4654992548  1.2444953085 -0.9232689018
O   0.7233755715  1.0943102178  1.0953172896
C   1.3880970221 -0.5991138626 -0.4090280474
H   0.8592825504  0.3487388613  1.7016577478
H   1.4309853714 -1.0227114478 -1.4040120627
H   1.8726490077 -1.1530119053  0.3895523743
7
Iter 32 Image 2  Energy = -153.9039735617
C   0.8965976124  0.5986939228 -0.1914954963
H   0.4770276334  1.2574578319 -0.9679839513
O   0.7792624721  1.1016807940  1.0740118847
C   1.3807911484 -0.5735601408 -0.3873512552
H   0.8655599392  0.2868748448  1.5876969044
H   1.2899668025 -1.1606064228 -1.2889063058
H   1.9120355587 -1.0201740468  0.4679654615
7
Iter 32 Image 3  Energy = -153.8802921172
C   0.9327901861  0.6779492250 -0.2125724462
H   0.5247651948  1.3361598048 -0.9434336749
O   0.8065521504  1.0466767929  1.0905206830
C   1.4031469618 -0.5731843195 -0.3209463628
H   0.7382871583  0.1173044543  1.3647875371
H   1.1233566978 -1.2383113808 -1.1260525863
H   2.0723428739 -0.8762279554  0.4416350052
7
Iter 32 Image 4  Energy = -153.8451261303
C   0.9333069279  0.6870314971 -0.2126878750
H   0.5456659227  1.3704743103 -0.9379170620
O   0.7973918776  0.9745570738  1.1310349176
C   1.3589610263 -0.5750143589 -0.2924448166
H   0.7305120533  0.1218258774  1.2044252946
H   1.0907458183 -1.2377171997 -1.0405957540
H   2.1446575695 -0.8507903370  0.4421228200
7
Iter 32 Image 5  Energy = -153.8421594821
C   0.9274065011  0.7963021382 -0.1321501976
H   0.5684021277  1.3849860544 -0.9670944168
O   0.7983632367  1.2379393168  1.0317421025
C   1.2867627344 -0.5873847075 -0.1102271559
H   0.7534405609 -0.2836995320  1.0499011455
H   1.0536817091 -1.2223241853 -0.9725106130
H   2.2131844745 -0.8354517886  0.3942770601
7
Iter 32 Image 6  Energy = -153.9018995683
C   0.9276683354  0.8518010046 -0.1008097985
H   0.6231268680  1.3801193156 -1.0180760527
O   0.7844104756  1.4035358770  0.9685547912
C   1.2560620135 -0.5805589293 -0.0037787462
H   0.7526451573 -0.5444472354  0.9899255678
H   0.9760902392 -1.2189035372 -0.8556127612
H   2.2812381024 -0.8011798427  0.3137352158
7
Iter 32 Image 7  Energy = -153.9276669410
C   0.9047696950  0.8937033663 -0.0357214652
H   0.6817493472  1.3390899151 -1.0256735500
O   0.7466174394  1.5309216700  0.9589414505
C   1.2661006584 -0.5651579312  0.0491457757
H   0.7004451086 -0.8544798000  0.9361584978
H   0.9771326435 -1.1351092739 -0.8306684608
H   2.3244262410 -0.7186011669  0.2417552216
7
Iter 32 Image 8  Energy = -153.9178041677
C   0.8769758630  0.9231504142  0.0488921213
H   0.6820167244  1.3405052652 -0.9864156614
O   0.8229470480  1.5694715715  0.9584193731
C   1.2221418101 -0.5670821514  0.0545985017
H   0.6669916726 -1.0696782181  0.8441032190
H   1.0468684070 -1.0341771507 -0.9028876040
H   2.2833001151 -0.6718228891  0.2772286722
7
Iter 32 Image 9  Energy = -153.9298312028
C   0.8579118486  0.8869972153 -0.0007868085
H   0.8119540638  1.3314004853 -1.0035345871
O   0.6216628979  1.5910024823  0.9806674668
C   1.2371046709 -0.5584218384  0.0745188695
H   0.7845141255 -1.0692637560  0.9226761256
H   0.9670073387 -1.0663579650 -0.8470474110
H   2.3210866343 -0.6249898125  0.1674452131
7
Iter 32 Image 10  Energy = -153.9300933452
C   0.8263272340  0.8740058389 -0.0238660992
H   0.9204619482  1.3283115503 -1.0196658782
O   0.3868850916  1.5480171963  0.9105324967
C   1.2701568331 -0.5477303294  0.0979872328
H   0.9399851763 -1.0007705706  1.0310798445
H   0.8971570667 -1.1234608973 -0.7488904730
H   2.3602682836 -0.5880060426  0.0467615375
7
Iter 32 Image 11  Energy = -153.9315568446
C   0.7840367852  0.8656586589 -0.0371164025
H   0.9809293880  1.3403901038 -1.0231241499
O   0.1875804579  1.4681235287  0.8223429327
C   1.3100769769 -0.5359012779  0.1153731248
H   1.0639489065 -0.9236344469  1.1059940899
H   0.8779311114 -1.1816924395 -0.6582837811
H   2.3967379442 -0.5425772870 -0.0312469938
7
Iter 33 Image 0  Energy = -153.9146221658
C   0.8260657415  0.5508603911 -0.1261794589
H   0.4554445983  1.2417513435 -0.8784317668
O   0.5680753083  1.0246514429  1.1187434847
C   1.4411098584 -0.5873603774 -0.4363613732
H   0.9099091373  0.3932317500  1.7666320721
H   1.5916834696 -0.8592929697 -1.4741885892
H   1.8089534565 -1.2734747403  0.3237244514
7
Iter 33 Image 1  Energy = -153.9125563003
C   0.8608681949  0.5779464398 -0.1564720702
H   0.4656173984  1.2441807984 -0.9232549787
O   0.7233106190  1.0940567064  1.0954395125
C   1.3888909173 -0.5995237396 -0.4092454337
H   0.8595631122  0.3497956148  1.7018306408
H   1.4307078208 -1.0227899817 -1.4039924877
H   1.8722833455 -1.1532988626  0.3896327350
7
Iter 33 Image 2  Energy = -153.9043036056
C   0.8956103814  0.6003670512 -0.1918232907
H   0.4775574116  1.2581806526 -0.9674485268
O   0.7798089154  1.1013084202  1.0741183826
C   1.3817276816 -0.5748274849 -0.3865941249
H   0.8644002705  0.2858624465  1.5862637903
H   1.2891008712 -1.1612765693 -1.2878504190
H   1.9130356321 -1.0192477352  0.4672714454
7
Iter 33 Image 3  Energy = -153.8808056701
C   0.9321545905  0.6766147287 -0.2120375009
H   0.5246166904  1.3363487147 -0.9439207241
O   0.8067221828  1.0463449796  1.0911308074
C   1.4021341448 -0.5730371587 -0.3230953485
H   0.7386219347  0.1192389564  1.3661199119
H   1.1250168994 -1.2378172590 -1.1265569297
H   2.0719747791 -0.8773263353  0.4422979229
7
Iter 33 Image 4  Energy = -153.8463301945
C   0.9330357644  0.6870282874 -0.2101150416
H   0.5465297705  1.3716695106 -0.9388226916
O   0.7974727179  0.9756375533  1.1290347791
C   1.3577808741 -0.5723983335 -0.2874448166
H   0.7309474827  0.1170947116  1.2002924798
H   1.0896789575 -1.2386223576 -1.0398069827
H   2.1457956274 -0.8500425021  0.4407998054
7
Iter 33 Image 5  Energy = -153.8421995785
C   0.9268766632  0.7960601583 -0.1312697032
H   0.5679957383  1.3855623354 -0.9665591097
O   0.7985465536  1.2374506390  1.0323865866
C   1.2858114517 -0.5874061068 -0.1099219067
H   0.7540974782 -0.2829319379  1.0481236687
H   1.0551597106 -1.2224330535 -0.9740828448
H   2.2127537454 -0.8359347505  0.3952612289
7
Iter 33 Image 6  Energy = -153.9019487983
C   0.9270158253  0.8523921734 -0.1000831909
H   0.6226156339  1.3801249639 -1.0174407038
O   0.7851742642  1.4033501936  0.9692908027
C   1.2569247440 -0.5806661393 -0.0048378531
H   0.7518614234 -0.5451787060  0.9888141980
H   0.9771874239 -1.2186230587 -0.8567347538
H   2.2804618719 -0.8010327633  0.3149297027
7
Iter 33 Image 7  Energy = -153.9276792512
C   0.9044497414  0.8931462119 -0.0363082941
H   0.6816207010  1.3393760662 -1.0257718251
O   0.7474791444  1.5311221784  0.9590807891
C   1.2655935370 -0.5650251584  0.0486907861
H   0.7012606855 -0.8531856370  0.9363869612
H   0.9769409495 -1.1359091359 -0.8308192582
H   2.3238963770 -0.7191577509  0.2426783169
7
Iter 33 Image 8  Energy = -153.9192781543
C   0.8770069311  0.9219207258  0.0472316925
H   0.6821688999  1.3401881085 -0.9861523638
O   0.8226989165  1.5708915483  0.9602401156
C   1.2224384474 -0.5668409361  0.0545278970
H   0.6670248114 -1.0696702589  0.8438581347
H   1.0464278035 -1.0343800620 -0.9032468237
H   2.2834758294 -0.6717422833  0.2774799771
7
Iter 33 Image 9  Energy = -153.9301138707
C   0.8574397300  0.8878544183  0.0007007244
H   0.8123426894  1.3313918790 -1.0036812576
O   0.6213044279  1.5897811281  0.9793853158
C   1.2372904831 -0.5584828079  0.0743844208
H   0.7849039779 -1.0686010802  0.9229645338
H   0.9666241317 -1.0665553848 -0.8470741827
H   2.3213361417 -0.6250213389  0.1672593086
7
Iter 33 Image 10  Energy = -153.9303657811
C   0.8259193850  0.8748792402 -0.0224969000
H   0.9201962262  1.3283055619 -1.0196880609
O   0.3880024193  1.5471376557  0.9096470885
C   1.2701119183 -0.5478271763  0.0978621378
H   0.9395378930 -1.0006051321  1.0307056437
H   0.8972824826 -1.1233601841 -0.7492045776
H   2.3601913073 -0.5881632157  0.0471133321
7
Iter 33 Image 11  Energy = -153.9315568446
C   0.7840367852  0.8656586589 -0.0371164025
H   0.9809293880  1.3403901038 -1.0231241499
O   0.1875804579  1.4681235287  0.8223429327
C   1.3100769769 -0.5359012779  0.1153731248
H   1.0639489065 -0.9236344469  1.1059940899
H   0.8779311114 -1.1816924395 -0.6582837811
H   2.3967379442 -0.5425772870 -0.0312469938
7
Iter 34 Image 0  Energy = -153.9146221658
C   0.8260657415  0.5508603911 -0.1261794589
H   0.4554445983  1.2417513435 -0.8784317668
O   0.5680753083  1.0246514429  1.1187434847
C   1.4411098584 -0.5873603774 -0.4363613732
H   0.9099091373  0.3932317500  1.7666320721
H   1.5916834696 -0.8592929697 -1.4741885892
H   1.8089534565 -1.2734747403  0.3237244514
7
Iter 34 Image 1  Energy = -153.9126306326
C   0.8603761572  0.5782141936 -0.1566663133
H   0.4657375785  1.2438552507 -0.9232464307
O   0.7232373035  1.0938107901  1.0955479858
C   1.3897129010 -0.5999251058 -0.4094687976
H   0.8598636430  0.3508924074  1.7020253978
H   1.4304139571 -1.0228776021 -1.4039748534
H   1.8718998632 -1.1536029594  0.3897209421
7
Iter 34 Image 2  Energy = -153.9045884803
C   0.8946132492  0.6020482754 -0.1921626022
H   0.4781107467  1.2589577111 -0.9668936080
O   0.7803828187  1.1009253392  1.0742264605
C   1.3826696817 -0.5760840927 -0.3858199633
H   0.8631693301  0.2847803252  1.5847463729
H   1.2881822900 -1.1619864008 -1.2867208707
H   1.9141130448 -1.0182743786  0.4665614831
7
Iter 34 Image 3  Energy = -153.8812912004
C   0.9314566434  0.6752446263 -0.2114993900
H   0.5244780265  1.3365614497 -0.9444073027
O   0.8069084057  1.0459759724  1.0917777868
C   1.4010957706 -0.5728907239 -0.3252589997
H   0.7389676174  0.1212529786  1.3674298374
H   1.1267441424 -1.2373170186 -1.1270642383
H   2.0715906136 -0.8784606513  0.4429604280
7
Iter 34 Image 4  Energy = -153.8473552556
C   0.9326685225  0.6871962280 -0.2075504057
H   0.5474853063  1.3728559090 -0.9397424203
O   0.7975295801  0.9768114013  1.1270434569
C   1.3566196075 -0.5699521106 -0.2824448166
H   0.7313925225  0.1121609008  1.1960747621
H   1.0885768360 -1.2394658858 -1.0388524864
H   2.1469688185 -0.8492395641  0.4394094501
7
Iter 34 Image 5  Energy = -153.8422317149
C   0.9263185938  0.7958148249 -0.1302926367
H   0.5675506999  1.3861745438 -0.9659897592
O   0.7987531862  1.2368974761  1.0330127983
C   1.2848034249 -0.5874150248 -0.1096013225
H   0.7548002708 -0.2821175821  1.0462533761
H   1.0567474252 -1.2225336744 -0.9757546648
H   2.2122677373 -0.8364532917  0.3963101223
7
Iter 34 Image 6  Energy = -153.9019902357
C   0.9263423643  0.8529798385 -0.0993411489
H   0.6220615958  1.3801379387 -1.0167629888
O   0.7859778453  1.4031586472  0.9701008397
C   1.2578046883 -0.5807631118 -0.0059503587
H   0.7510427348 -0.5459319979  0.9876287499
H   0.9783637209 -1.2183270261 -0.8579432989
H   2.2796482320 -0.8008876143  0.3162063922
7
Iter 34 Image 7  Energy = -153.9276855739
C   0.9041104043  0.8925755247 -0.0369183292
H   0.6814772954  1.3396811586 -1.0258706708
O   0.7484042038  1.5313147004  0.9592158352
C   1.2650648092 -0.5648945338  0.0482021128
H   0.7021188156 -0.8518081647  0.9366309150
H   0.9767441616 -1.1367538865 -0.8309847750
H   2.3233214488 -0.7197480297  0.2436623944
7
Iter 34 Image 8  Energy = -153.9207192572
C   0.8770208033  0.9206270749  0.0454969401
H   0.6823917179  1.3398483137 -0.9858589981
O   0.8223722778  1.5724017556  0.9621474706
C   1.2227352055 -0.5665815878  0.0544630702
H   0.6671062659 -1.0697410311  0.8436020909
H   1.0459515596 -1.0345682541 -0.9036203543
H   2.2836638084 -0.6716194283  0.2777084182
7
Iter 34 Image 9  Energy = -153.9303667137
C   0.8569681884  0.8887112291  0.0021920811
H   0.8127173101  1.3313832460 -1.0038214416
O   0.6209609384  1.5885380472  0.9781025661
C   1.2374810462 -0.5585433763  0.0742386783
H   0.7852836706 -1.0679021400  0.9232507092
H   0.9662417616 -1.0667519032 -0.8471154705
H   2.3215886682 -0.6250682863  0.1670917345
7
Iter 34 Image 10  Energy = -153.9306124186
C   0.8255201565  0.8757556108 -0.0211200272
H   0.9199151458  1.3282972198 -1.0197042935
O   0.3891527046  1.5462512990  0.9087710121
C   1.2700634975 -0.5479225067  0.0977288727
H   0.9390655087 -1.0004334597  1.0303143656
H   0.8974140028 -1.1232525561 -0.7495358415
H   2.3601106141 -0.5883288530  0.0474845773
7
Iter 34 Image 11  Energy = -153.9315568446
C   0.7840367852  0.8656586589 -0.0371164025
H   0.9809293880  1.3403901038 -1.0231241499
O   0.1875804579  1.4681235287  0.8223429327
C   1.3100769769 -0.5359012779  0.1153731248
H   1.0639489065 -0.9236344469  1.1059940899
H   0.8779311114 -1.1816924395 -0.6582837811
H   2.3967379442 -0.5425772870 -0.0312469938
7
Iter 35 Image 0  Energy = -153.9146221658
C   0.8260657415  0.5508603911 -0.1261794589
H   0.4554445983  1.2417513435 -0.8784317668
O   0.5680753083  1.0246514429  1.1187434847
C   1.4411098584 -0.5873603774 -0.4363613732
H   0.9099091373  0.3932317500  1.7666320721
H   1.5916834696 -0.8592929697 -1.4741885892
H   1.8089534565 -1.2734747403  0.3237244514
7
Iter 35 Image 1  Energy = -153.9126978958
C   0.8598871319  0.5784587816 -0.1568586228
H   0.4658571878  1.2435257311 -0.9232435882
O   0.7231573859  1.0935783331  1.0956393925
C   1.3905453754 -0.6003105042 -0.4096932168
H   0.8601776803  0.3520041441  1.7022375864
H   1.4301095609 -1.0229729166 -1.4039587618
H   1.8715070771 -1.1539165952  0.3898151534
7
Iter 35 Image 2  Energy = -153.9048241964
C   0.8936263553  0.6037054009 -0.1925043758
H   0.4786754246  1.2597710682 -0.9663313895
O   0.7809717237  1.1005392697  1.0743330120
C   1.3835974121 -0.5773071512 -0.3850498411
H   0.8618943435  0.2836531059  1.5831789707
H   1.2872320408 -1.1627192826 -1.2855414443
H   1.9152438580 -1.0172756347  0.4658523565
7
Iter 35 Image 3  Energy = -153.8817362690
C   0.9307122080  0.6738676251 -0.2109658932
H   0.5243509237  1.3367933606 -0.9448823829
O   0.8071099727  1.0455893227  1.0924326605
C   1.4000599734 -0.5727377671 -0.3273727748
H   0.7393169020  0.1232864031  1.3686941158
H   1.1284985172 -1.2368275134 -1.1275719793
H   2.0711927206 -0.8796047900  0.4436043572
7
Iter 35 Image 4  Energy = -153.8481878234
C   0.9322150799  0.6875203940 -0.2050649122
H   0.5485129564  1.3740074077 -0.9406563394
O   0.7975520133  0.9780512136  1.1251219615
C   1.3555303604 -0.5677391063 -0.2775842390
H   0.7318316457  0.1071609008  1.1919022668
H   1.0874559480 -1.2402375237 -1.0377616565
H   2.1481431889 -0.8483963970  0.4379804670
7
Iter 35 Image 5  Energy = -153.8422492471
C   0.9257440668  0.7955709780 -0.1292460470
H   0.5670722074  1.3868078651 -0.9653951556
O   0.7989811106  1.2362862543  1.0336097028
C   1.2837624515 -0.5874132075 -0.1092819972
H   0.7555347128 -0.2812664273  1.0443394640
H   1.0584189536 -1.2226188720 -0.9774943640
H   2.2117278322 -0.8369993314  0.3974063037
7
Iter 35 Image 6  Energy = -153.9020226859
C   0.9256632411  0.8535512790 -0.0985971573
H   0.6214743836  1.3801587624 -1.0160566130
O   0.7868044188  1.4029634260  0.9709651317
C   1.2586799184 -0.5808478754 -0.0070918202
H   0.7502085310 -0.5466882666  0.9863944174
H   0.9795968302 -1.2180212426 -0.8592155715
H   2.2788138536 -0.8007493957  0.3175397839
7
Iter 35 Image 7  Energy = -153.9276856166
C   0.9037592001  0.8920038367 -0.0375383984
H   0.6813200771  1.3399995457 -1.0259656890
O   0.7493764556  1.5314935028  0.9593458467
C   1.2645252383 -0.5647698845  0.0476888783
H   0.7029996293 -0.8503779342  0.9368828430
H   0.9765497495 -1.1376230346 -0.8311653926
H   2.3227107919 -0.7203592682  0.2446894016
7
Iter 35 Image 8  Energy = -153.9220707941
C   0.8770134437  0.9193145961  0.0437527355
H   0.6826873084  1.3394925289 -0.9855394705
O   0.8219691016  1.5739557781  0.9640762883
C   1.2230235880 -0.5663098647  0.0544067887
H   0.6672376250 -1.0699036107  0.8433386781
H   1.0454507148 -1.0347313985 -0.9040011852
H   2.2838598567 -0.6714511843  0.2779048124
7
Iter 35 Image 9  Energy = -153.9305833450
C   0.8565094877  0.8895454241  0.0036495364
H   0.8130673778  1.3313749340 -1.0039518634
O   0.6206419724  1.5873041177  0.9768525853
C   1.2376720807 -0.5586022528  0.0740843938
H   0.7856427259 -1.0671822363  0.9235273093
H   0.9658699164 -1.0669427056 -0.8471711281
H   2.3218380245 -0.6251304618  0.1669480177
7
Iter 35 Image 10  Energy = -153.9308277664
C   0.8251386282  0.8766152209 -0.0197661836
H   0.9196246942  1.3282868094 -1.0197143908
O   0.3903107848  1.5453782550  0.9079243423
C   1.2700126727 -0.5480144202  0.0975900748
H   0.9385780128 -1.0002595539  1.0299145610
H   0.8975489167 -1.1231401518 -0.7498771317
H   2.3600279193 -0.5884994011  0.0478673959
7
Iter 35 Image 11  Energy = -153.9315568446
C   0.7840367852  0.8656586589 -0.0371164025
H   0.9809293880  1.3403901038 -1.0231241499
O   0.1875804579  1.4681235287  0.8223429327
C   1.3100769769 -0.5359012779  0.1153731248
H   1.0639489065 -0.9236344469  1.1059940899
H   0.8779311114 -1.1816924395 -0.6582837811
H   2.3967379442 -0.5425772870 -0.0312469938
7
Iter 36 Image 0  Energy = -153.9146221658
C   0.8260657415  0.5508603911 -0.1261794589
H   0.4554445983  1.2417513435 -0.8784317668
O   0.5680753083  1.0246514429  1.1187434847
C   1.4411098584 -0.5873603774 -0.4363613732
H   0.9099091373  0.3932317500  1.7666320721
H   1.5916834696 -0.8592929697 -1.4741885892
H   1.8089534565 -1.2734747403  0.3237244514
7
Iter 36 Image 1  Energy = -153.9127583193
C   0.8594038084  0.5786805671 -0.1570473469
H   0.4659755385  1.2431940888 -0.9232465401
O   0.7230714220  1.0933614214  1.0957118506
C   1.3913839016 -0.6006792351 -0.4099172677
H   0.8605035021  0.3531228611  1.7024659882
H   1.4297958114 -1.0230758134 -1.4039434595
H   1.8711074107 -1.1542369167  0.3899147303
7
Iter 36 Image 2  Energy = -153.9050129896
C   0.8926536946  0.6053342530 -0.1928452547
H   0.4792483165  1.2606148287 -0.9657647753
O   0.7815724874  1.1001513857  1.0744362928
C   1.3845065234 -0.5784946366 -0.3842928500
H   0.8605825189  0.2824877991  1.5815713748
H   1.2862560844 -1.1634697371 -1.2843169730
H   1.9164215302 -1.0162571196  0.4651494907
7
Iter 36 Image 3  Energy = -153.8821395006
C   0.9299256045  0.6724896903 -0.2104383769
H   0.5242341144  1.3370425467 -0.9453418748
O   0.8073296711  1.0451959151  1.0930773430
C   1.3990385592 -0.5725693715 -0.3294098067
H   0.7396682040  0.1253162208  1.3699132390
H   1.1302693789 -1.2363566893 -1.1280860985
H   2.0707756837 -0.8807516635  0.4442236590
7
Iter 36 Image 4  Energy = -153.8488401001
C   0.9316795278  0.6879917481 -0.2026984202
H   0.5496132627  1.3751181480 -0.9415568906
O   0.7975235834  0.9793471322  1.1233107373
C   1.3545600669 -0.5657981778 -0.2729412303
H   0.7322494847  0.1021609008  1.1878491772
H   1.0863085636 -1.2409430436 -1.0365412943
H   2.1493067034 -0.8475098068  0.4365154774
7
Iter 36 Image 5  Energy = -153.8422455885
C   0.9251560444  0.7953288449 -0.1281385901
H   0.5665570226  1.3874570257 -0.9647750365
O   0.7992328661  1.2356093864  1.0341732904
C   1.2826971899 -0.5874010346 -0.1089787763
H   0.7562974455 -0.2803715055  1.0424043846
H   1.0601757014 -1.2226818270 -0.9792976576
H   2.2111250616 -0.8375736428  0.3985502857
7
Iter 36 Image 6  Energy = -153.9020455698
C   0.9249833651  0.8541024972 -0.0978535585
H   0.6208538038  1.3801883654 -1.0153238398
O   0.7876501373  1.4027636383  0.9718775116
C   1.2595418261 -0.5809201373 -0.0082558693
H   0.7493656600 -0.5474397299  0.9851176543
H   0.9808846418 -1.2177064079 -0.8605494547
H   2.2779617375 -0.8006215265  0.3189257123
7
Iter 36 Image 7  Energy = -153.9276792134
C   0.9033983483  0.8914341016 -0.0381657233
H   0.6811467289  1.3403309638 -1.0260530373
O   0.7503962611  1.5316554474  0.9594736280
C   1.2639766825 -0.5646533088  0.0471517536
H   0.7038966481 -0.8489033199  0.9371382346
H   0.9763633866 -1.1385087886 -0.8313659290
H   2.3220630893 -0.7209883374  0.2457585703
7
Iter 36 Image 8  Energy = -153.9233108766
C   0.8769779406  0.9180069230  0.0420380037
H   0.6830680702  1.3391213251 -0.9851894492
O   0.8214821116  1.5755364527  0.9659938286
C   1.2232967926 -0.5660263757  0.0543627559
H   0.6674249583 -1.0701899754  0.8430638341
H   1.0449303429 -1.0348551350 -0.9043912323
H   2.2840614221 -0.6712263699  0.2780609175
7
Iter 36 Image 9  Energy = -153.9307637938
C   0.8560679568  0.8903506060  0.0050622863
H   0.8133874315  1.3313673455 -1.0040716192
O   0.6203534530  1.5860883056  0.9756455195
C   1.2378621808 -0.5586593833  0.0739216846
H   0.7859759238 -1.0664454179  0.9237911900
H   0.9655128376 -1.0671258522 -0.8472418982
H   2.3220818043 -0.6252087813  0.1668316821
7
Iter 36 Image 10  Energy = -153.9310119427
C   0.8247764468  0.8774539261 -0.0184416788
H   0.9193263402  1.3282745335 -1.0197185668
O   0.3914709686  1.5445230200  0.9071109977
C   1.2699598432 -0.5481026621  0.0974460859
H   0.9380777363 -1.0000847437  1.0295085463
H   0.8976866805 -1.1230233393 -0.7502266188
H   2.3599436114 -0.5886739715  0.0482599049
7
Iter 36 Image 11  Energy = -153.9315568446
C   0.7840367852  0.8656586589 -0.0371164025
H   0.9809293880  1.3403901038 -1.0231241499
O   0.1875804579  1.4681235287  0.8223429327
C   1.3100769769 -0.5359012779  0.1153731248
H   1.0639489065 -0.9236344469  1.1059940899
H   0.8779311114 -1.1816924395 -0.6582837811
H   2.3967379442 -0.5425772870 -0.0312469938
7
Iter 37 Image 0  Energy = -153.9146221658
C   0.8260657415  0.5508603911 -0.1261794589
H   0.4554445983  1.2417513435 -0.8784317668
O   0.5680753083  1.0246514429  1.1187434847
C   1.4411098584 -0.5873603774 -0.4363613732
H   0.9099091373  0.3932317500  1.7666320721
H   1.5916834696 -0.8592929697 -1.4741885892
H   1.8089534565 -1.2734747403  0.3237244514
7
Iter 37 Image 1  Energy = -153.9128129311
C   0.8589211954  0.5788835909 -0.1572334813
H   0.4660937959  1.2428567950 -0.9232554793
O   0.7229783989  1.0931594063  1.0957635198
C   1.3922377320 -0.6010367179 -0.4101429966
H   0.8608448744  0.3542579879  1.7027136190
H   1.4294686098 -1.0231879945 -1.4039277491
H   1.8706967838 -1.1545660953  0.3900205348
7
Iter 37 Image 2  Energy = -153.9051595436
C   0.8916832514  0.6069587894 -0.1931874195
H   0.4798360084  1.2614967093 -0.9651868436
O   0.7821921404  1.0997559785  1.0745354215
C   1.3854075925 -0.5796648950 -0.3835476165
H   0.8592186543  0.2812714306  1.5799064840
H   1.2852437958 -1.1642442711 -1.2830300556
H   1.9176597099 -1.0152069716  0.4644473529
7
Iter 37 Image 3  Energy = -153.8825069831
C   0.9290869342  0.6710930461 -0.2099125667
H   0.5241238107  1.3373115247 -0.9457872732
O   0.8075753822  1.0447961336  1.0937039276
C   1.3980277872 -0.5723733373 -0.3313757190
H   0.7400257042  0.1273575792  1.3711074832
H   1.1320765029 -1.2359049508 -1.1286209129
H   2.0703250921 -0.8819133377  0.4448231232
7
Iter 37 Image 4  Energy = -153.8493386243
C   0.9310555479  0.6886154845 -0.2004741813
H   0.5508137303  1.3762004105 -0.9424469396
O   0.7974155011  0.9807116112  1.1216436864
C   1.3537640447 -0.5641664686 -0.2685574899
H   0.7326252269  0.0971609008  1.1839499264
H   1.0850976294 -1.2416018199 -1.0351646618
H   2.1504695125 -0.8465532051  0.4349872242
7
Iter 37 Image 5  Energy = -153.8422115903
C   0.9245478606  0.7950836744 -0.1269564049
H   0.5659908099  1.3881269877 -0.9641185034
O   0.7995174982  1.2348386977  1.0347038105
C   1.2816004520 -0.5873763218 -0.1087081359
H   0.7570973615 -0.2794040884  1.0404448121
H   1.0620525414 -1.2227139626 -0.9811915593
H   2.2104348049 -0.8381877510  0.3997638746
7
Iter 37 Image 6  Energy = -153.9020578362
C   0.9242973956  0.8546366545 -0.0971015759
H   0.6201870599  1.3802288008 -1.0145534346
O   0.7885254978  1.4025547518  0.9728486603
C   1.2603939224 -0.5809805750 -0.0094559595
H   0.7485080652 -0.5481887288  0.9837834761
H   0.9822496748 -1.2173772764 -0.8619683846
H   2.2770795514 -0.8005069144  0.3203853582
7
Iter 37 Image 7  Energy = -153.9276659799
C   0.9030242260  0.8908594912 -0.0388088140
H   0.6809499262  1.3406817977 -1.0261282812
O   0.7514849326  1.5317984889  0.9596062273
C   1.2634109633 -0.5645458900  0.0465809304
H   0.7048177193 -0.8473673515  0.9373952546
H   0.9761903803 -1.1394166924 -0.8315981496
H   2.3213630003 -0.7216430911  0.2468903378
7
Iter 37 Image 8  Energy = -153.9244430098
C   0.8769001305  0.9167061220  0.0403699610
H   0.6835672476  1.3387277815 -0.9847915855
O   0.8208869130  1.5771619033  0.9679006098
C   1.2235460306 -0.5657253185  0.0543377742
H   0.6676845840 -1.0706743043  0.8427615630
H   1.0443901360 -1.0349122792 -0.9048047853
H   2.2842665971 -0.6709170585  0.2781651324
7
Iter 37 Image 9  Energy = -153.9309114556
C   0.8556411288  0.8911349166  0.0064443837
H   0.8136746939  1.3313610779 -1.0041815366
O   0.6201003636  1.5848782303  0.9744703545
C   1.2380527307 -0.5587159589  0.0737473468
H   0.7862812280 -1.0656832568  0.9240424310
H   0.9651705926 -1.0673016726 -0.8473304755
H   2.3223208523 -0.6253065112  0.1667463349
7
Iter 37 Image 10  Energy = -153.9311683181
C   0.8244286925  0.8782824232 -0.0171295282
H   0.9190164967  1.3282603999 -1.0197170670
O   0.3926475926  1.5436750820  0.9063201512
C   1.2699045192 -0.5481884327  0.0972945426
H   0.9375584619 -0.9999076654  1.0290920229
H   0.8978291289 -1.1229004034 -0.7505883399
H   2.3598567337 -0.5888546354  0.0486668913
7
Iter 37 Image 11  Energy = -153.9315568446
C   0.7840367852  0.8656586589 -0.0371164025
H   0.9809293880  1.3403901038 -1.0231241499
O   0.1875804579  1.4681235287  0.8223429327
C   1.3100769769 -0.5359012779  0.1153731248
H   1.0639489065 -0.9236344469  1.1059940899
H   0.8779311114 -1.1816924395 -0.6582837811
H   2.3967379442 -0.5425772870 -0.0312469938
7
Iter 38 Image 0  Energy = -153.9146221658
C   0.8260657415  0.5508603911 -0.1261794589
H   0.4554445983  1.2417513435 -0.8784317668
O   0.5680753083  1.0246514429  1.1187434847
C   1.4411098584 -0.5873603774 -0.4363613732
H   0.9099091373  0.3932317500  1.7666320721
H   1.5916834696 -0.8592929697 -1.4741885892
H   1.8089534565 -1.2734747403  0.3237244514
7
Iter 38 Image 1  Energy = -153.9128626194
C   0.8584321041  0.5790721928 -0.1574183053
H   0.4662136679  1.2425082498 -0.9232711154
O   0.7228762497  1.0929725115  1.0957900372
C   1.3931215752 -0.6013899348 -0.4103735035
H   0.8612084910  0.3554246579  1.7029863755
H   1.4291208748 -1.0233126683 -1.4039097628
H   1.8702684228 -1.1549080373  0.3901342539
7
Iter 38 Image 2  Energy = -153.9052673588
C   0.8906973465  0.6086143997 -0.1935345539
H   0.4804494344  1.2624308835 -0.9645862523
O   0.7828426511  1.0993439062  1.0746285846
C   1.3863159551 -0.5808438480 -0.3828127100
H   0.8577760989  0.2799807897  1.5781546674
H   1.2841765608 -1.1650543868 -1.2816500290
H   1.9189831035 -1.0141049779  0.4637376344
7
Iter 38 Image 3  Energy = -153.8828457931
C   0.9281770326  0.6696495825 -0.2093849872
H   0.5240149811  1.3376060647 -0.9462189579
O   0.8078602182  1.0443843060  1.0943042232
C   1.3970215670 -0.5721332904 -0.3332797886
H   0.7403958047  0.1294415901  1.3723029103
H   1.1339531728 -1.2354723592 -1.1291955456
H   2.0698184346 -0.8831092261  0.4454101841
7
Iter 38 Image 4  Energy = -153.8497157123
C   0.9303283540  0.6894104014 -0.1984462486
H   0.5521666102  1.3772714602 -0.9433271909
O   0.7971760911  0.9821705076  1.1201900295
C   1.3532411767 -0.5629284638 -0.2645284451
H   0.7329175573  0.0921609008  1.1802724217
H   1.0837594732 -1.2422400972 -1.0335719932
H   2.1516519311 -0.8454777798  0.4333490012
7
Iter 38 Image 5  Energy = -153.8421321861
C   0.9239084681  0.7948273784 -0.1256716867
H   0.5653494271  1.3888265673 -0.9634080058
O   0.7998507343  1.2339227343  1.0351974664
C   1.2804609467 -0.5873331311 -0.1084986747
H   0.7579490231 -0.2783149168  1.0384566193
H   1.0641085092 -1.2227007090 -0.9832210210
H   2.2096142169 -0.8388606967  0.4010831878
7
Iter 38 Image 6  Energy = -153.9020573899
C   0.9235971613  0.8551564585 -0.0963287628
H   0.6194511388  1.3802839834 -1.0137253780
O   0.7894483875  1.4023293490  0.9739000712
C   1.2612407490 -0.5810293433 -0.0107153771
H   0.7476256270 -0.5489378632  0.9823656131
H   0.9837320721 -1.2170246694 -0.8635143432
H   2.2761460273 -0.8004111881  0.3219563008
7
Iter 38 Image 7  Energy = -153.9276452108
C   0.9026305498  0.8902691248 -0.0394816641
H   0.6807162265  1.3410635574 -1.0261832751
O   0.7526809938  1.5319176277  0.9597550722
C   1.2628138375 -0.5644500533  0.0459587788
H   0.7057762973 -0.8457398278  0.9376507092
H   0.9760405869 -1.1403562411 -0.8318832896
H   2.3205826600 -0.7223374407  0.2481211831
7
Iter 38 Image 8  Energy = -153.9254765318
C   0.8767512966  0.9154075145  0.0387718625
H   0.6842518746  1.3382993475 -0.9843109540
O   0.8201361682  1.5788787951  0.9698109956
C   1.2237507581 -0.5653957623  0.0543460976
H   0.6680495056 -1.0715125434  0.8423977863
H   1.0438327763 -1.0348447332 -0.9052715103
H   2.2844692614 -0.6704657702  0.2781944060
7
Iter 38 Image 9  Energy = -153.9310289837
C   0.8552260466  0.8919103868  0.0078165846
H   0.8139226307  1.3313572580 -1.0042822612
O   0.6198929917  1.5836541634  0.9733109562
C   1.2382457762 -0.5587737570  0.0735556590
H   0.7865535856 -1.0648810939  0.9242804543
H   0.9648444652 -1.0674700778 -0.8474420846
H   2.3225560966 -0.6254300510  0.1666995241
7
Iter 38 Image 10  Energy = -153.9312994104
C   0.8240888610  0.8791162436 -0.0158047804
H   0.9186889538  1.3282442921 -1.0197098446
O   0.3938635162  1.5428189487  0.9055368108
C   1.2698458515 -0.5482733151  0.0971312893
H   0.9370094674 -0.9997261461  1.0286578396
H   0.8979793548 -1.1227683095 -0.7509692247
H   2.3597656189 -0.5890449405  0.0490965861
7
Iter 38 Image 11  Energy = -153.9315568446
C   0.7840367852  0.8656586589 -0.0371164025
H   0.9809293880  1.3403901038 -1.0231241499
O   0.1875804579  1.4681235287  0.8223429327
C   1.3100769769 -0.5359012779  0.1153731248
H   1.0639489065 -0.9236344469  1.1059940899
H   0.8779311114 -1.1816924395 -0.6582837811
H   2.3967379442 -0.5425772870 -0.0312469938
7
Iter 39 Image 0  Energy = -153.9146221658
C   0.8260657415  0.5508603911 -0.1261794589
H   0.4554445983  1.2417513435 -0.8784317668
O   0.5680753083  1.0246514429  1.1187434847
C   1.4411098584 -0.5873603774 -0.4363613732
H   0.9099091373  0.3932317500  1.7666320721
H   1.5916834696 -0.8592929697 -1.4741885892
H   1.8089534565 -1.2734747403  0.3237244514
7
Iter 39 Image 1  Energy = -153.9129084531
C   0.8579250920  0.5792505142 -0.1576039156
H   0.4663379969  1.2421384863 -0.9232956415
O   0.7227606812  1.0928030359  1.0957816117
C   1.3940617158 -0.6017483526 -0.4106139300
H   0.8616075754  0.3566505585  1.7032961053
H   1.4287384824 -1.0234570359 -1.4038860510
H   1.8698098363 -1.1552702354  0.3902598135
7
Iter 39 Image 2  Energy = -153.9053365566
C   0.8896676725  0.6103568353 -0.1938929754
H   0.4811082926  1.2634465496 -0.9639430318
O   0.7835465239  1.0988994984  1.0747122417
C   1.3872555142 -0.5820701855 -0.3820863547
H   0.8562036328  0.2785707499  1.5762598039
H   1.2830190308 -1.1659230451 -1.2801189279
H   1.9204404806 -1.0129136400  0.4630066070
7
Iter 39 Image 3  Energy = -153.8831656214
C   0.9271557507  0.6681122693 -0.2088521656
H   0.5239006260  1.3379383135 -0.9466351914
O   0.8082085305  1.0439498916  1.0948657283
C   1.3960113974 -0.5718250654 -0.3351355365
H   0.7407895468  0.1316246372  1.3735408516
H   1.1359608173 -1.2350595596 -1.1298414323
H   2.0692145397 -0.8843738055  0.4459957557
7
Iter 39 Image 4  Energy = -153.8500196066
C   0.9294684251  0.6904091588 -0.1967259547
H   0.5537718516  1.3783594492 -0.9441966480
O   0.7967101922  0.9837776334  1.1190838185
C   1.3531755193 -0.5622470555 -0.2610542181
H   0.7330457351  0.0871609008  1.1769579792
H   1.0821781359 -1.2429009947 -1.0316449995
H   2.1528913361 -0.8441921429  0.4315176113
7
Iter 39 Image 5  Energy = -153.8419778347
C   0.9232172484  0.7945449525 -0.1242354421
H   0.5645876246  1.3895729357 -0.9626096980
O   0.8002614645  1.2327654461  1.0356495564
C   1.2792589991 -0.5872605599 -0.1084059853
H   0.7588797660 -0.2770127348  1.0364349181
H   1.0664559747 -1.2226146777 -0.9854714136
H   2.2085802449 -0.8396281431  0.4025759413
7
Iter 39 Image 6  Energy = -153.9020388282
C   0.9228681131  0.8556640656 -0.0955129921
H   0.6186006313  1.3803620698 -1.0128004281
O   0.7904531801  1.4020724488  0.9750757847
C   1.2620890078 -0.5810650579 -0.0120789056
H   0.7466991329 -0.5496901896  0.9808124455
H   0.9854107459 -1.2166307833 -0.8652699609
H   2.2751203481 -0.8003458102  0.3237121628
7
Iter 39 Image 7  Energy = -153.9276144232
C   0.9022050975  0.8896446572 -0.0402082061
H   0.6804191964  1.3414986814 -1.0262022721
O   0.7540602330  1.5320013874  0.9599393777
C   1.2621582578 -0.5643710479  0.0452507554
H   0.7067976271 -0.8439632361  0.9378985764
H   0.9759333715 -1.1413456293 -0.8322626653
H   2.3196673727 -0.7230980719  0.2495219595
7
Iter 39 Image 8  Energy = -153.9264279871
C   0.8764727935  0.9140942185  0.0372832318
H   0.6852578372  1.3378118508 -0.9836769268
O   0.8191363819  1.5807916293  0.9717665066
C   1.2238661534 -0.5650174915  0.0544166077
H   0.6685864991 -1.0730296024  0.8418995216
H   1.0432675643 -1.0345298588 -0.9058534638
H   2.2846544146 -0.6697538977  0.2781032235
7
Iter 39 Image 9  Energy = -153.9311176699
C   0.8548201839  0.8926924301  0.0092065012
H   0.8141175592  1.3313578895 -1.0043737627
O   0.6197499497  1.5823852822  0.9721470275
C   1.2384450075 -0.5588355103  0.0733358735
H   0.7867823472 -1.0640105625  0.9245037731
H   0.9645375243 -1.0676304244 -0.8475871655
H   2.3227890239 -0.6255922738  0.1667065784
7
Iter 39 Image 10  Energy = -153.9314065591
C   0.8237497016  0.8799774362 -0.0144311817
H   0.9183316402  1.3282257468 -1.0196959017
O   0.3951578748  1.5419321750  0.9047426292
C   1.2697819522 -0.5483594962  0.0969484845
H   0.9364100590 -0.9995362840  1.0281925042
H   0.8981431803 -1.1226210803 -0.7513827148
H   2.3596672130 -0.5892517179  0.0495648595
7
Iter 39 Image 11  Energy = -153.9315568446
C   0.7840367852  0.8656586589 -0.0371164025
H   0.9809293880  1.3403901038 -1.0231241499
O   0.1875804579  1.4681235287  0.8223429327
C   1.3100769769 -0.5359012779  0.1153731248
H   1.0639489065 -0.9236344469  1.1059940899
H   0.8779311114 -1.1816924395 -0.6582837811
H   2.3967379442 -0.5425772870 -0.0312469938
7
Iter 40 Image 0  Energy = -153.9146221658
C   0.8260657415  0.5508603911 -0.1261794589
H   0.4554445983  1.2417513435 -0.8784317668
O   0.5680753083  1.0246514429  1.1187434847
C   1.4411098584 -0.5873603774 -0.4363613732
H   0.9099091373  0.3932317500  1.7666320721
H   1.5916834696 -0.8592929697 -1.4741885892
H   1.8089534565 -1.2734747403  0.3237244514
7
Iter 40 Image 1  Energy = -153.9129519829
C   0.8573795802  0.5794187463 -0.1577950471
H   0.4664723493  1.2417266612 -0.9233359844
O   0.7226215894  1.0926594565  1.0957139888
C   1.3951132782 -0.6021246038 -0.4108740650
H   0.8620727865  0.3579962004  1.7036697467
H   1.4282877088 -1.0236401874 -1.4038486503
H   1.8692940816 -1.1556693037  0.3904080163
7
Iter 40 Image 2  Energy = -153.9053605315
C   0.8885435995  0.6122817830 -0.1942751742
H   0.4818535543  1.2646147930 -0.9632169724
O   0.7843534616  1.0983919990  1.0747791419
C   1.3882671502 -0.5834036757 -0.3813644183
H   0.8543860990  0.2769391793  1.5740976405
H   1.2816930905 -1.1669052194 -1.2783109241
H   1.9221441897 -1.0115521003  0.4622280953
7
Iter 40 Image 3  Energy = -153.8834826435
C   0.9259258098  0.6663923033 -0.2083097203
H   0.5237703482  1.3383357584 -0.9470285227
O   0.8086733874  1.0434828237  1.0953607646
C   1.3949875140 -0.5714102481 -0.3369649198
H   0.7412293542  0.1340151194  1.3749072020
H   1.1382327721 -1.2346699244 -1.1306232261
H   2.0684220191 -0.8857791352  0.4465963973
7
Iter 40 Image 4  Energy = -153.8503327609
C   0.9284159363  0.6916499126 -0.1955522310
H   0.5558428977  1.3795216075 -0.9450569367
O   0.7958205490  0.9856543573  1.1185992810
C   1.3539561142 -0.5624388015 -0.2585826678
H   0.7328360509  0.0821609008  1.1743443009
H   1.0801098949 -1.2436771281 -1.0291381063
H   2.1542597559 -0.8425038683  0.4293239661
7
Iter 40 Image 5  Energy = -153.8416821699
C   0.9224285891  0.7942034366 -0.1225621101
H   0.5636046463  1.3904053334 -0.9616430539
O   0.8008103528  1.2311654279  1.0360691335
C   1.2779549883 -0.5871409655 -0.1085591883
H   0.7599513650 -0.2753006257  1.0343769534
H   1.0693496292 -1.2223951364 -0.9881380992
H   2.2071417478 -0.8405702572  0.4043942351
7
Iter 40 Image 6  Energy = -153.9019890540
C   0.9220789043  0.8561605677 -0.0946039260
H   0.6175304027  1.3804829655 -1.0116883016
O   0.7916183301  1.4017461389  0.9764776426
C   1.2629504963 -0.5810814816 -0.0136479722
H   0.7456852756 -0.5504487234  0.9790043501
H   0.9874680626 -1.2161549059 -0.8674261481
H   2.2739096843 -0.8003377965  0.3258224436
7
Iter 40 Image 7  Energy = -153.9275679965
C   0.9017199122  0.8889516021 -0.0410339473
H   0.6799992481  1.3420374917 -1.0261508587
O   0.7557952104  1.5320215538  0.9601947976
C   1.2613848558 -0.5643211851  0.0443785064
H   0.7079363539 -0.8419128238  0.9381258522
H   0.9759118877 -1.1424259659 -0.8328285737
H   2.3184936931 -0.7239839394  0.2512517649
7
Iter 40 Image 8  Energy = -153.9273254551
C   0.8759322839  0.9127221649  0.0359907414
H   0.6868913013  1.3372120686 -0.9827322765
O   0.8176783498  1.5831446123  0.9738720768
C   1.2237877980 -0.5645504000  0.0546129643
H   0.6694472020 -1.0759645293  0.8410960203
H   1.0427187532 -1.0336855508 -0.9066920568
H   2.2847859625 -0.6685115169  0.2777912577
7
Iter 40 Image 9  Energy = -153.9311764522
C   0.8544249949  0.8934959029  0.0106458413
H   0.8142282747  1.3313670144 -1.0044538712
O   0.6197067092  1.5810203115  0.9709599425
C   1.2386588832 -0.5589056176  0.0730646696
H   0.7869433537 -1.0630068268  0.9247094460
H   0.9642563068 -1.0677811618 -0.8477894404
H   2.3230230763 -0.6258227890  0.1668022305
7
Iter 40 Image 10  Energy = -153.9314885322
C   0.8234075537  0.8808969178 -0.0129549740
H   0.9179168214  1.3282032301 -1.0196710806
O   0.3966078279  1.5409818858  0.9039218714
C   1.2697081259 -0.5484501923  0.0967289821
H   0.9357130888 -0.9993297301  1.0276656846
H   0.8983335918 -1.1224448423 -0.7518596664
H   2.3595546084 -0.5894904825  0.0501078663
7
Iter 40 Image 11  Energy = -153.9315568446
C   0.7840367852  0.8656586589 -0.0371164025
H   0.9809293880  1.3403901038 -1.0231241499
O   0.1875804579  1.4681235287  0.8223429327
C   1.3100769769 -0.5359012779  0.1153731248
H   1.0639489065 -0.9236344469  1.1059940899
H   0.8779311114 -1.1816924395 -0.6582837811
H   2.3967379442 -0.5425772870 -0.0312469938
7
Iter 41 Image 0  Energy = -153.9146221658
C   0.8260657415  0.5508603911 -0.1261794589
H   0.4554445983  1.2417513435 -0.8784317668
O   0.5680753083  1.0246514429  1.1187434847
C   1.4411098584 -0.5873603774 -0.4363613732
H   0.9099091373  0.3932317500  1.7666320721
H   1.5916834696 -0.8592929697 -1.4741885892
H   1.8089534565 -1.2734747403  0.3237244514
7
Iter 41 Image 1  Energy = -153.9129924117
C   0.8568040906  0.5795368748 -0.1579905379
H   0.4666174947  1.2412588035 -0.9234117597
O   0.7224446118  1.0925807691  1.0955309513
C   1.3963150155 -0.6024932593 -0.4111516022
H   0.8626442480  0.3595009553  1.7041413601
H   1.4277156208 -1.0239036063 -1.4037803043
H   1.8687002855 -1.1561135675  0.3905999093
7
Iter 41 Image 2  Energy = -153.9053149010
C   0.8873368778  0.6143636374 -0.1946799951
H   0.4827151850  1.2660351226 -0.9623827652
O   0.7853179107  1.0978017250  1.0748107165
C   1.3893274046 -0.5847843978 -0.3806814097
H   0.8521864342  0.2749634781  1.5715417391
H   1.2801167648 -1.1680718856 -1.2760826156
H   1.9242405647 -1.0099409241  0.4614117511
7
Iter 41 Image 3  Energy = -153.8838102965
C   0.9243276313  0.6644630923 -0.2078033126
H   0.5236252501  1.3388309735 -0.9473407851
O   0.8093390262  1.0430341758  1.0956912507
C   1.3940328223 -0.5708879994 -0.3386791694
H   0.7417276283  0.1366433763  1.3764963751
H   1.1409028047 -1.2343420406 -1.1316146679
H   2.0672860375 -0.8873748533  0.4471882369
7
Iter 41 Image 4  Energy = -153.8507703881
C   0.9271553429  0.6929824661 -0.1954748305
H   0.5586842029  1.3808093483 -0.9458880273
O   0.7941578665  0.9878993346  1.1192559304
C   1.3563609626 -0.5639711362 -0.2582360542
H   0.7319366964  0.0775336613  1.1734789411
H   1.0771613348 -1.2447603582 -1.0257686902
H   2.1557848011 -0.8401262835  0.4265703589
7
Iter 41 Image 5  Energy = -153.8411051809
C   0.9214957090  0.7937488677 -0.1206870498
H   0.5622298693  1.3913566710 -0.9603637916
O   0.8015852019  1.2288230711  1.0365396431
C   1.2765698732 -0.5869755337 -0.1092817710
H   0.7612345972 -0.2728582047  1.0324699125
H   1.0731995358 -1.2219135969 -0.9915144631
H   2.2049265282 -0.8418140578  0.4067753841
7
Iter 41 Image 6  Energy = -153.9018763082
C   0.9212174368  0.8566044505 -0.0935409797
H   0.6160590088  1.3806903046 -1.0102496864
O   0.7930484031  1.4012639355  0.9782435697
C   1.2637799854 -0.5810547579 -0.0155504687
H   0.7445571883 -0.5511476914  0.9767833867
H   0.9902027563 -1.2155320873 -0.8702936887
H   2.2723763765 -0.8004573594  0.3285459362
7
Iter 41 Image 7  Energy = -153.9274961356
C   0.9011450609  0.8881852838 -0.0419745352
H   0.6793498032  1.3427553183 -1.0259588277
O   0.7581631789  1.5319074192  0.9605587090
C   1.2604202625 -0.5643326320  0.0432232695
H   0.7092256696 -0.8394714389  0.9382889856
H   0.9760735119 -1.1436157181 -0.8337485618
H   2.3168636811 -0.7250615067  0.2535485240
7
Iter 41 Image 8  Energy = -153.9281489545
C   0.8749768210  0.9112749822  0.0350217778
H   0.6896406220  1.3364320190 -0.9813374164
O   0.8152535460  1.5860920881  0.9760979263
C   1.2234247753 -0.5639599904  0.0550205407
H   0.6709790127 -1.0809645293  0.8399397755
H   1.0420774359 -1.0320854846 -0.9078092566
H   2.2848894504 -0.6664222353  0.2770054145
7
Iter 41 Image 9  Energy = -153.9312007091
C   0.8540938830  0.8942419428  0.0120180426
H   0.8141685948  1.3313926372 -1.0045062078
O   0.6198360973  1.5795883906  0.9698688629
C   1.2388924601 -0.5589845136  0.0727092728
H   0.7869645520 -1.0617853846  0.9248759364
H   0.9640369742 -1.0679080880 -0.8480912386
H   2.3232490424 -0.6261781491  0.1670641416
7
Iter 41 Image 10  Energy = -153.9315365234
C   0.8231176003  0.8818227404 -0.0114435730
H   0.9174077273  1.3281734452 -1.0196216058
O   0.3982555207  1.5400148846  0.9031765035
C   1.2696169754 -0.5485413727  0.0964502774
H   0.9348565533 -0.9991035625  1.0270446011
H   0.8985669036 -1.1222184768 -0.7524399555
H   2.3594203342 -0.5897808621  0.0507724407
7
Iter 41 Image 11  Energy = -153.9315568446
C   0.7840367852  0.8656586589 -0.0371164025
H   0.9809293880  1.3403901038 -1.0231241499
O   0.1875804579  1.4681235287  0.8223429327
C   1.3100769769 -0.5359012779  0.1153731248
H   1.0639489065 -0.9236344469  1.1059940899
H   0.8779311114 -1.1816924395 -0.6582837811
H   2.3967379442 -0.5425772870 -0.0312469938
7
Iter 42 Image 0  Energy = -153.9146221658
C   0.8260657415  0.5508603911 -0.1261794589
H   0.4554445983  1.2417513435 -0.8784317668
O   0.5680753083  1.0246514429  1.1187434847
C   1.4411098584 -0.5873603774 -0.4363613732
H   0.9099091373  0.3932317500  1.7666320721
H   1.5916834696 -0.8592929697 -1.4741885892
H   1.8089534565 -1.2734747403  0.3237244514
7
Iter 42 Image 1  Energy = -153.9130139978
C   0.8564763998  0.5795434896 -0.1581098147
H   0.4667057021  1.2409586644 -0.9234889620
O   0.7223189716  1.0925904298  1.0953413067
C   1.3970891663 -0.6026703193 -0.4113125977
H   0.8630464147  0.3604640294  1.7044681292
H   1.4272883858 -1.0241299972 -1.4037103850
H   1.8683163223 -1.1563893273  0.3907503464
7
Iter 42 Image 2  Energy = -153.9052443067
C   0.8866392100  0.6155459590 -0.1949191291
H   0.4832695114  1.2670367042 -0.9618524503
O   0.7859745924  1.0974267653  1.0748064036
C   1.3899199394 -0.5855020298 -0.3803150184
H   0.8506721821  0.2736070071  1.5698366696
H   1.2790612225 -1.1688804276 -1.2745572423
H   1.9257044816 -1.0088672251  0.4609382099
7
Iter 42 Image 3  Energy = -153.8840169584
C   0.9231380142  0.6632865047 -0.2075618839
H   0.5235505047  1.3391747594 -0.9474485388
O   0.8098480628  1.0428844230  1.0957495001
C   1.3935887873 -0.5705971760 -0.3395893707
H   0.7420395441  0.1382171523  1.3775973083
H   1.1426868734 -1.2342039818 -1.1323074694
H   2.0663894109 -0.8883949345  0.4474983447
7
Iter 42 Image 4  Energy = -153.8511417260
C   0.9264015630  0.6934619350 -0.1961019288
H   0.5607740628  1.3816437705 -0.9463916040
O   0.7927293911  0.9894278615  1.1202162833
C   1.3588355680 -0.5653366215 -0.2595109241
H   0.7309370415  0.0752184033  1.1745120399
H   1.0748759709 -1.2457057724 -1.0234666953
H   2.1566876177 -0.8383424991  0.4246804738
7
Iter 42 Image 5  Energy = -153.8405593991
C   0.9208722643  0.7933951943 -0.1196772717
H   0.5611697781  1.3919795900 -0.9593833273
O   0.8021575328  1.2270374812  1.0369969679
C   1.2757805554 -0.5868943980 -0.1101925533
H   0.7621055327 -0.2709586875  1.0316251406
H   1.0760940470 -1.2214519031 -0.9939692421
H   2.2030616021 -0.8427400517  0.4085381472
7
Iter 42 Image 6  Energy = -153.9017596075
C   0.9206815069  0.8568125229 -0.0928110540
H   0.6149090607  1.3808803837 -1.0091786996
O   0.7940621116  1.4008344140  0.9795050834
C   1.2642161286 -0.5810028168 -0.0168844275
H   0.7438366315 -0.5514657401  0.9752174309
H   0.9922868367 -1.2150611602 -0.8724721168
H   2.2712488808 -0.8006307852  0.3305618404
7
Iter 42 Image 7  Energy = -153.9274380728
C   0.9007638412  0.8877268271 -0.0425658024
H   0.6788200170  1.3432851790 -1.0257662192
O   0.7599507412  1.5317540380  0.9608133358
C   1.2597536180 -0.5643792656  0.0423704035
H   0.7100443946 -0.8378371637  0.9383506579
H   0.9762794576 -1.1443809626 -0.8345023325
H   2.3156291039 -0.7258019316  0.2552375376
7
Iter 42 Image 8  Energy = -153.9285696072
C   0.8740693715  0.9104523299  0.0349381144
H   0.6920277967  1.3358486220 -0.9801191565
O   0.8133361377  1.5883559826  0.9775188032
C   1.2229040905 -0.5635723718  0.0554296748
H   0.6722292311 -1.0859645293  0.8387294300
H   1.0418412182 -1.0302980170 -0.9088477287
H   2.2848338305 -0.6644551660  0.2762896557
7
Iter 42 Image 9  Energy = -153.9312019094
C   0.8539744872  0.8945581401  0.0126462531
H   0.8140231679  1.3314186389 -1.0045160192
O   0.6199900302  1.5787841506  0.9694082245
C   1.2390435230 -0.5590303296  0.0724516404
H   0.7868871795 -1.0609243164  0.9249552638
H   0.9639462351 -1.0679698812 -0.8483273585
H   2.3233769842 -0.6264695669  0.1673208004
7
Iter 42 Image 10  Energy = -153.9315471683
C   0.8230341137  0.8822866795 -0.0106586422
H   0.9170489732  1.3281508886 -1.0195714445
O   0.3992952084  1.5395173263  0.9029006311
C   1.2695514477 -0.5485895802  0.0962515487
H   0.9342523767 -0.9989621602  1.0266242471
H   0.8987299507 -1.1220522771 -0.7528468466
H   2.3593295417 -0.5899840742  0.0512391984
7
Iter 42 Image 11  Energy = -153.9315568446
C   0.7840367852  0.8656586589 -0.0371164025
H   0.9809293880  1.3403901038 -1.0231241499
O   0.1875804579  1.4681235287  0.8223429327
C   1.3100769769 -0.5359012779  0.1153731248
H   1.0639489065 -0.9236344469  1.1059940899
H   0.8779311114 -1.1816924395 -0.6582837811
H   2.3967379442 -0.5425772870 -0.0312469938
7
Iter 43 Image 0  Energy = -153.9146221658
C   0.8260657415  0.5508603911 -0.1261794589
H   0.4554445983  1.2417513435 -0.8784317668
O   0.5680753083  1.0246514429  1.1187434847
C   1.4411098584 -0.5873603774 -0.4363613732
H   0.9099091373  0.3932317500  1.7666320721
H   1.5916834696 -0.8592929697 -1.4741885892
H   1.8089534565 -1.2734747403  0.3237244514
7
Iter 43 Image 1  Energy = -153.9130244917
C   0.8563662414  0.5793909675 -0.1581802311
H   0.4667522888  1.2407650724 -0.9236092091
O   0.7222145060  1.0927331841  1.0950577150
C   1.3975914426 -0.6026456113 -0.4113736379
H   0.8633877850  0.3610856982  1.7047203817
H   1.4268603869 -1.0244243767 -1.4035952273
H   1.8680687085 -1.1565379634  0.3909182331
7
Iter 43 Image 2  Energy = -153.9051617455
C   0.8863620015  0.6159469613 -0.1950307280
H   0.4836219184  1.2678839107 -0.9615262318
O   0.7864833651  1.0972044561  1.0747550557
C   1.3901044578 -0.5855797636 -0.3802323796
H   0.8494722338  0.2725503861  1.5686212553
H   1.2783033434 -1.1695421380 -1.2733934661
H   1.9268938183 -1.0080970595  0.4607439605
7
Iter 43 Image 3  Energy = -153.8841766197
C   0.9220286512  0.6626451168 -0.2076039708
H   0.5235673832  1.3394712271 -0.9473232859
O   0.8103199290  1.0430873606  1.0954940489
C   1.3936787032 -0.5705157503 -0.3398005179
H   0.7422089282  0.1389925470  1.3784839924
H   1.1439635361 -1.2342909713 -1.1328446662
H   2.0654740650 -0.8890227584  0.4475322528
7
Iter 43 Image 4  Energy = -153.8516582708
C   0.9259925472  0.6930074540 -0.1978233463
H   0.5626666015  1.3821491472 -0.9466889236
O   0.7911330653  0.9904378846  1.1216866381
C   1.3623883356 -0.5668571379 -0.2634247844
H   0.7294374607  0.0751855483  1.1787044464
H   1.0725776660 -1.2468745426 -1.0217728437
H   2.1570455490 -0.8366812189  0.4232564818
7
Iter 43 Image 5  Energy = -153.8398666492
C   0.9204307538  0.7930068658 -0.1194722590
H   0.5601080520  1.3924330369 -0.9584073090
O   0.8026597671  1.2253079764  1.0376472315
C   1.2755243576 -0.5868821736 -0.1118166897
H   0.7627602497 -0.2690280184  1.0320314955
H   1.0788889311 -1.2208558883 -0.9962211472
H   2.2008692013 -0.8436145557  0.4101765364
7
Iter 43 Image 6  Energy = -153.9015802858
C   0.9203753706  0.8567639069 -0.0922578792
H   0.6136861153  1.3811390983 -1.0081314555
O   0.7949400584  1.4002565049  0.9806448327
C   1.2642929820 -0.5808913987 -0.0180282180
H   0.7433678661 -0.5513506337  0.9738906701
H   0.9944114367 -1.2145850780 -0.8746704956
H   2.2701673317 -0.8009655594  0.3324905970
7
Iter 43 Image 7  Energy = -153.9273876748
C   0.9004989285  0.8875275331 -0.0429049380
H   0.6782449229  1.3437673303 -1.0255124816
O   0.7616813598  1.5315256232  0.9609994877
C   1.2592263774 -0.5644869983  0.0415975679
H   0.7105323286 -0.8367139001  0.9383030937
H   0.9766119249 -1.1448849190 -0.8353132881
H   2.3144453354 -0.7263679500  0.2567681580
7
Iter 43 Image 8  Energy = -153.9287723397
C   0.8730671058  0.9099409253  0.0354122201
H   0.6948760728  1.3353415300 -0.9790437329
O   0.8107282496  1.5901528965  0.9783065355
C   1.2222701611 -0.5633558789  0.0559218709
H   0.6740018564 -1.0909645293  0.8377616499
H   1.0414709387 -1.0284415695 -0.9095482840
H   2.2848273045 -0.6623065261  0.2751285592
7
Iter 43 Image 9  Energy = -153.9312071248
C   0.8540917765  0.8944395793  0.0125402228
H   0.8136950056  1.3314598097 -1.0044777147
O   0.6202448203  1.5784695929  0.9695897045
C   1.2391506687 -0.5590509365  0.0722174070
H   0.7866420266 -1.0601662084  0.9249590989
H   0.9639893408 -1.0679791395 -0.8485664731
H   2.3234279706 -0.6268058610  0.1676765550
7
Iter 43 Image 10  Energy = -153.9315477362
C   0.8231947679  0.8823153295 -0.0105372570
H   0.9167490835  1.3281303544 -1.0195015524
O   0.3999338839  1.5394485310  0.9031497927
C   1.2694953349 -0.5485998933  0.0960788955
H   0.9337424563 -0.9988728090  1.0263069723
H   0.8988624194 -1.1219006311 -0.7531861857
H   2.3592636649 -0.5901540739  0.0516280286
7
Iter 43 Image 11  Energy = -153.9315568446
C   0.7840367852  0.8656586589 -0.0371164025
H   0.9809293880  1.3403901038 -1.0231241499
O   0.1875804579  1.4681235287  0.8223429327
C   1.3100769769 -0.5359012779  0.1153731248
H   1.0639489065 -0.9236344469  1.1059940899
H   0.8779311114 -1.1816924395 -0.6582837811
H   2.3967379442 -0.5425772870 -0.0312469938
7
Iter 44 Image 0  Energy = -153.9146221658
C   0.8260657415  0.5508603911 -0.1261794589
H   0.4554445983  1.2417513435 -0.8784317668
O   0.5680753083  1.0246514429  1.1187434847
C   1.4411098584 -0.5873603774 -0.4363613732
H   0.9099091373  0.3932317500  1.7666320721
H   1.5916834696 -0.8592929697 -1.4741885892
H   1.8089534565 -1.2734747403  0.3237244514
7
Iter 44 Image 1  Energy = -153.9130373905
C   0.8562283749  0.5792098468 -0.1583243222
H   0.4668212018  1.2404991772 -0.9237820849
O   0.7220983775  1.0928789116  1.0947484553
C   1.3982470027 -0.6026149687 -0.4114464086
H   0.8638378299  0.3619771971  1.7049815968
H   1.4262468814 -1.0248696702 -1.4034121215
H   1.8677616876 -1.1567135217  0.3911729093
7
Iter 44 Image 2  Energy = -153.9050527404
C   0.8860214832  0.6163375791 -0.1952189330
H   0.4840535332  1.2690040784 -0.9611227364
O   0.7871463922  1.0969525281  1.0747446587
C   1.3903400527 -0.5855727695 -0.3799716327
H   0.8479372586  0.2712360284  1.5671173336
H   1.2773837350 -1.1704637144 -1.2720567143
H   1.9283586828 -1.0071269776  0.4604455130
7
Iter 44 Image 3  Energy = -153.8843747055
C   0.9206921232  0.6618322689 -0.2075915179
H   0.5236809029  1.3398780657 -0.9472657441
O   0.8107611235  1.0434354243  1.0953469837
C   1.3936951491 -0.5705394753 -0.3404359303
H   0.7423947145  0.1399321214  1.3796696017
H   1.1455238399 -1.2343823192 -1.1333820476
H   2.0644933402 -0.8897892829  0.4475964676
7
Iter 44 Image 4  Energy = -153.8523424698
C   0.9257044228  0.6918967814 -0.1988216575
H   0.5647427767  1.3828286730 -0.9474856184
O   0.7896975350  0.9916996288  1.1217037209
C   1.3659364676 -0.5666628305 -0.2664261202
H   0.7279742800  0.0741628568  1.1837044464
H   1.0697875387 -1.2486609451 -1.0203721678
H   2.1573982188 -0.8348969667  0.4216350861
7
Iter 44 Image 5  Energy = -153.8390244616
C   0.9198909206  0.7924551326 -0.1195823595
H   0.5588946178  1.3930849947 -0.9571642144
O   0.8031027622  1.2235699599  1.0388225013
C   1.2752847768 -0.5869431761 -0.1139203447
H   0.7635568496 -0.2668109807  1.0328141180
H   1.0823225140 -1.2203011795 -0.9991891710
H   2.1981888699 -0.8446874812  0.4121573224
7
Iter 44 Image 6  Energy = -153.9013314759
C   0.9199375785  0.8567818901 -0.0914844756
H   0.6120857905  1.3814904621 -1.0067219301
O   0.7961195428  1.3993453709  0.9821143947
C   1.2645159025 -0.5807691742 -0.0196237315
H   0.7426803197 -0.5511652764  0.9721849590
H   0.9972387527 -1.2139398366 -0.8775616708
H   2.2686632791 -0.8013765675  0.3350304970
7
Iter 44 Image 7  Energy = -153.9273279494
C   0.9001867328  0.8873242718 -0.0432700136
H   0.6775512663  1.3443477167 -1.0252745742
O   0.7638223042  1.5313465286  0.9611497061
C   1.2585789449 -0.5645762255  0.0406700605
H   0.7111002994 -0.8354320171  0.9382688515
H   0.9769455500 -1.1455906088 -0.8362333043
H   2.3130560865 -0.7270529468  0.2586268986
7
Iter 44 Image 8  Energy = -153.9289531666
C   0.8720332752  0.9093818009  0.0360333851
H   0.6981190969  1.3347612967 -0.9780841767
O   0.8074284147  1.5919321533  0.9791109041
C   1.2217536520 -0.5632324428  0.0563749385
H   0.6761839938 -1.0958080827  0.8368887223
H   1.0407653886 -1.0266665384 -0.9101394279
H   2.2849578821 -0.6600013372  0.2737545027
7
Iter 44 Image 9  Energy = -153.9312124454
C   0.8541759830  0.8943714635  0.0125189672
H   0.8134139380  1.3315125267 -1.0044764483
O   0.6203702138  1.5779298234  0.9696799539
C   1.2393334495 -0.5590709070  0.0719352733
H   0.7864651140 -1.0590829041  0.9250792549
H   0.9639262884 -1.0680758504 -0.8488061415
H   2.3235566251 -0.6272173169  0.1680079340
7
Iter 44 Image 10  Energy = -153.9315487882
C   0.8233700080  0.8824005456 -0.0103169319
H   0.9163687029  1.3281091492 -1.0194210168
O   0.4007765525  1.5393018836  0.9034192881
C   1.2694255817 -0.5486216301  0.0958677729
H   0.9330878220 -0.9987293103  1.0258937339
H   0.8990254893 -1.1217143033 -0.7536295161
H   2.3591874520 -0.5903795228  0.0521253677
7
Iter 44 Image 11  Energy = -153.9315568446
C   0.7840367852  0.8656586589 -0.0371164025
H   0.9809293880  1.3403901038 -1.0231241499
O   0.1875804579  1.4681235287  0.8223429327
C   1.3100769769 -0.5359012779  0.1153731248
H   1.0639489065 -0.9236344469  1.1059940899
H   0.8779311114 -1.1816924395 -0.6582837811
H   2.3967379442 -0.5425772870 -0.0312469938
7
Iter 45 Image 0  Energy = -153.9146221658
C   0.8260657415  0.5508603911 -0.1261794589
H   0.4554445983  1.2417513435 -0.8784317668
O   0.5680753083  1.0246514429  1.1187434847
C   1.4411098584 -0.5873603774 -0.4363613732
H   0.9099091373  0.3932317500  1.7666320721
H   1.5916834696 -0.8592929697 -1.4741885892
H   1.8089534565 -1.2734747403  0.3237244514
7
Iter 45 Image 1  Energy = -153.9130338306
C   0.8563473313  0.5790961785 -0.1583577906
H   0.4668227277  1.2404659171 -0.9239076584
O   0.7220877935  1.0930612249  1.0945219321
C   1.3983065831 -0.6025072819 -0.4113809323
H   0.8639825251  0.3620658558  1.7049818236
H   1.4259218870 -1.0251872178 -1.4032370693
H   1.8677725070 -1.1566277051  0.3913177160
7
Iter 45 Image 2  Energy = -153.9050301658
C   0.8860954522  0.6161281442 -0.1951781621
H   0.4840560136  1.2692612326 -0.9611049133
O   0.7873046988  1.0969631959  1.0747039463
C   1.3902081795 -0.5853455021 -0.3801891331
H   0.8476030062  0.2710506981  1.5670442505
H   1.2773611658 -1.1706812960 -1.2718787482
H   1.9286126231 -1.0070097183  0.4605402576
7
Iter 45 Image 3  Energy = -153.8844277944
C   0.9203498603  0.6618283327 -0.2077846471
H   0.5238532089  1.3400254558 -0.9471190500
O   0.8108110491  1.0438398044  1.0949650107
C   1.3941518323 -0.5705136436 -0.3401372929
H   0.7423313087  0.1396403099  1.3801522372
H   1.1456154399 -1.2347316416 -1.1335127240
H   2.0641284933 -0.8897217942  0.4473742626
7
Iter 45 Image 4  Energy = -153.8527587676
C   0.9256646561  0.6915070047 -0.2002651481
H   0.5654462923  1.3826452792 -0.9476347433
O   0.7890623090  0.9916962933  1.1217853777
C   1.3681939048 -0.5673604370 -0.2700680661
H   0.7270171670  0.0756556187  1.1887044464
H   1.0686562817 -1.2494612984 -1.0201127535
H   2.1572006373 -0.8343152186  0.4215285864
7
Iter 45 Image 5  Energy = -153.8385408710
C   0.9198483847  0.7921780274 -0.1199967412
H   0.5584661345  1.3932744319 -0.9567646220
O   0.8031510426  1.2228013082  1.0390824913
C   1.2757239062 -0.5868640798 -0.1155349731
H   0.7636492143 -0.2658423410  1.0347023746
H   1.0835869712 -1.2201006777 -1.0003236871
H   2.1968156598 -0.8450793749  0.4127730057
7
Iter 45 Image 6  Energy = -153.9011402754
C   0.9199705520  0.8565393038 -0.0913811437
H   0.6112697963  1.3817481881 -1.0060606222
O   0.7965173467  1.3987225549  0.9827282125
C   1.2643234266 -0.5806805983 -0.0202385474
H   0.7425833614 -0.5506087368  0.9717195234
H   0.9986288649 -1.2136276731 -0.8789483723
H   2.2679478246 -0.8017261560  0.3361189915
7
Iter 45 Image 7  Energy = -153.9273174781
C   0.9002171116  0.8874435014 -0.0432817280
H   0.6771797727  1.3445483242 -1.0251161559
O   0.7647049086  1.5312930321  0.9612400860
C   1.2584253558 -0.5646627466  0.0403787244
H   0.7109666921 -0.8354292497  0.9381157667
H   0.9772122734 -1.1456570120 -0.8366766384
H   2.3125350724 -0.7271691283  0.2592775793
7
Iter 45 Image 8  Energy = -153.9289287920
C   0.8715589523  0.9093067423  0.0366475551
H   0.6998788793  1.3345926925 -0.9778746378
O   0.8053603342  1.5923365535  0.9791306994
C   1.2214927558 -0.5633355947  0.0566230620
H   0.6775370932 -1.0978023024  0.8367460468
H   1.0403557831 -1.0258501871 -0.9101303737
H   2.2850579121 -0.6588810576  0.2727965062
7
Iter 45 Image 9  Energy = -153.9312189367
C   0.8543653250  0.8940830495  0.0120276443
H   0.8132275090  1.3315606094 -1.0044855131
O   0.6203785014  1.5779641051  0.9700941779
C   1.2394053651 -0.5590612456  0.0718370414
H   0.7863377828 -1.0586120871  0.9251663933
H   0.9639371591 -1.0681397618 -0.8488374932
H   2.3235899684 -0.6274278359  0.1681365399
7
Iter 45 Image 10  Energy = -153.9315465391
C   0.8235589565  0.8821893866 -0.0106085937
H   0.9162802070  1.3281136448 -1.0193945111
O   0.4008295759  1.5394742345  0.9038125765
C   1.2694170143 -0.5486144594  0.0957975223
H   0.9329100631 -0.9986873525  1.0258279801
H   0.8990564961 -1.1216601935 -0.7537458870
H   2.3591892943 -0.5904484467  0.0522496110
7
Iter 45 Image 11  Energy = -153.9315568446
C   0.7840367852  0.8656586589 -0.0371164025
H   0.9809293880  1.3403901038 -1.0231241499
O   0.1875804579  1.4681235287  0.8223429327
C   1.3100769769 -0.5359012779  0.1153731248
H   1.0639489065 -0.9236344469  1.1059940899
H   0.8779311114 -1.1816924395 -0.6582837811
H   2.3967379442 -0.5425772870 -0.0312469938
7
Iter 46 Image 0  Energy = -153.9146221658
C   0.8260657415  0.5508603911 -0.1261794589
H   0.4554445983  1.2417513435 -0.8784317668
O   0.5680753083  1.0246514429  1.1187434847
C   1.4411098584 -0.5873603774 -0.4363613732
H   0.9099091373  0.3932317500  1.7666320721
H   1.5916834696 -0.8592929697 -1.4741885892
H   1.8089534565 -1.2734747403  0.3237244514
7
Iter 46 Image 1  Energy = -153.9130359503
C   0.8563708593  0.5789913018 -0.1584511390
H   0.4668540448  1.2403368532 -0.9240639222
O   0.7220488663  1.0932282421  1.0942682145
C   1.3985957427 -0.6024532992 -0.4113597605
H   0.8642493576  0.3624818638  1.7050497337
H   1.4254463223 -1.0255999301 -1.4030282255
H   1.8676761593 -1.1566180604  0.3915231199
7
Iter 46 Image 2  Energy = -153.9049814014
C   0.8859809077  0.6161895088 -0.1952292232
H   0.4842100010  1.2698262662 -0.9609408674
O   0.7876565048  1.0968797109  1.0746889112
C   1.3902436563 -0.5852631450 -0.3802214903
H   0.8468316987  0.2704930154  1.5665020353
H   1.2770559771 -1.1711692433 -1.2713340894
H   1.9292623944 -1.0065893577  0.4604722353
7
Iter 46 Image 3  Energy = -153.8845401465
C   0.9196942667  0.6615114379 -0.2078810982
H   0.5240392505  1.3402642471 -0.9470565556
O   0.8109348281  1.0442048771  1.0946785536
C   1.3944389810 -0.5704892800 -0.3403236770
H   0.7423519302  0.1398395640  1.3810401568
H   1.1462058903 -1.2350170701 -1.1337894723
H   2.0635760446 -0.8899469261  0.4472698631
7
Iter 46 Image 4  Energy = -153.8532591917
C   0.9255563364  0.6909915006 -0.2013568228
H   0.5665878199  1.3827649070 -0.9481375615
O   0.7882681055  0.9921279543  1.1213510263
C   1.3706398860 -0.5674847806 -0.2730857984
H   0.7259934394  0.0759991039  1.1937044464
H   1.0669219800 -1.2506716446 -1.0194927063
H   2.1572736918 -0.8333597439  0.4209551305
7
Iter 46 Image 5  Energy = -153.8379172670
C   0.9196246507  0.7917828297 -0.1203119334
H   0.5578104023  1.3936671828 -0.9560917978
O   0.8032686535  1.2217336119  1.0396342608
C   1.2759611842 -0.5868106184 -0.1174059315
H   0.7639790419 -0.2644197369  1.0364770345
H   1.0856136232 -1.2198635490 -1.0022000310
H   2.1949837601 -0.8457223993  0.4138362414
7
Iter 46 Image 6  Energy = -153.9009067153
C   0.9198238009  0.8564032139 -0.0910185946
H   0.6101102467  1.3820731578 -1.0050637192
O   0.7972320576  1.3978963342  0.9836919462
C   1.2643203782 -0.5805866636 -0.0212996709
H   0.7422368064 -0.5501339927  0.9708108179
H   1.0006651727 -1.2131686049 -0.8810005403
H   2.2668527168 -0.8021165403  0.3378177970
7
Iter 46 Image 7  Energy = -153.9272903299
C   0.9001483875  0.8874531149 -0.0434250807
H   0.6766719129  1.3448866983 -1.0249400650
O   0.7660731892  1.5312397039  0.9613574888
C   1.2580864022 -0.5647402912  0.0398692446
H   0.7110448139 -0.8350171699  0.9379877476
H   0.9775007792 -1.1459714276 -0.8372853246
H   2.3117157055 -0.7274839062  0.2603736373
7
Iter 46 Image 8  Energy = -153.9289822807
C   0.8709470636  0.9090304480  0.0371970734
H   0.7021319347  1.3342843616 -0.9775058840
O   0.8027474062  1.5931365875  0.9794713382
C   1.2212311361 -0.5633829265  0.0569094939
H   0.6792094551 -1.1004462432  0.8364516072
H   1.0397543996 -1.0248321867 -0.9102683003
H   2.2852203230 -0.6574231971  0.2716835450
7
Iter 46 Image 9  Energy = -153.9312240404
C   0.8544909711  0.8939161020  0.0117585552
H   0.8130728448  1.3316166554 -1.0045217733
O   0.6203201546  1.5777084942  0.9703171919
C   1.2395432518 -0.5590609244  0.0716744255
H   0.7862611139 -1.0578353939  0.9253374633
H   0.9638599776 -1.0682661158 -0.8488995734
H   2.3236932968 -0.6277119851  0.1682724962
7
Iter 46 Image 10  Energy = -153.9315456361
C   0.8237175458  0.8821219291 -0.0106622905
H   0.9160911181  1.3281140353 -1.0193570029
O   0.4011836389  1.5394869633  0.9041194701
C   1.2693906474 -0.5486243931  0.0956757521
H   0.9325593169 -0.9985898450  1.0256383900
H   0.8991306075 -1.1215625199 -0.7539822540
H   2.3591687307 -0.5905793522  0.0525066348
7
Iter 46 Image 11  Energy = -153.9315568446
C   0.7840367852  0.8656586589 -0.0371164025
H   0.9809293880  1.3403901038 -1.0231241499
O   0.1875804579  1.4681235287  0.8223429327
C   1.3100769769 -0.5359012779  0.1153731248
H   1.0639489065 -0.9236344469  1.1059940899
H   0.8779311114 -1.1816924395 -0.6582837811
H   2.3967379442 -0.5425772870 -0.0312469938
7
Iter 47 Image 0  Energy = -153.9146221658
C   0.8260657415  0.5508603911 -0.1261794589
H   0.4554445983  1.2417513435 -0.8784317668
O   0.5680753083  1.0246514429  1.1187434847
C   1.4411098584 -0.5873603774 -0.4363613732
H   0.9099091373  0.3932317500  1.7666320721
H   1.5916834696 -0.8592929697 -1.4741885892
H   1.8089534565 -1.2734747403  0.3237244514
7
Iter 47 Image 1  Energy = -153.9130379913
C   0.8563968354  0.5789045069 -0.1585663423
H   0.4668884706  1.2401942275 -0.9242390520
O   0.7220193979  1.0934010330  1.0940197307
C   1.3988861220 -0.6024173330 -0.4113302320
H   0.8645315647  0.3629512815  1.7050982212
H   1.4249301457 -1.0260662978 -1.4027960952
H   1.8675888135 -1.1566004581  0.3917517812
7
Iter 47 Image 2  Energy = -153.9049360759
C   0.8858661591  0.6162243667 -0.1952980239
H   0.4843561335  1.2703892839 -0.9607756318
O   0.7880092458  1.0967973089  1.0746959945
C   1.3902851745 -0.5851764306 -0.3802316260
H   0.8460627173  0.2699940504  1.5660309204
H   1.2768046570 -1.1716783311 -1.2708658212
H   1.9298570537 -1.0061834860  0.4603817144
7
Iter 47 Image 3  Energy = -153.8846692754
C   0.9190925607  0.6612172785 -0.2079699578
H   0.5242609240  1.3404615214 -0.9470751259
O   0.8109701624  1.0444574445  1.0943933980
C   1.3947316228 -0.5704838924 -0.3407542593
H   0.7423833056  0.1402113915  1.3822185609
H   1.1467579447 -1.2353203259 -1.1340791066
H   2.0630446682 -0.8901765451  0.4472042440
7
Iter 47 Image 4  Energy = -153.8537957403
C   0.9255856010  0.6905550154 -0.2023971413
H   0.5676104938  1.3829376560 -0.9488279141
O   0.7875649165  0.9927727465  1.1205761124
C   1.3726776719 -0.5675158704 -0.2757411564
H   0.7251191976  0.0759965100  1.1987044464
H   1.0652319291 -1.2519076343 -1.0188375119
H   2.1574514585 -0.8324710661  0.4204608926
7
Iter 47 Image 5  Energy = -153.8372819820
C   0.9193630728  0.7913903196 -0.1206738491
H   0.5572838202  1.3940727176 -0.9555190934
O   0.8032689689  1.2207268464  1.0400913998
C   1.2761851607 -0.5867740715 -0.1192868672
H   0.7643063060 -0.2629240918  1.0386568261
H   1.0875602158 -1.2197407905 -1.0041060056
H   2.1932737733 -0.8463835891  0.4147754304
7
Iter 47 Image 6  Energy = -153.9006485988
C   0.9196619564  0.8562830499 -0.0906242278
H   0.6089004669  1.3824502232 -1.0040096729
O   0.7979687751  1.3969616406  0.9846704345
C   1.2643700958 -0.5804961808 -0.0224661110
H   0.7418523724 -0.5496014266  0.9699722283
H   1.0028316995 -1.2127003878 -0.8831994511
H   2.2656558202 -0.8025299991  0.3395948342
7
Iter 47 Image 7  Energy = -153.9272628844
C   0.9001096605  0.8874712174 -0.0435538695
H   0.6761214370  1.3452317621 -1.0247645984
O   0.7674904507  1.5311996800  0.9614645932
C   1.2577355812 -0.5648116099  0.0393686799
H   0.7110656588 -0.8346166659  0.9378235866
H   0.9778075145 -1.1463041600 -0.8378947074
H   2.3109108924 -0.7278034908  0.2614939786
7
Iter 47 Image 8  Energy = -153.9290452068
C   0.8704207576  0.9087431324  0.0376192631
H   0.7043051019  1.3339830703 -0.9772426218
O   0.8000488254  1.5937812631  0.9798641668
C   1.2210907783 -0.5634067615  0.0571482801
H   0.6808533461 -1.1026203690  0.8363122926
H   1.0390705990 -1.0240068950 -0.9103557353
H   2.2854523169 -0.6561066058  0.2705932397
7
Iter 47 Image 9  Energy = -153.9312291376
C   0.8545915350  0.8937801942  0.0115132626
H   0.8130126821  1.3316838801 -1.0045982853
O   0.6200937615  1.5773606386  0.9704609942
C   1.2397166846 -0.5590532944  0.0715204985
H   0.7862868564 -1.0569277312  0.9256204640
H   0.9636918038 -1.0684749181 -0.8488832732
H   2.3238482853 -0.6280019357  0.1683051194
7
Iter 47 Image 10  Energy = -153.9315451389
C   0.8238528965  0.8820818356 -0.0106797209
H   0.9159211889  1.3281211298 -1.0193274507
O   0.4015178944  1.5394543685  0.9043854461
C   1.2693722821 -0.5486376429  0.0955586182
H   0.9322280689 -0.9984626365  1.0254636726
H   0.8991908663 -1.1214773361 -0.7542066922
H   2.3591584094 -0.5907128991  0.0527448259
7
Iter 47 Image 11  Energy = -153.9315568446
C   0.7840367852  0.8656586589 -0.0371164025
H   0.9809293880  1.3403901038 -1.0231241499
O   0.1875804579  1.4681235287  0.8223429327
C   1.3100769769 -0.5359012779  0.1153731248
H   1.0639489065 -0.9236344469  1.1059940899
H   0.8779311114 -1.1816924395 -0.6582837811
H   2.3967379442 -0.5425772870 -0.0312469938
7
Iter 48 Image 0  Energy = -153.9146221658
C   0.8260657415  0.5508603911 -0.1261794589
H   0.4554445983  1.2417513435 -0.8784317668
O   0.5680753083  1.0246514429  1.1187434847
C   1.4411098584 -0.5873603774 -0.4363613732
H   0.9099091373  0.3932317500  1.7666320721
H   1.5916834696 -0.8592929697 -1.4741885892
H   1.8089534565 -1.2734747403  0.3237244514
7
Iter 48 Image 1  Energy = -153.9130446151
C   0.8563549386  0.5788160567 -0.1587450635
H   0.4669520909  1.2399466170 -0.9244858379
O   0.7219658451  1.0936212025  1.0936797677
C   1.3994044219 -0.6024357340 -0.4113250645
H   0.8649737821  0.3637789923  1.7052179399
H   1.4241842598 -1.0267238105 -1.4024822715
H   1.8674060069 -1.1566363683  0.3920785382
7
Iter 48 Image 2  Energy = -153.9048763746
C   0.8855074721  0.6166211384 -0.1954054732
H   0.4846393014  1.2712520497 -0.9604688627
O   0.7885634473  1.0966337329  1.0747061187
C   1.3905136459 -0.5853770860 -0.3802024654
H   0.8448564938  0.2692025688  1.5652378931
H   1.2763706739 -1.1724466045 -1.2700815444
H   1.9307901092 -1.0055190243  0.4601518924
7
Iter 48 Image 3  Energy = -153.8849063695
C   0.9182196845  0.6605629199 -0.2079958337
H   0.5245376722  1.3407133444 -0.9472605733
O   0.8110167814  1.0450620740  1.0939864403
C   1.3950223018 -0.5703717885 -0.3415735677
H   0.7425144292  0.1407771701  1.3843243785
H   1.1477384576 -1.2357022069 -1.1346914794
H   2.0621918606 -0.8906746004  0.4471483579
7
Iter 48 Image 4  Energy = -153.8544404751
C   0.9255681732  0.6903136718 -0.2030414677
H   0.5689301825  1.3834190283 -0.9499427827
O   0.7867755773  0.9940817555  1.1190466444
C   1.3744908311 -0.5672529932 -0.2777265186
H   0.7243727152  0.0746705350  1.2037044464
H   1.0631278891 -1.2535419211 -1.0178178661
H   2.1579759144 -0.8313226355  0.4197152944
7
Iter 48 Image 5  Energy = -153.8364706724
C   0.9189007784  0.7908108847 -0.1210926192
H   0.5566397225  1.3947211195 -0.9547976010
O   0.8031866231  1.2195159943  1.0407933013
C   1.2762102231 -0.5868346940 -0.1215394403
H   0.7649080728 -0.2608521566  1.0413492328
H   1.0902909983 -1.2196514414 -1.0067996022
H   2.1911049059 -0.8473423364  0.4160245700
7
Iter 48 Image 6  Energy = -153.9003014906
C   0.9193240367  0.8561832195 -0.0900506590
H   0.6072359035  1.3829766811 -1.0025064335
O   0.7990482830  1.3957086945  0.9861645374
C   1.2645404050 -0.5803848591 -0.0241746144
H   0.7412157015 -0.5490043642  0.9686970541
H   1.0059107437 -1.2120547625 -0.8863475953
H   2.2639661182 -0.8030576576  0.3421557303
7
Iter 48 Image 7  Energy = -153.9272162003
C   0.9000143372  0.8873839271 -0.0438764709
H   0.6753499382  1.3457349297 -1.0245500608
O   0.7695115502  1.5311886888  0.9616501730
C   1.2572210414 -0.5648862263  0.0386152355
H   0.7112069826 -0.8337890533  0.9376594917
H   0.9781774689 -1.1469227021 -0.8387025951
H   2.3097598851 -0.7283428292  0.2631419118
7
Iter 48 Image 8  Energy = -153.9292574105
C   0.8698565477  0.9080510740  0.0376081178
H   0.7069511992  1.3335565709 -0.9769391016
O   0.7965958827  1.5948291032  0.9808856521
C   1.2210464491 -0.5634041417  0.0573643442
H   0.6828620326 -1.1049414492  0.8361691560
H   1.0380858258 -1.0231502735 -0.9104882722
H   2.2858437985 -0.6545740587  0.2693390176
7
Iter 48 Image 9  Energy = -153.9312364191
C   0.8546711330  0.8936108933  0.0112306837
H   0.8130931943  1.3317725154 -1.0047342621
O   0.6195332799  1.5767860213  0.9705778876
C   1.2400012025 -0.5590391200  0.0713072233
H   0.7864854560 -1.0555407777  0.9261301891
H   0.9633235886 -1.0688412069 -0.8487957330
H   2.3241337510 -0.6283814916  0.1682227838
7
Iter 48 Image 10  Energy = -153.9315458360
C   0.8240183268  0.8820827944 -0.0106094396
H   0.9156724263  1.3281311412 -1.0192872116
O   0.4020488920  1.5393313765  0.9047010628
C   1.2693468323 -0.5486630004  0.0953850125
H   0.9317405583 -0.9982419462  1.0251895442
H   0.8992763169 -1.1213590056 -0.7545361009
H   2.3591382548 -0.5909145386  0.0530958279
7
Iter 48 Image 11  Energy = -153.9315568446
C   0.7840367852  0.8656586589 -0.0371164025
H   0.9809293880  1.3403901038 -1.0231241499
O   0.1875804579  1.4681235287  0.8223429327
C   1.3100769769 -0.5359012779  0.1153731248
H   1.0639489065 -0.9236344469  1.1059940899
H   0.8779311114 -1.1816924395 -0.6582837811
H   2.3967379442 -0.5425772870 -0.0312469938
7
Iter 49 Image 0  Energy = -153.9146221658
C   0.8260657415  0.5508603911 -0.1261794589
H   0.4554445983  1.2417513435 -0.8784317668
O   0.5680753083  1.0246514429  1.1187434847
C   1.4411098584 -0.5873603774 -0.4363613732
H   0.9099091373  0.3932317500  1.7666320721
H   1.5916834696 -0.8592929697 -1.4741885892
H   1.8089534565 -1.2734747403  0.3237244514
7
Iter 49 Image 1  Energy = -153.9130457273
C   0.8564184976  0.5786930535 -0.1588865307
H   0.4669876489  1.2397799572 -0.9247225885
O   0.7219418648  1.0938673498  1.0933673746
C   1.3996974727 -0.6023858926 -0.4112692630
H   0.8653189694  0.3643517677  1.7052687686
H   1.4235502201 -1.0273341043 -1.4021892689
H   1.8673266685 -1.1566051798  0.3923695093
7
Iter 49 Image 2  Energy = -153.9048343857
C   0.8854306486  0.6164895985 -0.1954475885
H   0.4847554450  1.2718670996 -0.9603307914
O   0.7889262858  1.0965950766  1.0747229143
C   1.3904911025 -0.5851952285 -0.3802875615
H   0.8440634145  0.2687991783  1.5649496108
H   1.2762413160 -1.1730120003 -1.2697479237
H   1.9313329310 -1.0051769378  0.4600789211
7
Iter 49 Image 3  Energy = -153.8850846979
C   0.9176087466  0.6603869943 -0.2080957745
H   0.5248428737  1.3408169051 -0.9474213349
O   0.8109203605  1.0455537786  1.0935351758
C   1.3954834333 -0.5704294094 -0.3420857523
H   0.7426162580  0.1410613338  1.3861611915
H   1.1482440220 -1.2361158912 -1.1351434723
H   2.0615254941 -0.8909067660  0.4469876744
7
Iter 49 Image 4  Energy = -153.8551209274
C   0.9256791193  0.6899994221 -0.2039256899
H   0.5695293345  1.3835355023 -0.9507763136
O   0.7864067906  0.9954647911  1.1177520010
C   1.3755894014 -0.5672257147 -0.2799389560
H   0.7240023108  0.0740533159  1.2087044464
H   1.0620880735 -1.2546464137 -1.0175681394
H   2.1579462623 -0.8308133924  0.4196904152
7
Iter 49 Image 5  Energy = -153.8358178650
C   0.9185666714  0.7903867993 -0.1216218506
H   0.5563102213  1.3951887354 -0.9544202347
O   0.8029424622  1.2186949622  1.0411307161
C   1.2763506072 -0.5869404540 -0.1234424565
H   0.7653459900 -0.2592115518  1.0443384163
H   1.0922625071 -1.2196633470 -1.0087803185
H   2.1894628729 -0.8480877399  0.4167335676
7
Iter 49 Image 6  Energy = -153.8999781158
C   0.9191330585  0.8560196938 -0.0896072881
H   0.6058738124  1.3834818221 -1.0013016430
O   0.7998405389  1.3945408668  0.9872607329
C   1.2645491965 -0.5802901630 -0.0255174133
H   0.7407978962 -0.5482804940  0.9678785434
H   1.0084675319 -1.2115455017 -0.8889569408
H   2.2625791607 -0.8035592474  0.3441820201
7
Iter 49 Image 7  Energy = -153.9271830914
C   0.9000259623  0.8874579389 -0.0440007845
H   0.6746843579  1.3461073000 -1.0243757112
O   0.7710861651  1.5311419330  0.9617200546
C   1.2568949917 -0.5649675468  0.0380728515
H   0.7111156335 -0.8333109172  0.9374735627
H   0.9785147962 -1.1473548114 -0.8393213967
H   2.3089193010 -0.7287071567  0.2643691248
7
Iter 49 Image 8  Energy = -153.9293869942
C   0.8695349187  0.9075827988  0.0375742203
H   0.7089033649  1.3332963155 -0.9769371298
O   0.7937534088  1.5952734539  0.9815846616
C   1.2211435156 -0.5634680932  0.0574520390
H   0.6844509137 -1.1059655869  0.8363271444
H   1.0372175586 -1.0227561840 -0.9103969661
H   2.2862380617 -0.6535958898  0.2683349608
7
Iter 49 Image 9  Energy = -153.9312419286
C   0.8547715677  0.8933831776  0.0108075240
H   0.8132412181  1.3318597182 -1.0048738030
O   0.6188882885  1.5763864111  0.9707632475
C   1.2402521998 -0.5590126778  0.0711631298
H   0.7867377627 -1.0543523801  0.9266528828
H   0.9629551902 -1.0692128193 -0.8486103428
H   2.3243953750 -0.6286845957  0.1680361272
7
Iter 49 Image 10  Energy = -153.9315440727
C   0.8241884609  0.8819758546 -0.0107263288
H   0.9155407502  1.3281499485 -1.0192633324
O   0.4022705478  1.5393119479  0.9050522030
C   1.2693463593 -0.5486733093  0.0952631002
H   0.9314407400 -0.9980438239  1.0250500696
H   0.8993055593 -1.1212958960 -0.7547358002
H   2.3591491889 -0.5910578987  0.0532987811
7
Iter 49 Image 11  Energy = -153.9315568446
C   0.7840367852  0.8656586589 -0.0371164025
H   0.9809293880  1.3403901038 -1.0231241499
O   0.1875804579  1.4681235287  0.8223429327
C   1.3100769769 -0.5359012779  0.1153731248
H   1.0639489065 -0.9236344469  1.1059940899
H   0.8779311114 -1.1816924395 -0.6582837811
H   2.3967379442 -0.5425772870 -0.0312469938
7
Iter 50 Image 0  Energy = -153.9146221658
C   0.8260657415  0.5508603911 -0.1261794589
H   0.4554445983  1.2417513435 -0.8784317668
O   0.5680753083  1.0246514429  1.1187434847
C   1.4411098584 -0.5873603774 -0.4363613732
H   0.9099091373  0.3932317500  1.7666320721
H   1.5916834696 -0.8592929697 -1.4741885892
H   1.8089534565 -1.2734747403  0.3237244514
7
Iter 50 Image 1  Energy = -153.9130608627
C   0.8562267264  0.5786361063 -0.1592090207
H   0.4671163740  1.2393130569 -0.9251055337
O   0.7218446453  1.0941561093  1.0928649908
C   1.4006919382 -0.6025426007 -0.4113147827
H   0.8660796501  0.3659222791  1.7055108411
H   1.4223331384 -1.0283769188 -1.4016989944
H   1.8669488619 -1.1567410852  0.3928905005
7
Iter 50 Image 2  Energy = -153.9047370101
C   0.8846036738  0.6175154026 -0.1956655128
H   0.4853009535  1.2733321641 -0.9597493134
O   0.7898842077  1.0962797138  1.0747714510
C   1.3910730551 -0.5858730112 -0.3801028179
H   0.8419989673  0.2674581670  1.5635379413
H   1.2754591574 -1.1743222928 -1.2684121498
H   1.9329211319 -1.0040233428  0.4595580320
7
Iter 50 Image 3  Energy = -153.8855169982
C   0.9161344089  0.6591229111 -0.2079274227
H   0.5251838198  1.3411161286 -0.9479338685
O   0.8109988620  1.0464859359  1.0930010220
C   1.3956035957 -0.5702126832 -0.3438088460
H   0.7430656049  0.1424206533  1.3899507738
H   1.1502452878 -1.2365244976 -1.1364144220
H   2.0600096072 -0.8920414421  0.4470704346
7
Iter 50 Image 4  Energy = -153.8559276738
C   0.9253914577  0.6901257743 -0.2037096343
H   0.5711968299  1.3844875129 -0.9524237467
O   0.7855894833  0.9985419251  1.1150965846
C   1.3766686039 -0.5664845231 -0.2806657816
H   0.7237616702  0.0699028810  1.2133279457
H   1.0599098388 -1.2567332990 -1.0164407452
H   2.1587234227 -0.8294726342  0.4187531675
7
Iter 50 Image 5  Energy = -153.8347073053
C   0.9176721875  0.7895340745 -0.1219596033
H   0.5553631778  1.3962999136 -0.9533509923
O   0.8027806857  1.2170267838  1.0421841256
C   1.2759231442 -0.5871632556 -0.1264091114
H   0.7665711705 -0.2561160638  1.0478389605
H   1.0966902135 -1.2195478963 -1.0130373448
H   2.1862407613 -0.8496660982  0.4186717932
7
Iter 50 Image 6  Energy = -153.8994567298
C   0.9184282904  0.8560255257 -0.0885245279
H   0.6033036735  1.3843031709 -0.9989187445
O   0.8016094198  1.3926285492  0.9896504825
C   1.2649774665 -0.5801873952 -0.0282962113
H   0.7396716198 -0.5475718127  0.9656997360
H   1.0133794766 -1.2105230149 -0.8939569408
H   2.2598712561 -0.8043080002  0.3482841970
7
Iter 50 Image 7  Energy = -153.9270911546
C   0.8998222779  0.8871917103 -0.0446759453
H   0.6734799230  1.3469274061 -1.0241123525
O   0.7742848229  1.5311507689  0.9620003314
C   1.2560392265 -0.5650497272  0.0368284503
H   0.7115368297 -0.8315677031  0.9373329260
H   0.9789799467 -1.1485860868 -0.8404966783
H   2.3070981913 -0.7296996247  0.2670610011
7
Iter 50 Image 8  Energy = -153.9297222226
C   0.8688796015  0.9064109087  0.0371120543
H   0.7123076963  1.3326543965 -0.9765981328
O   0.7890824267  1.5967584702  0.9833901633
C   1.2213380355 -0.5634230388  0.0575866853
H   0.6870737011 -1.1083208070  0.8361936456
H   1.0356449648 -1.0219600486 -0.9106015094
H   2.2869153275 -0.6517530810  0.2668560567
7
Iter 50 Image 9  Energy = -153.9312527729
C   0.8547283938  0.8933432893  0.0107626280
H   0.8136495834  1.3319896152 -1.0051429732
O   0.6176737447  1.5751895624  0.9705615940
C   1.2407554746 -0.5590036539  0.0708291193
H   0.7873174258 -1.0520618443  0.9276115903
H   0.9621757978 -1.0698794836 -0.8483806907
H   2.3249411760 -0.6292106477  0.1676974845
7
Iter 50 Image 10  Energy = -153.9315495740
C   0.8243141528  0.8822025627 -0.0102647775
H   0.9151430085  1.3281707965 -1.0192214224
O   0.4032747478  1.5388707930  0.9052762037
C   1.2693123267 -0.5487388308  0.0949713514
H   0.9306460034 -0.9976273022  1.0245787015
H   0.8994394018 -1.1211169493 -0.7552707540
H   2.3591119616 -0.5913942414  0.0538693866
7
Iter 50 Image 11  Energy = -153.9315568446
C   0.7840367852  0.8656586589 -0.0371164025
H   0.9809293880  1.3403901038 -1.0231241499
O   0.1875804579  1.4681235287  0.8223429327
C   1.3100769769 -0.5359012779  0.1153731248
H   1.0639489065 -0.9236344469  1.1059940899
H   0.8779311114 -1.1816924395 -0.6582837811
H   2.3967379442 -0.5425772870 -0.0312469938
7
Iter 51 Image 0  Energy = -153.9146221658
C   0.8260657415  0.5508603911 -0.1261794589
H   0.4554445983  1.2417513435 -0.8784317668
O   0.5680753083  1.0246514429  1.1187434847
C   1.4411098584 -0.5873603774 -0.4363613732
H   0.9099091373  0.3932317500  1.7666320721
H   1.5916834696 -0.8592929697 -1.4741885892
H   1.8089534565 -1.2734747403  0.3237244514
7
Iter 51 Image 1  Energy = -153.9130631757
C   0.8563096938  0.5784299983 -0.1594315016
H   0.4671727168  1.2390498715 -0.9254688928
O   0.7218051774  1.0945254056  1.0924056705
C   1.4011444419 -0.6024706505 -0.4112390657
H   0.8666164664  0.3668605780  1.7056097179
H   1.4213809547 -1.0293013214 -1.4012709684
H   1.8668118788 -1.1567269378  0.3933330351
7
Iter 51 Image 2  Energy = -153.9046835352
C   0.8844334431  0.6173463509 -0.1957137309
H   0.4854697459  1.2742476136 -0.9595493683
O   0.7904149598  1.0962401577  1.0748197095
C   1.3910603689 -0.5856771410 -0.3802203616
H   0.8408532121  0.2669440184  1.5631961725
H   1.2753324460 -1.1751563243 -1.2680130526
H   1.9336769739 -1.0035778604  0.4594182886
7
Iter 51 Image 3  Energy = -153.8857983212
C   0.9152461786  0.6588627800 -0.2079639250
H   0.5256084421  1.3411651728 -0.9483051411
O   0.8108012196  1.0474331202  1.0923496179
C   1.3961303980 -0.5702927632 -0.3446034633
H   0.7433752687  0.1427613743  1.3928780749
H   1.1511203751 -1.2370555803 -1.1372677080
H   2.0589593065 -0.8925070472  0.4468501984
7
Iter 51 Image 4  Energy = -153.8567942335
C   0.9253807779  0.6899984136 -0.2040407097
H   0.5713658785  1.3846194140 -0.9534655185
O   0.7856436610  1.0014330177  1.1129353492
C   1.3764863794 -0.5661337737 -0.2820925676
H   0.7242106538  0.0676139783  1.2183279457
H   1.0599304545 -1.2576781658 -1.0170290398
H   2.1582235128 -0.8294851579  0.4193023425
7
Iter 51 Image 5  Energy = -153.8339382650
C   0.9170972479  0.7889881709 -0.1227463668
H   0.5550344025  1.3969948643 -0.9529181440
O   0.8023137158  1.2163024745  1.0426910969
C   1.2758289396 -0.5874567406 -0.1287058401
H   0.7673874643 -0.2540885243  1.0518831416
H   1.0994969300 -1.2196063517 -1.0157943950
H   2.1840826500 -0.8507663802  0.4195283326
7
Iter 51 Image 6  Energy = -153.8989949521
C   0.9180885579  0.8558042325 -0.0878877429
H   0.6014037397  1.3850508739 -0.9971921524
O   0.8027329866  1.3909897206  0.9912822334
C   1.2650254946 -0.5800676361 -0.0302307337
H   0.7390380158 -0.5466104319  0.9644975622
H   1.0170873308 -1.2098026958 -0.8977186582
H   2.2578650834 -0.8049970053  0.3511874673
7
Iter 51 Image 7  Energy = -153.9270359854
C   0.8998472068  0.8872822250 -0.0449159058
H   0.6725353003  1.3474475583 -1.0239286398
O   0.7764745384  1.5311092374  0.9620517262
C   1.2556133528 -0.5651507307  0.0360563794
H   0.7114391446 -0.8306922576  0.9371400004
H   0.9793760808 -1.1493556354 -0.8412601927
H   2.3059556019 -0.7302736482  0.2687943872
7
Iter 51 Image 8  Energy = -153.9299798733
C   0.8687119016  0.9054237031  0.0362759954
H   0.7143386536  1.3323535867 -0.9768284942
O   0.7856669032  1.5973635943  0.9848993690
C   1.2217366500 -0.5635216112  0.0575023615
H   0.6888496822 -1.1083255481  0.8366092660
H   1.0343824614 -1.0219706968 -0.9103708819
H   2.2875555072 -0.6509562384  0.2658513646
7
Iter 51 Image 9  Energy = -153.9312588442
C   0.8548557107  0.8928940745  0.0099847082
H   0.8140797043  1.3321043977 -1.0053557265
O   0.6163879020  1.5746874003  0.9709329826
C   1.2411525851 -0.5589462449  0.0706526283
H   0.7878890586 -1.0502954031  0.9284925910
H   0.9614905501 -1.0704871607 -0.8480169350
H   2.3253860792 -0.6295902256  0.1672484941
7
Iter 51 Image 10  Energy = -153.9315458070
C   0.8246080241  0.8819646364 -0.0105573391
H   0.9149824192  1.3281997432 -1.0191839247
O   0.4034889497  1.5388897034  0.9058881381
C   1.2693197232 -0.5487466706  0.0948027621
H   0.9302469875 -0.9972949062  1.0243940714
H   0.8994585558 -1.1210455460 -0.7555361051
H   2.3591369416 -0.5916001313  0.0541310818
7
Iter 51 Image 11  Energy = -153.9315568446
C   0.7840367852  0.8656586589 -0.0371164025
H   0.9809293880  1.3403901038 -1.0231241499
O   0.1875804579  1.4681235287  0.8223429327
C   1.3100769769 -0.5359012779  0.1153731248
H   1.0639489065 -0.9236344469  1.1059940899
H   0.8779311114 -1.1816924395 -0.6582837811
H   2.3967379442 -0.5425772870 -0.0312469938
7
Iter 52 Image 0  Energy = -153.9146221658
C   0.8260657415  0.5508603911 -0.1261794589
H   0.4554445983  1.2417513435 -0.8784317668
O   0.5680753083  1.0246514429  1.1187434847
C   1.4411098584 -0.5873603774 -0.4363613732
H   0.9099091373  0.3932317500  1.7666320721
H   1.5916834696 -0.8592929697 -1.4741885892
H   1.8089534565 -1.2734747403  0.3237244514
7
Iter 52 Image 1  Energy = -153.9130728350
C   0.8562176000  0.5783074810 -0.1597353189
H   0.4672799677  1.2386345475 -0.9258726134
O   0.7217274990  1.0948690652  1.0918936274
C   1.4019699367 -0.6025526303 -0.4112385758
H   0.8673370870  0.3682939272  1.7058133701
H   1.4202006349 -1.0303669942 -1.4007783396
H   1.8665085970 -1.1568184597  0.3938558437
7
Iter 52 Image 2  Energy = -153.9045998591
C   0.8838264300  0.6178894902 -0.1958557421
H   0.4858688251  1.2755499406 -0.9591120167
O   0.7912298274  1.0960484517  1.0748864649
C   1.3914091452 -0.5860321365 -0.3801579886
H   0.8391098208  0.2659594786  1.5622508464
H   1.2748540461 -1.1763223685 -1.2670972333
H   1.9349430581 -1.0027260261  0.4590233667
7
Iter 52 Image 3  Energy = -153.8861844220
C   0.9139407725  0.6580488323 -0.2077905374
H   0.5259918069  1.3412963797 -0.9488563752
O   0.8107268095  1.0485420130  1.0917515155
C   1.3963303835 -0.5702363209 -0.3459875731
H   0.7439052616  0.1436705278  1.3965512337
H   1.1528224598 -1.2374746249 -1.1385383986
H   2.0575236940 -0.8934796921  0.4468077633
7
Iter 52 Image 4  Energy = -153.8575202092
C   0.9250374812  0.6902915488 -0.2034174543
H   0.5719203412  1.3851486553 -0.9547710831
O   0.7856133886  1.0058179050  1.1101845742
C   1.3758766405 -0.5654248564 -0.2819574719
H   0.7249685959  0.0626139783  1.2220246752
H   1.0598626694 -1.2587915271 -1.0174945887
H   2.1579622132 -0.8292878754  0.4193691665
7
Iter 52 Image 5  Energy = -153.8330618021
C   0.9162384917  0.7882992272 -0.1231994004
H   0.5544317381  1.3979753919 -0.9521832627
O   0.8019493253  1.2152273323  1.0434814129
C   1.2753189012 -0.5877809997 -0.1311951936
H   0.7686091949 -0.2515817368  1.0555502373
H   1.1033629962 -1.2195672911 -1.0194534031
H   2.1813307113 -0.8522043566  0.4209374248
7
Iter 52 Image 6  Energy = -153.8984805093
C   0.9174707559  0.8557444483 -0.0868995018
H   0.5990586848  1.3858887243 -0.9950045321
O   0.8042859626  1.3891296126  0.9934227350
C   1.2653237460 -0.5799630945 -0.0327591819
H   0.7380625952 -0.5458284461  0.9626366976
H   1.0216987751 -1.2088742707 -0.9023824074
H   2.2553406974 -0.8057298704  0.3549241464
7
Iter 52 Image 7  Energy = -153.9269487005
C   0.8997424891  0.8871602007 -0.0454599652
H   0.6714067306  1.3481563368 -1.0237365967
O   0.7793021686  1.5311107292  0.9622004345
C   1.2549454318 -0.5652346029  0.0349775017
H   0.7116705971 -0.8291397080  0.9370215591
H   0.9797684648 -1.1505330868 -0.8422121621
H   2.3044053520 -0.7311531159  0.2711470086
7
Iter 52 Image 8  Energy = -153.9302791562
C   0.8684272602  0.9041037110  0.0351421627
H   0.7167292615  1.3318898577 -0.9768855187
O   0.7818748772  1.5984833325  0.9869578727
C   1.2221948527 -0.5635476068  0.0573973774
H   0.6908434472 -1.1087683223  0.8368262447
H   1.0328887051 -1.0218811772 -0.9103336143
H   2.2882833630 -0.6499130162  0.2648344795
7
Iter 52 Image 9  Energy = -153.9312672007
C   0.8548323372  0.8927021649  0.0096735713
H   0.8146688683  1.3322278134 -1.0056296406
O   0.6148790170  1.5736924373  0.9708948287
C   1.2416536786 -0.5589132956  0.0703885361
H   0.7886349002 -1.0481118599  0.9295417842
H   0.9606164676 -1.0712011929 -0.8476517183
H   2.3259563159 -0.6300292271  0.1667213687
7
Iter 52 Image 10  Energy = -153.9315484207
C   0.8247833582  0.8820318424 -0.0103538166
H   0.9146961038  1.3282292612 -1.0191506191
O   0.4041682053  1.5385764775  0.9062383080
C   1.2693113809 -0.5487934822  0.0945530615
H   0.9296178528 -0.9968640502  1.0240421783
H   0.8995322335 -1.1209213872 -0.7559565097
H   2.3591324640 -0.5918918284  0.0545660775
7
Iter 52 Image 11  Energy = -153.9315568446
C   0.7840367852  0.8656586589 -0.0371164025
H   0.9809293880  1.3403901038 -1.0231241499
O   0.1875804579  1.4681235287  0.8223429327
C   1.3100769769 -0.5359012779  0.1153731248
H   1.0639489065 -0.9236344469  1.1059940899
H   0.8779311114 -1.1816924395 -0.6582837811
H   2.3967379442 -0.5425772870 -0.0312469938
7
Iter 53 Image 0  Energy = -153.9146221658
C   0.8260657415  0.5508603911 -0.1261794589
H   0.4554445983  1.2417513435 -0.8784317668
O   0.5680753083  1.0246514429  1.1187434847
C   1.4411098584 -0.5873603774 -0.4363613732
H   0.9099091373  0.3932317500  1.7666320721
H   1.5916834696 -0.8592929697 -1.4741885892
H   1.8089534565 -1.2734747403  0.3237244514
7
Iter 53 Image 1  Energy = -153.9130792699
C   0.8561748315  0.5781750721 -0.1600024885
H   0.4673682658  1.2382819502 -0.9262449580
O   0.7216671114  1.0951988048  1.0914308491
C   1.4026444107 -0.6025995713 -0.4112190632
H   0.8679685635  0.3695288214  1.7059767842
H   1.4191506614 -1.0313383060 -1.4003310461
H   1.8662674719 -1.1568798387  0.3943279151
7
Iter 53 Image 2  Energy = -153.9045332158
C   0.8833525485  0.6182157596 -0.1959486808
H   0.4861669679  1.2766475937 -0.9587749511
O   0.7919051294  1.0959240087  1.0749540567
C   1.3916419672 -0.5862575226 -0.3801566498
H   0.8376784190  0.2652307401  1.5616002476
H   1.2745572721 -1.1773066273 -1.2664528897
H   1.9359388516 -1.0020871074  0.4587165972
7
Iter 53 Image 3  Energy = -153.8865133825
C   0.9128501154  0.6574834063 -0.2076206618
H   0.5263487747  1.3413442010 -0.9493766024
O   0.8105960962  1.0496555798  1.0911723618
C   1.3965354885 -0.5702289689 -0.3470926892
H   0.7444177368  0.1442629659  1.3998384297
H   1.1542351187 -1.2378583945 -1.1397034648
H   2.0562578582 -0.8942916233  0.4467202343
7
Iter 53 Image 4  Energy = -153.8580600284
C   0.9247063052  0.6906476418 -0.2026129420
H   0.5719068410  1.3854570810 -0.9557956313
O   0.7859418781  1.0104227714  1.1076350436
C   1.3745247180 -0.5647798123 -0.2813857587
H   0.7261129072  0.0576139783  1.2249025295
H   1.0607893854 -1.2593455843 -1.0186890254
H   2.1572593048 -0.8296481674  0.4198836117
7
Iter 53 Image 5  Energy = -153.8323704973
C   0.9154795666  0.7877445308 -0.1236823923
H   0.5540391770  1.3987991823 -0.9516614229
O   0.8015337055  1.2145328042  1.0441103942
C   1.2748292363 -0.5881185791 -0.1332401653
H   0.7697050914 -0.2495926649  1.0589280743
H   1.1066067778 -1.2195598728 -1.0224953216
H   2.1790478126 -0.8534377848  0.4219786403
7
Iter 53 Image 6  Energy = -153.8980212795
C   0.9169493684  0.8556630934 -0.0860584685
H   0.5970422750  1.3866490094 -0.9931142033
O   0.8055948014  1.3874828140  0.9952542552
C   1.2655423007 -0.5798690989 -0.0349311643
H   0.7372463898 -0.5451020158  0.9610915087
H   1.0257271058 -1.2080745004 -0.9064387881
H   2.2531389828 -0.8063821575  0.3581347970
7
Iter 53 Image 7  Energy = -153.9268729461
C   0.8996920235  0.8871056598 -0.0459024254
H   0.6704247367  1.3487459142 -1.0235946628
O   0.7816869905  1.5311196970  0.9622864470
C   1.2544234946 -0.5653085164  0.0340789297
H   0.7117977001 -0.8278309615  0.9369233913
H   0.9800893549 -1.1515698942 -0.8429726871
H   2.3031269410 -0.7318951417  0.2731188089
7
Iter 53 Image 8  Energy = -153.9305206128
C   0.8683295839  0.9028119892  0.0337806543
H   0.7184387137  1.3315485652 -0.9771077915
O   0.7788520478  1.5993772900  0.9889790033
C   1.2227191473 -0.5636047512  0.0572006886
H   0.6923625943 -1.1083491824  0.8371641194
H   1.0315816147 -1.0220999755 -0.9102011810
H   2.2889580703 -0.6493171656  0.2641235298
7
Iter 53 Image 9  Energy = -153.9312725190
C   0.8548282050  0.8924350854  0.0092384119
H   0.8152829931  1.3323345565 -1.0058767011
O   0.6133763011  1.5729114661  0.9709709024
C   1.2421044299 -0.5588713534  0.0701829357
H   0.7893825604 -1.0461954255  0.9305256652
H   0.9597853277 -1.0718635663 -0.8472653404
H   2.3264817624 -0.6303839202  0.1661628454
7
Iter 53 Image 10  Energy = -153.9315487504
C   0.8249758341  0.8820044210 -0.0103097929
H   0.9144839797  1.3282591619 -1.0191228001
O   0.4046327077  1.5383689273  0.9066364336
C   1.2693138780 -0.5488268900  0.0943471411
H   0.9291195854 -0.9964713960  1.0237739367
H   0.8995739169 -1.1208316709 -0.7562881177
H   2.3591416943 -0.5921357182  0.0549018748
7
Iter 53 Image 11  Energy = -153.9315568446
C   0.7840367852  0.8656586589 -0.0371164025
H   0.9809293880  1.3403901038 -1.0231241499
O   0.1875804579  1.4681235287  0.8223429327
C   1.3100769769 -0.5359012779  0.1153731248
H   1.0639489065 -0.9236344469  1.1059940899
H   0.8779311114 -1.1816924395 -0.6582837811
H   2.3967379442 -0.5425772870 -0.0312469938
7
Iter 54 Image 0  Energy = -153.9146221658
C   0.8260657415  0.5508603911 -0.1261794589
H   0.4554445983  1.2417513435 -0.8784317668
O   0.5680753083  1.0246514429  1.1187434847
C   1.4411098584 -0.5873603774 -0.4363613732
H   0.9099091373  0.3932317500  1.7666320721
H   1.5916834696 -0.8592929697 -1.4741885892
H   1.8089534565 -1.2734747403  0.3237244514
7
Iter 54 Image 1  Energy = -153.9130850373
C   0.8561209917  0.5780665594 -0.1602432966
H   0.4674497172  1.2379610391 -0.9265733111
O   0.7216118572  1.0954824754  1.0910275965
C   1.4032614713 -0.6026566729 -0.4112096240
H   0.8685347560  0.3706558384  1.7061294275
H   1.4182200938 -1.0321959284 -1.3999383584
H   1.8660424233 -1.1569463826  0.3947455578
7
Iter 54 Image 2  Energy = -153.9044727889
C   0.8828972426  0.6185552862 -0.1960324885
H   0.4864391532  1.2776263415 -0.9584660354
O   0.7925094967  1.0958101652  1.0750201588
C   1.3918736915 -0.5865103782 -0.3801384810
H   0.8364039085  0.2645874484  1.5610140566
H   1.2742938458 -1.1781814081 -1.2658842421
H   1.9368238190 -1.0015205984  0.4584247914
7
Iter 54 Image 3  Energy = -153.8868029385
C   0.9118776618  0.6569689000 -0.2074251118
H   0.5266470429  1.3413671768 -0.9498690905
O   0.8104801298  1.0506794048  1.0906839893
C   1.3966441010 -0.5702188685 -0.3480944174
H   0.7449187685  0.1447877831  1.4027683956
H   1.1555560661 -1.2381567666 -1.1407900097
H   2.0551174195 -0.8950604195  0.4466638371
7
Iter 54 Image 4  Energy = -153.8583361409
C   0.9243368414  0.6910841701 -0.2016120803
H   0.5717205579  1.3857331606 -0.9566356734
O   0.7863808336  1.0148908937  1.1053511003
C   1.3728623180 -0.5641630725 -0.2803313514
H   0.7273851632  0.0526139783  1.2267728604
H   1.0620707492 -1.2596102073 -1.0200563641
H   2.1564848832 -0.8301809490  0.4204493437
7
Iter 54 Image 5  Energy = -153.8318131812
C   0.9147803184  0.7872803482 -0.1240465679
H   0.5537188071  1.3995313196 -0.9512219452
O   0.8011625116  1.2140132507  1.0446609077
C   1.2742992271 -0.5884354427 -0.1348974738
H   0.7707229332 -0.2479473087  1.0617238111
H   1.1094695708 -1.2195460604 -1.0251514845
H   2.1770880074 -0.8545284496  0.4228705516
7
Iter 54 Image 6  Energy = -153.8976238955
C   0.9164636381  0.8556158086 -0.0852972669
H   0.5952887722  1.3873141755 -0.9914549801
O   0.8067511219  1.3860596613  0.9968703664
C   1.2657595189 -0.5797922717 -0.0368461814
H   0.7365104851 -0.5445210755  0.9597055457
H   1.0292682618 -1.2073708822 -0.9099942459
H   2.2511994319 -0.8069382352  0.3609546811
7
Iter 54 Image 7  Energy = -153.9268026974
C   0.8996416967  0.8870407178 -0.0463173061
H   0.6695710213  1.3492618027 -1.0234883979
O   0.7837627466  1.5311380373  0.9623537649
C   1.2539681604 -0.5653662124  0.0332876170
H   0.7119384768 -0.8266158397  0.9368611333
H   0.9803438922 -1.1525257010 -0.8436085394
H   2.3020152533 -0.7325660442  0.2748495474
7
Iter 54 Image 8  Energy = -153.9306963970
C   0.8682985188  0.9015977023  0.0323986431
H   0.7197398928  1.3312614772 -0.9773427890
O   0.7764146676  1.6001897241  0.9908918696
C   1.2232316310 -0.5636523046  0.0569780818
H   0.6935530042 -1.1076882987  0.8374752789
H   1.0304463965 -1.0224113074 -0.9100860757
H   2.2895576651 -0.6489302311  0.2636240303
7
Iter 54 Image 9  Energy = -153.9312766469
C   0.8547995782  0.8922184447  0.0088954906
H   0.8158795783  1.3324241706 -1.0060984359
O   0.6119842921  1.5722004164  0.9710004910
C   1.2425081071 -0.5588348653  0.0700062058
H   0.7900915362 -1.0445086323  0.9314133356
H   0.9590187750 -1.0724564006 -0.8469099972
H   2.3269597088 -0.6306762894  0.1656316197
7
Iter 54 Image 10  Energy = -153.9315494546
C   0.8251316190  0.8820020265 -0.0102367743
H   0.9142997591  1.3282859870 -1.0191005716
O   0.4050526175  1.5381595909  0.9069598283
C   1.2693172874 -0.5488587668  0.0941650630
H   0.9286819322 -0.9961153797  1.0235343808
H   0.8996087972 -1.1207552816 -0.7565791428
H   2.3591495824 -0.5923513392  0.0551958880
7
Iter 54 Image 11  Energy = -153.9315568446
C   0.7840367852  0.8656586589 -0.0371164025
H   0.9809293880  1.3403901038 -1.0231241499
O   0.1875804579  1.4681235287  0.8223429327
C   1.3100769769 -0.5359012779  0.1153731248
H   1.0639489065 -0.9236344469  1.1059940899
H   0.8779311114 -1.1816924395 -0.6582837811
H   2.3967379442 -0.5425772870 -0.0312469938
7
Iter 55 Image 0  Energy = -153.9146221658
C   0.8260657415  0.5508603911 -0.1261794589
H   0.4554445983  1.2417513435 -0.8784317668
O   0.5680753083  1.0246514429  1.1187434847
C   1.4411098584 -0.5873603774 -0.4363613732
H   0.9099091373  0.3932317500  1.7666320721
H   1.5916834696 -0.8592929697 -1.4741885892
H   1.8089534565 -1.2734747403  0.3237244514
7
Iter 55 Image 1  Energy = -153.9130894226
C   0.8560855790  0.5779619625 -0.1604705337
H   0.4675242935  1.2376628946 -0.9268909703
O   0.7215646054  1.0957625215  1.0906411543
C   1.4038204279 -0.6027079412 -0.4111919620
H   0.8690676874  0.3717081579  1.7062645625
H   1.4173359457 -1.0330223863 -1.3995588402
H   1.8658427663 -1.1569982838  0.3951445816
7
Iter 55 Image 2  Energy = -153.9044209677
C   0.8824836018  0.6188287862 -0.1960948952
H   0.4866694938  1.2785161935 -0.9581948569
O   0.7930584291  1.0957228915  1.0750857767
C   1.3920667618 -0.5867363872 -0.3801534178
H   0.8352586252  0.2640599408  1.5605628880
H   1.2741160159 -1.1789789589 -1.2654346327
H   1.9375882316 -1.0010455973  0.4581669239
7
Iter 55 Image 3  Energy = -153.8870680843
C   0.9109982505  0.6565493385 -0.2072281744
H   0.5269309698  1.3413517107 -0.9503559609
O   0.8103375548  1.0517103513  1.0902006752
C   1.3967429083 -0.5702185967 -0.3489818845
H   0.7454261009  0.1451844505  1.4055604032
H   1.1567711217 -1.2384386110 -1.1418518240
H   2.0540342850 -0.8957713907  0.4465943456
7
Iter 55 Image 4  Energy = -153.8584575006
C   0.9239514735  0.6915661095 -0.2005380968
H   0.5712710683  1.3859201953 -0.9573328397
O   0.7869810146  1.0194802430  1.1031940936
C   1.3708567834 -0.5636188830 -0.2790905462
H   0.7288471200  0.0476139783  1.2282770516
H   1.0638553663 -1.2596125943 -1.0218006926
H   2.1554785260 -0.8309810192  0.4212288712
7
Iter 55 Image 5  Energy = -153.8313317953
C   0.9141163277  0.7868716605 -0.1244092433
H   0.5534857942  1.4002005965 -0.9508774663
O   0.8007674514  1.2136563371  1.0451274580
C   1.2737658703 -0.5887591351 -0.1363734407
H   0.7717004844 -0.2465198395  1.0644271960
H   1.1120968054 -1.2195374358 -1.0275642714
H   2.1753086498 -0.8555444878  0.4236075579
7
Iter 55 Image 6  Energy = -153.8972458853
C   0.9160155861  0.8555592986 -0.0845939312
H   0.5936613168  1.3879536198 -0.9899085094
O   0.8078100481  1.3847156574  0.9983642135
C   1.2659402333 -0.5797226946 -0.0386224254
H   0.7358410160 -0.5439570236  0.9584486651
H   1.0325952164 -1.2067141689 -0.9133211856
H   2.2493778184 -0.8074674739  0.3635710752
7
Iter 55 Image 7  Energy = -153.9267366275
C   0.8996184027  0.8870008538 -0.0466988334
H   0.6687681612  1.3497317285 -1.0233998012
O   0.7856666830  1.5311596473  0.9624026408
C   1.2535721927 -0.5654207436  0.0325670375
H   0.7120308556 -0.8254922510  0.9368036517
H   0.9805750938 -1.1534280056 -0.8441709696
H   2.3010098636 -0.7331844660  0.2764341098
7
Iter 55 Image 8  Energy = -153.9308194367
C   0.8683399380  0.9004228023  0.0309622235
H   0.7207543882  1.3310271244 -0.9776533944
O   0.7743031478  1.6008772100  0.9927583429
C   1.2237753746 -0.5637148967  0.0567119745
H   0.6945430236 -1.1066581517  0.8378376725
H   1.0293878644 -1.0228547719 -0.9099327443
H   2.2901380419 -0.6487325614  0.2632549779
7
Iter 55 Image 9  Energy = -153.9312793258
C   0.8547695459  0.8919912350  0.0085322124
H   0.8164992183  1.3325083465 -1.0063140781
O   0.6105799568  1.5715526724  0.9710457384
C   1.2428943048 -0.5587965006  0.0698527227
H   0.7908140665 -1.0429227370  0.9322840158
H   0.9582605136 -1.0730338238 -0.8465377331
H   2.3274239656 -0.6309323465  0.1650758228
7
Iter 55 Image 10  Energy = -153.9315495428
C   0.8252816679  0.8819782949 -0.0102028908
H   0.9141494668  1.3283143871 -1.0190834572
O   0.4053893847  1.5379742027  0.9072785744
C   1.2693270480 -0.5488871375  0.0939998429
H   0.9283008098 -0.9957707678  1.0233316796
H   0.8996288204 -1.1206947471 -0.7568311844
H   2.3591643953 -0.5925473935  0.0554461027
7
Iter 55 Image 11  Energy = -153.9315568446
C   0.7840367852  0.8656586589 -0.0371164025
H   0.9809293880  1.3403901038 -1.0231241499
O   0.1875804579  1.4681235287  0.8223429327
C   1.3100769769 -0.5359012779  0.1153731248
H   1.0639489065 -0.9236344469  1.1059940899
H   0.8779311114 -1.1816924395 -0.6582837811
H   2.3967379442 -0.5425772870 -0.0312469938
7
Iter 56 Image 0  Energy = -153.9146221658
C   0.8260657415  0.5508603911 -0.1261794589
H   0.4554445983  1.2417513435 -0.8784317668
O   0.5680753083  1.0246514429  1.1187434847
C   1.4411098584 -0.5873603774 -0.4363613732
H   0.9099091373  0.3932317500  1.7666320721
H   1.5916834696 -0.8592929697 -1.4741885892
H   1.8089534565 -1.2734747403  0.3237244514
7
Iter 56 Image 1  Energy = -153.9130932334
C   0.8560530568  0.5778663416 -0.1606874585
H   0.4675951389  1.2373785865 -0.9271951130
O   0.7215212603  1.0960310383  1.0902736576
C   1.4043472527 -0.6027623211 -0.4111739238
H   0.8695752576  0.3727130287  1.7063917500
H   1.4164943891 -1.0338130216 -1.3991957043
H   1.8656549451 -1.1570467306  0.3955247844
7
Iter 56 Image 2  Energy = -153.9043736282
C   0.8820851731  0.6190886166 -0.1961488467
H   0.4868796514  1.2793461607 -0.9579412264
O   0.7935724557  1.0956464252  1.0751508079
C   1.3922487524 -0.5869661311 -0.3801764400
H   0.8341941878  0.2635951456  1.5601762023
H   1.2739781439 -1.1797236226 -1.2650453286
H   1.9382827968 -1.0006197141  0.4579226422
7
Iter 56 Image 3  Energy = -153.8873136346
C   0.9101792580  0.6561709027 -0.2070242464
H   0.5271933827  1.3413169050 -0.9508356676
O   0.8101893178  1.0527143813  1.0897467848
C   1.3968043101 -0.5702188054 -0.3498064584
H   0.7459404279  0.1455309317  1.4082153119
H   1.1579377790 -1.2386895828 -1.1428912327
H   2.0529967172 -0.8964574402  0.4465330775
7
Iter 56 Image 4  Energy = -153.8584152209
C   0.9235381200  0.6920897266 -0.1993983416
H   0.5706882100  1.3860719930 -0.9579245300
O   0.7876615181  1.0240927786  1.1011737109
C   1.3686625891 -0.5631346284 -0.2776737575
H   0.7304095571  0.0426139783  1.2294079322
H   1.0659277635 -1.2594435743 -1.0237392642
H   2.1543536000 -0.8319221942  0.4220920948
7
Iter 56 Image 5  Energy = -153.8309091189
C   0.9134749803  0.7865037887 -0.1247319763
H   0.5532985685  1.4008264436 -0.9505873503
O   0.8003763083  1.2133973310  1.0455380171
C   1.2732135311 -0.5890795850 -0.1376907293
H   0.7726520333 -0.2452517524  1.0669604154
H   1.1145642249 -1.2195226833 -1.0298067311
H   2.1736617445 -0.8565058101  0.4242561384
7
Iter 56 Image 6  Energy = -153.8968881541
C   0.9155876458  0.8555077575 -0.0839288579
H   0.5921368964  1.3885633712 -0.9884526863
O   0.8088001601  1.3834513091  0.9997667483
C   1.2661070126 -0.5796611901 -0.0402922377
H   0.7352141195 -0.5434333484  0.9572737904
H   1.0357421201 -1.2060937534 -0.9164574847
H   2.2476532850 -0.8079668972  0.3660286138
7
Iter 56 Image 7  Energy = -153.9266727660
C   0.8996056398  0.8869655142 -0.0470649913
H   0.6680084434  1.3501705326 -1.0233236239
O   0.7874436759  1.5311816063  0.9624432292
C   1.2532110278 -0.5654709557  0.0318936519
H   0.7121091895 -0.8244144695  0.9367544969
H   0.9807865924 -1.1542945030 -0.8446825686
H   2.3000766890 -0.7337709583  0.2779176565
7
Iter 56 Image 8  Energy = -153.9308931683
C   0.8684168477  0.8992894247  0.0295189237
H   0.7215764981  1.3308234002 -0.9779910428
O   0.7724452392  1.6014971232  0.9945729564
C   1.2243255969 -0.5637787571  0.0564249286
H   0.6953852471 -1.1054585132  0.8382074717
H   1.0283985795 -1.0233605511 -0.9097747521
H   2.2906937722 -0.6486453776  0.2629805790
7
Iter 56 Image 9  Energy = -153.9312812550
C   0.8547298548  0.8917807641  0.0081967674
H   0.8171247690  1.3325870350 -1.0065222011
O   0.6091970110  1.5709341118  0.9710730621
C   1.2432637497 -0.5587595528  0.0697135537
H   0.7915343108 -1.0414247274  0.9331268539
H   0.9575191192 -1.0735898298 -0.8461657762
H   2.3278727531 -0.6311609527  0.1645164325
7
Iter 56 Image 10  Energy = -153.9315497634
C   0.8254164299  0.8819596600 -0.0101659887
H   0.9140188397  1.3283429705 -1.0190700533
O   0.4056885668  1.5377892476  0.9075685910
C   1.2693398004 -0.5489143489  0.0938458266
H   0.9279547838 -0.9954372989  1.0231493944
H   0.8996414329 -1.1206434951 -0.7570591261
H   2.3591817375 -0.5927298952  0.0556700197
7
Iter 56 Image 11  Energy = -153.9315568446
C   0.7840367852  0.8656586589 -0.0371164025
H   0.9809293880  1.3403901038 -1.0231241499
O   0.1875804579  1.4681235287  0.8223429327
C   1.3100769769 -0.5359012779  0.1153731248
H   1.0639489065 -0.9236344469  1.1059940899
H   0.8779311114 -1.1816924395 -0.6582837811
H   2.3967379442 -0.5425772870 -0.0312469938
7
Iter 57 Image 0  Energy = -153.9146221658
C   0.8260657415  0.5508603911 -0.1261794589
H   0.4554445983  1.2417513435 -0.8784317668
O   0.5680753083  1.0246514429  1.1187434847
C   1.4411098584 -0.5873603774 -0.4363613732
H   0.9099091373  0.3932317500  1.7666320721
H   1.5916834696 -0.8592929697 -1.4741885892
H   1.8089534565 -1.2734747403  0.3237244514
7
Iter 57 Image 1  Energy = -153.9130961801
C   0.8560323475  0.5777748551 -0.1608974399
H   0.4676620607  1.2371060020 -0.9274949400
O   0.7214829622  1.0962999831  1.0899134329
C   1.4048398989 -0.6028158104 -0.4111499877
H   0.8700656966  0.3736780763  1.7065083371
H   1.4156758718 -1.0345906659 -1.3988372138
H   1.8654824580 -1.1570855211  0.3958958038
7
Iter 57 Image 2  Energy = -153.9043320680
C   0.8817091650  0.6193114577 -0.1961904374
H   0.4870635750  1.2801210765 -0.9577086081
O   0.7940543058  1.0955859333  1.0752154034
C   1.3924083531 -0.5871848998 -0.3802228640
H   0.8332072377  0.2632066641  1.5598796708
H   1.2738989461 -1.1804216255 -1.2647334438
H   1.9388995805 -1.0002517151  0.4576981135
7
Iter 57 Image 3  Energy = -153.8875427158
C   0.9094168056  0.6558486074 -0.2068204173
H   0.5274454538  1.3412579290 -0.9513138317
O   0.8100231559  1.0537182341  1.0892997443
C   1.3968496603 -0.5702238066 -0.3505618693
H   0.7464686682  0.1458068438  1.4107882676
H   1.1590512396 -1.2389270368 -1.1439232706
H   2.0519862110 -0.8971134408  0.4464689376
7
Iter 57 Image 4  Energy = -153.8582447726
C   0.9231020216  0.6926416495 -0.1982279183
H   0.5699416051  1.3861713941 -0.9584165550
O   0.7884376533  1.0288120262  1.0992597939
C   1.3662689920 -0.5627272226 -0.2761685599
H   0.7320910116  0.0376139783  1.2303489481
H   1.0683450245 -1.2591049214 -1.0259450801
H   2.1530550541 -0.8330387808  0.4230872170
7
Iter 57 Image 5  Energy = -153.8305302845
C   0.9128498782  0.7861679781 -0.1250475614
H   0.5531637665  1.4014142836 -0.9503582571
O   0.7999695572  1.2132374905  1.0458881996
C   1.2726528090 -0.5894042891 -0.1389040964
H   0.7735874439 -0.2441146545  1.0694618252
H   1.1169084946 -1.2195028751 -1.0319122707
H   2.1721094490 -0.8574301657  0.4248099383
7
Iter 57 Image 6  Energy = -153.8965392415
C   0.9151815032  0.8554485779 -0.0832975640
H   0.5906797711  1.3891626263 -0.9870567200
O   0.8097341503  1.3822277015  1.0011002413
C   1.2662483157 -0.5796057133 -0.0418851615
H   0.7346286412 -0.5429135632  0.9561770783
H   1.0387822465 -1.2054960704 -0.9194746680
H   2.2459866165 -0.8084562778  0.3683746639
7
Iter 57 Image 7  Energy = -153.9266108770
C   0.8996124357  0.8869452986 -0.0474132268
H   0.6672699870  1.3505852903 -1.0232543338
O   0.7891289682  1.5312014090  0.9624760018
C   1.2528839903 -0.5655206271  0.0312586904
H   0.7121534491 -0.8233843073  0.9367038551
H   0.9809917325 -1.1551307511 -0.8451574044
H   2.2992006998 -0.7343295429  0.2793242819
7
Iter 57 Image 8  Energy = -153.9309232544
C   0.8685307389  0.8981883294  0.0280606759
H   0.7222360564  1.3306511880 -0.9783742657
O   0.7707750164  1.6020356968  0.9963518712
C   1.2248936761 -0.5638511862  0.0561119820
H   0.6961118416 -1.1040530487  0.8386059027
H   1.0274549328 -1.0239393364 -0.9095968414
H   2.2912395203 -0.6486648995  0.2627797509
7
Iter 57 Image 9  Energy = -153.9312821378
C   0.8546866824  0.8915707811  0.0078587014
H   0.8177681361  1.3326635290 -1.0067280805
O   0.6078010842  1.5703435712  0.9710988112
C   1.2436241937 -0.5587220869  0.0695877326
H   0.7922672337 -1.0399814874  0.9339633181
H   0.9567792148 -1.0741390020 -0.8457800786
H   2.3283150189 -0.6313684555  0.1639382800
7
Iter 57 Image 10  Energy = -153.9315498204
C   0.8255436616  0.8819333160 -0.0101451115
H   0.9139110330  1.3283732221 -1.0190605159
O   0.4059365601  1.5376116152  0.9078479661
C   1.2693573985 -0.5489398106  0.0937016079
H   0.9276448939 -0.9951080292  1.0229912943
H   0.8996437340 -1.1206028769 -0.7572618696
H   2.3592043085 -0.5929005956  0.0558652885
7
Iter 57 Image 11  Energy = -153.9315568446
C   0.7840367852  0.8656586589 -0.0371164025
H   0.9809293880  1.3403901038 -1.0231241499
O   0.1875804579  1.4681235287  0.8223429327
C   1.3100769769 -0.5359012779  0.1153731248
H   1.0639489065 -0.9236344469  1.1059940899
H   0.8779311114 -1.1816924395 -0.6582837811
H   2.3967379442 -0.5425772870 -0.0312469938
7
Iter 58 Image 0  Energy = -153.9146221658
C   0.8260657415  0.5508603911 -0.1261794589
H   0.4554445983  1.2417513435 -0.8784317668
O   0.5680753083  1.0246514429  1.1187434847
C   1.4411098584 -0.5873603774 -0.4363613732
H   0.9099091373  0.3932317500  1.7666320721
H   1.5916834696 -0.8592929697 -1.4741885892
H   1.8089534565 -1.2734747403  0.3237244514
7
Iter 58 Image 1  Energy = -153.9130985370
C   0.8560156164  0.5776898654 -0.1611017814
H   0.4677264898  1.2368408724 -0.9277885245
O   0.7214475578  1.0965649289  1.0895622449
C   1.4053106416 -0.6028728111 -0.4111242612
H   0.8705424026  0.3746161921  1.7066193247
H   1.4148801072 -1.0353514220 -1.3984858528
H   1.8653184755 -1.1571207087  0.3962568429
7
Iter 58 Image 2  Energy = -153.9042941747
C   0.8813431119  0.6195226947 -0.1962265725
H   0.4872319246  1.2808543555 -0.9574868327
O   0.7945136332  1.0955334355  1.0752795209
C   1.3925589659 -0.5874071318 -0.3802792524
H   0.8322748046  0.2628683632  1.5596376897
H   1.2738555088 -1.1810840559 -1.2644697873
H   1.9394632160 -0.9999207586  0.4574830908
7
Iter 58 Image 3  Energy = -153.8877576356
C   0.9086954032  0.6555557045 -0.2066136893
H   0.5276826153  1.3411853003 -0.9517883886
O   0.8098503929  1.0547017758  1.0888753101
C   1.3968615432 -0.5702292941 -0.3512716048
H   0.7470115821  0.1460511325  1.4132693004
H   1.1601408986 -1.2391416207 -1.1449472240
H   2.0509987610 -0.8977556299  0.4464138500
7
Iter 58 Image 4  Energy = -153.8579470791
C   0.9226353539  0.6932194138 -0.1970302623
H   0.5691016748  1.3862462109 -0.9588271234
O   0.7892652314  1.0335867319  1.0974611423
C   1.3637604372 -0.5623920711 -0.2745810379
H   0.7338423418  0.0326139783  1.2310950135
H   1.0709947858 -1.2586409694 -1.0283213135
H   2.1516415417 -0.8342651305  0.4241414281
7
Iter 58 Image 5  Energy = -153.8301882439
C   0.9122348576  0.7858577908 -0.1253338528
H   0.5530605648  1.4019725857 -0.9501698765
O   0.7995626151  1.2131456409  1.0461915049
C   1.2720749347 -0.5897273333 -0.1400199441
H   0.7745132604 -0.2430837584  1.0718828159
H   1.1191652686 -1.2194707400 -1.0339144757
H   2.1706299045 -0.8583263832  0.4253015969
7
Iter 58 Image 6  Energy = -153.8962002451
C   0.9147886217  0.8553891713 -0.0826913083
H   0.5892812071  1.3897481403 -0.9857120427
O   0.8106247586  1.3810482586  1.0023779903
C   1.2663755080 -0.5795568127 -0.0434145446
H   0.7340736429 -0.5424118362  0.9551367158
H   1.0417278458 -1.2049163690 -0.9223861732
H   2.2443696649 -0.8089332396  0.3706272167
7
Iter 58 Image 7  Energy = -153.9265498856
C   0.8996303722  0.8869295835 -0.0477519845
H   0.6665497537  1.3509830389 -1.0231891201
O   0.7907425059  1.5312168311  0.9625060110
C   1.2525790530 -0.5655690738  0.0306510655
H   0.7121811108 -0.8223791594  0.9366534066
H   0.9811926632 -1.1559443561 -0.8456065004
H   2.2983658080 -0.7348700915  0.2806749992
7
Iter 58 Image 8  Energy = -153.9309130464
C   0.8686619342  0.8971230520  0.0266153208
H   0.7227798023  1.3304993081 -0.9787773573
O   0.7692596728  1.6025214598  0.9980886194
C   1.2254658619 -0.5639248059  0.0557853766
H   0.6967477713 -1.1025474650  0.8390094356
H   1.0265550460 -1.0245541893 -0.9094168140
H   2.2917716948 -0.6487506217  0.2626345048
7
Iter 58 Image 9  Energy = -153.9312826728
C   0.8546359430  0.8913755822  0.0075432585
H   0.8184187696  1.3327376002 -1.0069301284
O   0.6064131314  1.5697649768  0.9711060054
C   1.2439751301 -0.5586858361  0.0694709082
H   0.7930028138 -1.0385896933  0.9347853755
H   0.9560470660 -1.0746767148 -0.8453906295
H   2.3287487062 -0.6315590636  0.1633538874
7
Iter 58 Image 10  Energy = -153.9315498341
C   0.8256583187  0.8819126743 -0.0101190987
H   0.9138191991  1.3284043558 -1.0190539803
O   0.4061555763  1.5374295802  0.9081038140
C   1.2693781486 -0.5489645624  0.0935647182
H   0.9273611225 -0.9947833820  1.0228494165
H   0.8996394075 -1.1205697043 -0.7574463934
H   2.3592298152 -0.5930621196  0.0560401797
7
Iter 58 Image 11  Energy = -153.9315568446
C   0.7840367852  0.8656586589 -0.0371164025
H   0.9809293880  1.3403901038 -1.0231241499
O   0.1875804579  1.4681235287  0.8223429327
C   1.3100769769 -0.5359012779  0.1153731248
H   1.0639489065 -0.9236344469  1.1059940899
H   0.8779311114 -1.1816924395 -0.6582837811
H   2.3967379442 -0.5425772870 -0.0312469938
7
Iter 59 Image 0  Energy = -153.9146221658
C   0.8260657415  0.5508603911 -0.1261794589
H   0.4554445983  1.2417513435 -0.8784317668
O   0.5680753083  1.0246514429  1.1187434847
C   1.4411098584 -0.5873603774 -0.4363613732
H   0.9099091373  0.3932317500  1.7666320721
H   1.5916834696 -0.8592929697 -1.4741885892
H   1.8089534565 -1.2734747403  0.3237244514
7
Iter 59 Image 1  Energy = -153.9131005072
C   0.8560074296  0.5776096228 -0.1613019058
H   0.4677881641  1.2365823096 -0.9280800054
O   0.7214157549  1.0968314452  1.0892150923
C   1.4057569723 -0.6029319796 -0.4110939354
H   0.8710087441  0.3755302425  1.7067231586
H   1.4140990853 -1.0361054086 -1.3981363657
H   1.8651651365 -1.1571493167  0.3966119536
7
Iter 59 Image 2  Energy = -153.9042609716
C   0.8809908236  0.6197108253 -0.1962554239
H   0.4873806254  1.2815451061 -0.9572777991
O   0.7949503800  1.0954918119  1.0753432432
C   1.3926948639 -0.5876268229 -0.3803533314
H   0.8313989671  0.2625909916  1.5594669288
H   1.2738600554 -1.1817112425 -1.2642664606
H   1.9399654517 -0.9996337554  0.4572807202
7
Iter 59 Image 3  Energy = -153.8879594961
C   0.9080160690  0.6553009458 -0.2064071612
H   0.5279086263  1.3410965305 -0.9522614120
O   0.8096648138  1.0556753370  1.0884667440
C   1.3968445720 -0.5702380689 -0.3519298843
H   0.7475749789  0.1462524703  1.4156747035
H   1.1612054997 -1.2393383911 -1.1459700627
H   2.0500266388 -0.8983814188  0.4463646201
7
Iter 59 Image 4  Energy = -153.8575420593
C   0.9221376357  0.6938155544 -0.1958198221
H   0.5681533161  1.3862886323 -0.9591544164
O   0.7901509588  1.0384607534  1.0957706002
C   1.3611307184 -0.5621414137 -0.2729523077
H   0.7356723057  0.0276139783  1.2317293821
H   1.0739153450 -1.2580463676 -1.0309109316
H   2.1500810908 -0.8356229376  0.4252753415
7
Iter 59 Image 5  Energy = -153.8298781365
C   0.9116266530  0.7855705050 -0.1256032227
H   0.5529944265  1.4025016826 -0.9500283072
O   0.7991462139  1.2131276968  1.0464424063
C   1.2714831035 -0.5900518583 -0.1410573832
H   0.7754341418 -0.2421540320  1.0742842655
H   1.1213483137 -1.2194243882 -1.0358236027
H   2.1692085611 -0.8592017690  0.4257236048
7
Iter 59 Image 6  Energy = -153.8958662510
C   0.9144103864  0.8553234538 -0.0821096502
H   0.5879274725  1.3903284331 -0.9844067653
O   0.8114753016  1.3798972257  1.0036070327
C   1.2664820751 -0.5795141562 -0.0448907461
H   0.7335508915 -0.5419121369  0.9541552313
H   1.0446099248 -1.2043483904 -0.9252204465
H   2.2427852020 -0.8094070855  0.3728031820
7
Iter 59 Image 7  Energy = -153.9264897895
C   0.8996649050  0.8869234639 -0.0480794857
H   0.6658372340  1.3513665809 -1.0231249061
O   0.7922976841  1.5312256724  0.9625338524
C   1.2522969484 -0.5656180300  0.0300679161
H   0.7121807717 -0.8214008232  0.9365976202
H   0.9813970059 -1.1567362795 -0.8460361671
H   2.2975667217 -0.7353938083  0.2819790592
7
Iter 59 Image 8  Energy = -153.9308670299
C   0.8688110527  0.8960914785  0.0251811253
H   0.7232173363  1.3303690618 -0.9792099865
O   0.7678747463  1.6029452685  0.9997882344
C   1.2260474194 -0.5640030125  0.0554427594
H   0.6973042957 -1.1009221217  0.8394281048
H   1.0256900489 -1.0252109644 -0.9092274774
H   2.2922968849 -0.6489029773  0.2625363353
7
Iter 59 Image 9  Energy = -153.9312826481
C   0.8545800130  0.8911889767  0.0072383061
H   0.8190824300  1.3328107700 -1.0071304929
O   0.6050179744  1.5691978314  0.9711004500
C   1.2443196137 -0.5586499755  0.0693631252
H   0.7937480833 -1.0372367900  0.9356018838
H   0.9553160765 -1.0752090279 -0.8449906056
H   2.3291773653 -0.6317349311  0.1627560029
7
Iter 59 Image 10  Energy = -153.9315499474
C   0.8257628740  0.8818924066 -0.0100961920
H   0.9137462881  1.3284371911 -1.0190506835
O   0.4063367189  1.5372454734  0.9083423696
C   1.2694032353 -0.5489882162  0.0934350822
H   0.9271061564 -0.9944601642  1.0227269150
H   0.8996264565 -1.1205452648 -0.7576106270
H   2.3592598569 -0.5932145829  0.0561917884
7
Iter 59 Image 11  Energy = -153.9315568446
C   0.7840367852  0.8656586589 -0.0371164025
H   0.9809293880  1.3403901038 -1.0231241499
O   0.1875804579  1.4681235287  0.8223429327
C   1.3100769769 -0.5359012779  0.1153731248
H   1.0639489065 -0.9236344469  1.1059940899
H   0.8779311114 -1.1816924395 -0.6582837811
H   2.3967379442 -0.5425772870 -0.0312469938
7
Iter 60 Image 0  Energy = -153.9146221658
C   0.8260657415  0.5508603911 -0.1261794589
H   0.4554445983  1.2417513435 -0.8784317668
O   0.5680753083  1.0246514429  1.1187434847
C   1.4411098584 -0.5873603774 -0.4363613732
H   0.9099091373  0.3932317500  1.7666320721
H   1.5916834696 -0.8592929697 -1.4741885892
H   1.8089534565 -1.2734747403  0.3237244514
7
Iter 60 Image 1  Energy = -153.9131020176
C   0.8560019732  0.5775355069 -0.1614984704
H   0.4678479604  1.2363272122 -0.9283674754
O   0.7213857770  1.0970959426  1.0888739079
C   1.4061870630 -0.6029964042 -0.4110621746
H   0.8714668355  0.3764293500  1.7068240549
H   1.4133344199 -1.0368481126 -1.3977916718
H   1.8650172533 -1.1571765824  0.3969598221
7
Iter 60 Image 2  Energy = -153.9042307009
C   0.8806442999  0.6198929199 -0.1962824879
H   0.4875173053  1.2822021455 -0.9570739028
O   0.7953709678  1.0954552923  1.0754064622
C   1.3928251108 -0.5878531688 -0.3804343115
H   0.8305640370  0.2623556917  1.5593409209
H   1.2738957799 -1.1823101242 -1.2641021704
H   1.9404236682 -0.9993758313  0.4570833865
7
Iter 60 Image 3  Energy = -153.8881496862
C   0.9073678054  0.6550653460 -0.2061980492
H   0.5281189379  1.3410003884 -0.9527298143
O   0.8094758991  1.0566211031  1.0880894327
C   1.3967816044 -0.5702477703 -0.3525507495
H   0.7481604092  0.1464389035  1.4179857491
H   1.1622685363 -1.2395076082 -1.1469903006
H   2.0490680087 -0.8990029221  0.4463312737
7
Iter 60 Image 4  Energy = -153.8570321137
C   0.9216014283  0.6944295481 -0.1945960670
H   0.5671573252  1.3863214250 -0.9594126437
O   0.7910558369  1.0433897744  1.0941964390
C   1.3584487760 -0.5619737410 -0.2712865362
H   0.7375388235  0.0226139783  1.2322424446
H   1.0770144973 -1.2573533483 -1.0336299895
H   2.1484246877 -0.8370594034  0.4264241974
7
Iter 60 Image 5  Energy = -153.8295964663
C   0.9110203376  0.7853027074 -0.1258355519
H   0.5529503968  1.4030064294 -0.9499187555
O   0.7987331229  1.2131624880  1.0466497832
C   1.2708691302 -0.5903728704 -0.1420143789
H   0.7763546086 -0.2413125976  1.0766191475
H   1.1234816997 -1.2193564451 -1.0376614778
H   2.1678321253 -0.8600618418  0.4260989869
7
Iter 60 Image 6  Energy = -153.8955390073
C   0.9140405662  0.8552572913 -0.0815469900
H   0.5866152067  1.3908998302 -0.9831373081
O   0.8122934390  1.3787805790  1.0047945988
C   1.2665761797 -0.5794782270 -0.0463204079
H   0.7330535022 -0.5414277708  0.9532185914
H   1.0474327536 -1.2037890536 -0.9279817910
H   2.2412296113 -0.8098752752  0.3749111289
7
Iter 60 Image 7  Energy = -153.9264297356
C   0.8997096513  0.8869187639 -0.0484011863
H   0.6651306271  1.3517408701 -1.0230591335
O   0.7938069948  1.5312250016  0.9625631976
C   1.2520290762 -0.5656669385  0.0295015185
H   0.7121653741 -0.8204324134  0.9365373624
H   0.9816072837 -1.1575107381 -0.8464546524
H   2.2967922672 -0.7359077664  0.2832507942
7
Iter 60 Image 8  Energy = -153.9307892789
C   0.8689622202  0.8951008376  0.0237856418
H   0.7235831362  1.3302518946 -0.9796515330
O   0.7665988242  1.6033260240  1.0014394205
C   1.2266268650 -0.5640797089  0.0550943059
H   0.6977985858 -1.0992615335  0.8398428906
H   1.0248603934 -1.0258801169 -0.9090430684
H   2.2928117598 -0.6490906689  0.2624714469
7
Iter 60 Image 9  Energy = -153.9312825162
C   0.8545162008  0.8910215620  0.0069627227
H   0.8197492080  1.3328826874 -1.0073270291
O   0.6036351239  1.5686318040  0.9710702187
C   1.2446564519 -0.5586157843  0.0692612716
H   0.7944934389 -1.0359234723  0.9364042199
H   0.9545928950 -1.0757309150 -0.8445887442
H   2.3295982341 -0.6318990267  0.1621560032
7
Iter 60 Image 10  Energy = -153.9315502371
C   0.8258535521  0.8818821516 -0.0100613769
H   0.9136877082  1.3284710588 -1.0190497296
O   0.4064951762  1.5370509706  0.9085536682
C   1.2694313932 -0.5490112510  0.0933113214
H   0.9268735616 -0.9941392064  1.0226183528
H   0.8996074567 -1.1205274046 -0.7577590982
H   2.3592927368 -0.5933594754  0.0563255110
7
Iter 60 Image 11  Energy = -153.9315568446
C   0.7840367852  0.8656586589 -0.0371164025
H   0.9809293880  1.3403901038 -1.0231241499
O   0.1875804579  1.4681235287  0.8223429327
C   1.3100769769 -0.5359012779  0.1153731248
H   1.0639489065 -0.9236344469  1.1059940899
H   0.8779311114 -1.1816924395 -0.6582837811
H   2.3967379442 -0.5425772870 -0.0312469938
7
Iter 61 Image 0  Energy = -153.9146221658
C   0.8260657415  0.5508603911 -0.1261794589
H   0.4554445983  1.2417513435 -0.8784317668
O   0.5680753083  1.0246514429  1.1187434847
C   1.4411098584 -0.5873603774 -0.4363613732
H   0.9099091373  0.3932317500  1.7666320721
H   1.5916834696 -0.8592929697 -1.4741885892
H   1.8089534565 -1.2734747403  0.3237244514
7
Iter 61 Image 1  Energy = -153.9131032891
C   0.8560036229  0.5774665866 -0.1616913185
H   0.4679050839  1.2360762756 -0.9286527496
O   0.7213584836  1.0973619042  1.0885366662
C   1.4065945853 -0.6030650691 -0.4110265444
H   0.8719166610  0.3773105497  1.7069201947
H   1.4125849975 -1.0375832821 -1.3974496713
H   1.8648778438 -1.1572000552  0.3973014149
7
Iter 61 Image 2  Energy = -153.9042051961
C   0.8803093631  0.6200570109 -0.1963056053
H   0.4876362473  1.2828177111 -0.9568783460
O   0.7957714041  1.0954272932  1.0754687642
C   1.3929432594 -0.5880806036 -0.3805292469
H   0.8297806468  0.2621779441  1.5592799885
H   1.2739770514 -1.1828746118 -1.2639929126
H   1.9408231986 -0.9991578103  0.4568952741
7
Iter 61 Image 3  Energy = -153.8883278347
C   0.9067576602  0.6548606472 -0.2059887596
H   0.5283141732  1.3408947663 -0.9531923093
O   0.8092788693  1.0575432165  1.0877426350
C   1.3966714814 -0.5702619948 -0.3531208389
H   0.7487727047  0.1465944677  1.4201942317
H   1.1633245874 -1.2396491850 -1.1480097512
H   2.0481217278 -0.8996144418  0.4463123301
7
Iter 61 Image 4  Energy = -153.8564357677
C   0.9210272829  0.6950516232 -0.1933681806
H   0.5661043866  1.3863373904 -0.9595953041
O   0.7919812124  1.0483897744  1.0927408153
C   1.3557133354 -0.5618999635 -0.2696213682
H   0.7394420566  0.0176355135  1.2326901203
H   1.0803213055 -1.2565526261 -1.0365067562
H   2.1466517999 -0.8385934493  0.4275985152
7
Iter 61 Image 5  Energy = -153.8293439678
C   0.9104156527  0.7850558429 -0.1260372838
H   0.5529374327  1.4034817831 -0.9498509642
O   0.7983166311  1.2132630710  1.0468040984
C   1.2702359707 -0.5906918339 -0.1428913079
H   0.7772740440 -0.2405708476  1.0789198369
H   1.1255598925 -1.2192634761 -1.0394194427
H   2.1665018040 -0.8609066365  0.4264128089
7
Iter 61 Image 6  Energy = -153.8952167829
C   0.9136827517  0.8551857389 -0.0810077988
H   0.5853441803  1.3914658060 -0.9819040415
O   0.8130741569  1.3776943930  1.0059360527
C   1.2666503149 -0.5794494347 -0.0476998368
H   0.7325883457 -0.5409497137  0.9523391727
H   1.0502026838 -1.2032364331 -0.9306728301
H   2.2396988306 -0.8103429509  0.3769470879
7
Iter 61 Image 7  Energy = -153.9263701077
C   0.8997703088  0.8869199922 -0.0487132575
H   0.6644248986  1.3521054208 -1.0229893145
O   0.7952691893  1.5312121206  0.9625945474
C   1.2517792171 -0.5657169341  0.0289541846
H   0.7121229215 -0.8194816665  0.9364675109
H   0.9818299954 -1.1582627294 -0.8468638774
H   2.2960447472 -0.7364094208  0.2844881180
7
Iter 61 Image 8  Energy = -153.9306849963
C   0.8691170274  0.8941546140  0.0224315537
H   0.7238748991  1.3301507659 -0.9801097051
O   0.7654275999  1.6036515614  1.0030384567
C   1.2272065981 -0.5641572928  0.0547391088
H   0.6982309819 -1.0975479803  0.8402611906
H   1.0240654868 -1.0265665476 -0.9088577618
H   2.2933191915 -0.6493183971  0.2624362695
7
Iter 61 Image 9  Energy = -153.9312824116
C   0.8544468313  0.8908686692  0.0067070168
H   0.8204213047  1.3329541497 -1.0075200625
O   0.6022584395  1.5680712965  0.9710207759
C   1.2449858855 -0.5585825566  0.0691666962
H   0.7952415337 -1.0346493036  0.9371947797
H   0.9538759202 -1.0762441926 -0.8441806973
H   2.3300116339 -0.6320512055  0.1615501470
7
Iter 61 Image 10  Energy = -153.9315506172
C   0.8259314879  0.8818768145 -0.0100230426
H   0.9136480809  1.3285066273 -1.0190513723
O   0.4066185373  1.5368492635  0.9087409381
C   1.2694638244 -0.5490329363  0.0931948228
H   0.9266696376 -0.9938195443  1.0225286959
H   0.8995799979 -1.1205181337 -0.7578873055
H   2.3593300174 -0.5934952465  0.0564359081
7
Iter 61 Image 11  Energy = -153.9315568446
C   0.7840367852  0.8656586589 -0.0371164025
H   0.9809293880  1.3403901038 -1.0231241499
O   0.1875804579  1.4681235287  0.8223429327
C   1.3100769769 -0.5359012779  0.1153731248
H   1.0639489065 -0.9236344469  1.1059940899
H   0.8779311114 -1.1816924395 -0.6582837811
H   2.3967379442 -0.5425772870 -0.0312469938
7
Iter 62 Image 0  Energy = -153.9146221658
C   0.8260657415  0.5508603911 -0.1261794589
H   0.4554445983  1.2417513435 -0.8784317668
O   0.5680753083  1.0246514429  1.1187434847
C   1.4411098584 -0.5873603774 -0.4363613732
H   0.9099091373  0.3932317500  1.7666320721
H   1.5916834696 -0.8592929697 -1.4741885892
H   1.8089534565 -1.2734747403  0.3237244514
7
Iter 62 Image 1  Energy = -153.9131042699
C   0.8560072400  0.5774035402 -0.1618797366
H   0.4679598294  1.2358277597 -0.9289325794
O   0.7213321001  1.0976249992  1.0882067989
C   1.4069842047 -0.6031400900 -0.4109901228
H   0.8723580866  0.3781781961  1.7070158186
H   1.4118572732 -1.0383021421 -1.3971156016
H   1.8647425399 -1.1572253547  0.3976334148
7
Iter 62 Image 2  Energy = -153.9041824742
C   0.8799816796  0.6202154839 -0.1963293367
H   0.4877434717  1.2833964682 -0.9566853268
O   0.7961550892  1.0954031668  1.0755293583
C   1.3930557473 -0.5883145890 -0.3806277063
H   0.8290391240  0.2620416502  1.5592604844
H   1.2740886118 -1.1834073494 -1.2639201435
H   1.9411774487 -0.9989678873  0.4567106053
7
Iter 62 Image 3  Energy = -153.8884947614
C   0.9061773114  0.6546726493 -0.2057763263
H   0.5284884509  1.3407886474 -0.9536421914
O   0.8090846945  1.0584233954  1.0874421915
C   1.3964972906 -0.5702805266 -0.3536461910
H   0.7494113781  0.1467392463  1.4222672169
H   1.1643930331 -1.2397511602 -1.1490239663
H   2.0471890484 -0.9002247410  0.4463167985
7
Iter 62 Image 4  Energy = -153.8557592459
C   0.9204140904  0.6956747776 -0.1921332467
H   0.5650641164  1.3863596425 -0.9597176985
O   0.7928794618  1.0533897744  1.0914107920
C   1.3530021663 -0.5619110161 -0.2679687041
H   0.7413283688  0.0127009163  1.2330577811
H   1.0837214595 -1.2556808454 -1.0394348482
H   2.1448317191 -0.8401649610  0.4287237635
7
Iter 62 Image 5  Energy = -153.8291200625
C   0.9098100420  0.7848289450 -0.1261902910
H   0.5529431123  1.4039284215 -0.9498115944
O   0.7979104300  1.2134125459  1.0469146818
C   1.2695781019 -0.5910036996 -0.1436769738
H   0.7781923043 -0.2399244283  1.0811254256
H   1.1275934832 -1.2191371386 -1.0411069159
H   2.1652139614 -0.8617367085  0.4266834061
7
Iter 62 Image 6  Energy = -153.8949034030
C   0.9133327051  0.8551146586 -0.0804893113
H   0.5841196128  1.3920194667 -0.9807117540
O   0.8138193972  1.3766517282  1.0070301973
C   1.2667104639 -0.5794281253 -0.0490257622
H   0.7321525898 -0.5404945141  0.9515098949
H   1.0529078348 -1.2026903299 -0.9332814174
H   2.2381986659 -0.8108054482  0.3789059434
7
Iter 62 Image 7  Energy = -153.9263102728
C   0.8998405268  0.8869195927 -0.0490181956
H   0.6637214128  1.3524631389 -1.0229125695
O   0.7966881931  1.5311830445  0.9626312171
C   1.2515408030 -0.5657672943  0.0284213119
H   0.7120648065 -0.8185377353  0.9363882841
H   0.9820681443 -1.1589910838 -0.8472704728
H   2.2953173955 -0.7369028755  0.2856983459
7
Iter 62 Image 8  Energy = -153.9305600602
C   0.8692597956  0.8932659675  0.0211534036
H   0.7241232037  1.3300579858 -0.9805618191
O   0.7643476376  1.6039369712  1.0045645811
C   1.2277722309 -0.5642294224  0.0543891330
H   0.6986147084 -1.0958714535  0.8406623379
H   1.0233107935 -1.0272380317 -0.9086861373
H   2.2938134150 -0.6495552974  0.2624176204
7
Iter 62 Image 9  Energy = -153.9312825873
C   0.8543711695  0.8907375715  0.0064850866
H   0.8210852951  1.3330244023 -1.0077059871
O   0.6009133352  1.5675132940  0.9709459859
C   1.2453048697 -0.5585512652  0.0690771931
H   0.7959788492 -1.0334226396  0.9379605880
H   0.9531756200 -1.0767410668 -0.8437770302
H   2.3304124067 -0.6321934380  0.1609528124
7
Iter 62 Image 10  Energy = -153.9315512299
C   0.8259942678  0.8818827442 -0.0099714105
H   0.9136237963  1.3285430607 -1.0190543962
O   0.4067176728  1.5366359985  0.9088968414
C   1.2694991865 -0.5490532834  0.0930852484
H   0.9264902830 -0.9935037754  1.0224537644
H   0.8995464286 -1.1205156266 -0.7579981858
H   2.3593699474 -0.5936222732  0.0565267801
7
Iter 62 Image 11  Energy = -153.9315568446
C   0.7840367852  0.8656586589 -0.0371164025
H   0.9809293880  1.3403901038 -1.0231241499
O   0.1875804579  1.4681235287  0.8223429327
C   1.3100769769 -0.5359012779  0.1153731248
H   1.0639489065 -0.9236344469  1.1059940899
H   0.8779311114 -1.1816924395 -0.6582837811
H   2.3967379442 -0.5425772870 -0.0312469938
7
Iter 63 Image 0  Energy = -153.9146221658
C   0.8260657415  0.5508603911 -0.1261794589
H   0.4554445983  1.2417513435 -0.8784317668
O   0.5680753083  1.0246514429  1.1187434847
C   1.4411098584 -0.5873603774 -0.4363613732
H   0.9099091373  0.3932317500  1.7666320721
H   1.5916834696 -0.8592929697 -1.4741885892
H   1.8089534565 -1.2734747403  0.3237244514
7
Iter 63 Image 1  Energy = -153.9131051263
C   0.8560177037  0.5773457533 -0.1620624035
H   0.4680108786  1.2355833178 -0.9292076850
O   0.7213076409  1.0978882540  1.0878836304
C   1.4073460751 -0.6032207722 -0.4109502755
H   0.8727891816  0.3790255426  1.7071089975
H   1.4111545478 -1.0390048919 -1.3967891683
H   1.8646152427 -1.1572502975  0.3979548962
7
Iter 63 Image 2  Energy = -153.9041653078
C   0.8796689839  0.6203546321 -0.1963501714
H   0.4878311037  1.2839248668 -0.9564996684
O   0.7965146882  1.0953876828  1.0755872160
C   1.3931546189 -0.5885500739 -0.3807385110
H   0.8283577411  0.2619681954  1.5593091993
H   1.2742492840 -1.1838966035 -1.2639053071
H   1.9414647538 -0.9988217463  0.4565351957
7
Iter 63 Image 3  Energy = -153.8886490077
C   0.9056380065  0.6545180042 -0.2055613623
H   0.5286413314  1.3406796073 -0.9540757951
O   0.8088884254  1.0592657895  1.0871880006
C   1.3962556472 -0.5703080202 -0.3541046738
H   0.7500811231  0.1468478579  1.4241830521
H   1.1654650098 -1.2398104579 -1.1500336790
H   2.0462716667 -0.9008252362  0.4463419869
7
Iter 63 Image 4  Energy = -153.8550240211
C   0.9197648203  0.6962883059 -0.1908950602
H   0.5640280017  1.3863759244 -0.9597697518
O   0.7937501627  1.0583897744  1.0902051828
C   1.3503101942 -0.5620148181 -0.2663702676
H   0.7431941591  0.0078495329  1.2333925346
H   1.0872414129 -1.2547242080 -1.0424343759
H   2.1429526357 -0.8417961991  0.4298095726
7
Iter 63 Image 5  Energy = -153.8289289617
C   0.9092047171  0.7846270920 -0.1262982122
H   0.5529818308  1.4043368785 -0.9498152815
O   0.7975069657  1.2136311299  1.0469663527
C   1.2688984770 -0.5913095882 -0.1443580624
H   0.7791054933 -0.2393972105  1.0832561614
H   1.1295615278 -1.2189731299 -1.0427003376
H   2.1639824298 -0.8625472029  0.4268871118
7
Iter 63 Image 6  Energy = -153.8945990739
C   0.9129956674  0.8550389596 -0.0799996794
H   0.5829505315  1.3925614903 -0.9795692747
O   0.8145175600  1.3756558408  1.0080638630
C   1.2667465732 -0.5794150088 -0.0502841679
H   0.7317577240 -0.5400563782  0.9507519155
H   1.0555396413 -1.2021511891 -0.9357940745
H   2.2367335778 -0.8112662471  0.3807691959
7
Iter 63 Image 7  Energy = -153.9262510879
C   0.8999271133  0.8869223762 -0.0493106811
H   0.6630178822  1.3528111704 -1.0228263694
O   0.7980529214  1.5311350497  0.9626740980
C   1.2513206337 -0.5658188515  0.0279090612
H   0.7119759474 -0.8176142740  0.9362939255
H   0.9823286448 -1.1596860160 -0.8476735443
H   2.2946181423 -0.7373826619  0.2868714409
7
Iter 63 Image 8  Energy = -153.9304203606
C   0.8693955994  0.8924367414  0.0199461618
H   0.7243146185  1.3299783595 -0.9810163690
O   0.7633674932  1.6041690203  1.0060156909
C   1.2283260956 -0.5642982442  0.0540435985
H   0.6989418922 -1.0942035699  0.8410551119
H   1.0226003114 -1.0279028245 -0.9085208968
H   2.2942957747 -0.6498127678  0.2624158274
7
Iter 63 Image 9  Energy = -153.9312828655
C   0.8542921684  0.8906225656  0.0062857060
H   0.8217427000  1.3330939894 -1.0078844188
O   0.5995958653  1.5669667800  0.9708532348
C   1.2456123189 -0.5585209000  0.0689953098
H   0.7967068561 -1.0322499174  0.9387016447
H   0.9524922832 -1.0772217618 -0.8433734198
H   2.3307993500 -0.6323238968  0.1603605855
7
Iter 63 Image 10  Energy = -153.9315520694
C   0.8260426451  0.8818936132 -0.0099171542
H   0.9136214424  1.3285811084 -1.0190590946
O   0.4067752764  1.5364158451  0.9090238584
C   1.2695390010 -0.5490712248  0.0929852009
H   0.9263453331 -0.9931920734  1.0224006110
H   0.8995035948 -1.1205227681 -0.7580847859
H   2.3594142881 -0.5937376550  0.0565900031
7
Iter 63 Image 11  Energy = -153.9315568446
C   0.7840367852  0.8656586589 -0.0371164025
H   0.9809293880  1.3403901038 -1.0231241499
O   0.1875804579  1.4681235287  0.8223429327
C   1.3100769769 -0.5359012779  0.1153731248
H   1.0639489065 -0.9236344469  1.1059940899
H   0.8779311114 -1.1816924395 -0.6582837811
H   2.3967379442 -0.5425772870 -0.0312469938
7
Iter 64 Image 0  Energy = -153.9146221658
C   0.8260657415  0.5508603911 -0.1261794589
H   0.4554445983  1.2417513435 -0.8784317668
O   0.5680753083  1.0246514429  1.1187434847
C   1.4411098584 -0.5873603774 -0.4363613732
H   0.9099091373  0.3932317500  1.7666320721
H   1.5916834696 -0.8592929697 -1.4741885892
H   1.8089534565 -1.2734747403  0.3237244514
7
Iter 64 Image 1  Energy = -153.9131060200
C   0.8560289422  0.5772906153 -0.1622412541
H   0.4680593255  1.2353363996 -0.9294789975
O   0.7212819181  1.0981515689  1.0875651783
C   1.4076924860 -0.6033096373 -0.4109101866
H   0.8732180240  0.3798737853  1.7072081751
H   1.4104731600 -1.0396921965 -1.3964721756
H   1.8644874112 -1.1572836311  0.3982672535
7
Iter 64 Image 2  Energy = -153.9041508691
C   0.8793622515  0.6204876609 -0.1963727845
H   0.4879083709  1.2844207385 -0.9563118699
O   0.7968609084  1.0953757257  1.0756420522
C   1.3932473209 -0.5887933928 -0.3808506909
H   0.8277111139  0.2619333384  1.5593948216
H   1.2744411934 -1.1843552888 -1.2639231983
H   1.9417100157 -0.9987018204  0.4563596400
7
Iter 64 Image 3  Energy = -153.8887946885
C   0.9051149014  0.6543799260 -0.2053339200
H   0.5287699889  1.3405760245 -0.9544914291
O   0.8087012596  1.0600698251  1.0869893988
C   1.3959261937 -0.5703470294 -0.3545094608
H   0.7507916918  0.1469407050  1.4259421435
H   1.1665851427 -1.2398133639 -1.1510544395
H   2.0453520351 -0.9014385082  0.4463952324
7
Iter 64 Image 4  Energy = -153.8542208875
C   0.9190711884  0.6968948233 -0.1896214302
H   0.5630634788  1.3864104566 -0.9597751926
O   0.7945511205  1.0633897744  1.0890966540
C   1.3476718525 -0.5621887768 -0.2648012806
H   0.7450101353  0.0030146950  1.2336685866
H   1.0907938848 -1.2537112188 -1.0454157428
H   2.1410797313 -0.8434414197  0.4307862349
7
Iter 64 Image 5  Energy = -153.8287670265
C   0.9085849563  0.7844468454 -0.1263450900
H   0.5530398871  1.4047152198 -0.9498440686
O   0.7971148318  1.2139025869  1.0469757003
C   1.2681768129 -0.5916109519 -0.1449290386
H   0.7800308511 -0.2389735364  1.0852681540
H   1.1315101845 -1.2187590631 -1.0442391660
H   2.1627839248 -0.8633531018  0.4270512352
7
Iter 64 Image 6  Energy = -153.8943035553
C   0.9126593664  0.8549648228 -0.0795252258
H   0.5818240743  1.3930920254 -0.9784637188
O   0.8151833691  1.3747070958  1.0090540175
C   1.2667658417 -0.5794093176 -0.0514918582
H   0.7313927122 -0.5396504245  0.9500408702
H   1.0581279575 -1.2016096279 -0.9382394411
H   2.2352879586 -0.8117270740  0.3825631212
7
Iter 64 Image 7  Energy = -153.9261906474
C   0.9000222370  0.8869196893 -0.0495981241
H   0.6623049244  1.3531589483 -1.0227265658
O   0.7993916429  1.5310627561  0.9627262518
C   1.2511072684 -0.5658715174  0.0274024293
H   0.7118700889 -0.8166811174  0.9361844404
H   0.9826184231 -1.1603592929 -0.8480869902
H   2.2939267035 -0.7378626673  0.2880364966
7
Iter 64 Image 8  Energy = -153.9302688551
C   0.8695104997  0.8916619860  0.0188197667
H   0.7244849454  1.3299007698 -0.9814519096
O   0.7624586084  1.6043766272  1.0074016348
C   1.2288604426 -0.5643572521  0.0537102991
H   0.6992305679 -1.0926219516  0.8414187737
H   1.0219298573 -1.0285335218 -0.9083780891
H   2.2947668635 -0.6500599466  0.2624186560
7
Iter 64 Image 9  Energy = -153.9312834433
C   0.8542093461  0.8905245539  0.0061137837
H   0.8223894742  1.3331629910 -1.0080538641
O   0.5983106851  1.5664238530  0.9707413565
C   1.2459101622 -0.5584915180  0.0689169842
H   0.7974224620 -1.0311202965  0.9394160085
H   0.9518258870 -1.0776855832 -0.8429757143
H   2.3311735222 -0.6324471404  0.1597800816
7
Iter 64 Image 10  Energy = -153.9315530157
C   0.8260779713  0.8819126500 -0.0098539253
H   0.9136356967  1.3286202863 -1.0190635541
O   0.4068044089  1.5361842617  0.9091220875
C   1.2695820169 -0.5490867814  0.0928922663
H   0.9262261444 -0.9928824010  1.0223624292
H   0.8994540266 -1.1205370271 -0.7581529309
H   2.3594613153 -0.5938441422  0.0566322630
7
Iter 64 Image 11  Energy = -153.9315568446
C   0.7840367852  0.8656586589 -0.0371164025
H   0.9809293880  1.3403901038 -1.0231241499
O   0.1875804579  1.4681235287  0.8223429327
C   1.3100769769 -0.5359012779  0.1153731248
H   1.0639489065 -0.9236344469  1.1059940899
H   0.8779311114 -1.1816924395 -0.6582837811
H   2.3967379442 -0.5425772870 -0.0312469938
7
Iter 65 Image 0  Energy = -153.9146221658
C   0.8260657415  0.5508603911 -0.1261794589
H   0.4554445983  1.2417513435 -0.8784317668
O   0.5680753083  1.0246514429  1.1187434847
C   1.4411098584 -0.5873603774 -0.4363613732
H   0.9099091373  0.3932317500  1.7666320721
H   1.5916834696 -0.8592929697 -1.4741885892
H   1.8089534565 -1.2734747403  0.3237244514
7
Iter 65 Image 1  Energy = -153.9131071229
C   0.8560485773  0.5772367231 -0.1624137389
H   0.4681029912  1.2350897030 -0.9297475517
O   0.7212563915  1.0984199667  1.0872500039
C   1.4080077793 -0.6034055290 -0.4108656644
H   0.8736416067  0.3807119331  1.7073108027
H   1.4098189835 -1.0403636385 -1.3961645302
H   1.8643649339 -1.1573222572  0.3985686721
7
Iter 65 Image 2  Energy = -153.9041429923
C   0.8790737017  0.6205926408 -0.1963904471
H   0.4879626827  1.2848627374 -0.9561302544
O   0.7971818242  1.0953753351  1.0756919380
C   1.3933206222 -0.5890362868 -0.3809792500
H   0.8271287746  0.2619706818  1.5595598613
H   1.2746942607 -1.1847643048 -1.2640079604
H   1.9418793097 -0.9986338331  0.4561940978
7
Iter 65 Image 3  Energy = -153.8889282027
C   0.9046243630  0.6542854391 -0.2050937778
H   0.5288762568  1.3404738408 -0.9548826174
O   0.8085145766  1.0608459969  1.0868411981
C   1.3955060702 -0.5704033023 -0.3548221524
H   0.7515487677  0.1469714991  1.4275137850
H   1.1677375544 -1.2397552731 -1.1520869113
H   2.0444336289 -0.9020505891  0.4464680013
7
Iter 65 Image 4  Energy = -153.8533749581
C   0.9183413317  0.6974758800 -0.1883222674
H   0.5621478089  1.3864366760 -0.9597158199
O   0.7952869893  1.0683897744  1.0880844050
C   1.3450673165 -0.5624365776 -0.2633136914
H   0.7467790665 -0.0017367325  1.2339460130
H   1.0944250162 -1.2526197090 -1.0484211799
H   2.1391938659 -0.8451409598  0.4316803614
7
Iter 65 Image 5  Energy = -153.8286419869
C   0.9079534147  0.7842971472 -0.1263424092
H   0.5531414588  1.4050476828 -0.9499211675
O   0.7967204571  1.2142607771  1.0469211845
C   1.2674184004 -0.5919116588 -0.1453693797
H   0.7809623520 -0.2386923310  1.0871928326
H   1.1334025303 -1.2184879023 -1.0456812642
H   2.1616428414 -0.8641456853  0.4271379234
7
Iter 65 Image 6  Energy = -153.8940177857
C   0.9123319482  0.8548840506 -0.0790784523
H   0.5807561286  1.3936111380 -0.9774105946
O   0.8157974019  1.3738119733  1.0099791955
C   1.2667505001 -0.5794120782 -0.0526242040
H   0.7310764159 -0.5392679340  0.9494091474
H   1.0606567792 -1.2010664140 -0.9405942814
H   2.2338721115 -0.8121932056  0.3842569411
7
Iter 65 Image 7  Energy = -153.9261304253
C   0.9001361249  0.8869199834 -0.0498718328
H   0.6615804073  1.3535012377 -1.0226100501
O   0.8006854678  1.5309635342  0.9627884450
C   1.2509125281 -0.5659265001  0.0269119403
H   0.7117231229 -0.8157627794  0.9360515499
H   0.9829470259 -1.1609951848 -0.8485078899
H   2.2932566145 -0.7383334878  0.2891757847
7
Iter 65 Image 8  Energy = -153.9301117881
C   0.8696135198  0.8909489500  0.0177720481
H   0.7246082049  1.3298339910 -0.9818822122
O   0.7616409845  1.6045339625  1.0087133435
C   1.2293783421 -0.5644118277  0.0533863078
H   0.6994656957 -1.0910777317  0.8417655226
H   1.0213078995 -1.0291435114 -0.9082457956
H   2.2952271388 -0.6503171238  0.2624299225
7
Iter 65 Image 9  Energy = -153.9312840577
C   0.8541265231  0.8904365585  0.0059546269
H   0.8230288046  1.3332323489 -1.0082142095
O   0.5970511346  1.5658971747  0.9706193552
C   1.2461966950 -0.5584618128  0.0688461424
H   0.7981284991 -1.0300445075  0.9401043713
H   0.9511765854 -1.0781330636 -0.8425767967
H   2.3315332945 -0.6325598372  0.1592051421
7
Iter 65 Image 10  Energy = -153.9315539641
C   0.8261006768  0.8819310668 -0.0097966347
H   0.9136767363  1.3286618857 -1.0190685714
O   0.4067789925  1.5359478100  0.9091941923
C   1.2696305888 -0.5490987023  0.0928102637
H   0.9261478887 -0.9925751364  1.0223501378
H   0.8993929565 -1.1205628293 -0.7581917976
H   2.3595137386 -0.5939372471  0.0566410428
7
Iter 65 Image 11  Energy = -153.9315568446
C   0.7840367852  0.8656586589 -0.0371164025
H   0.9809293880  1.3403901038 -1.0231241499
O   0.1875804579  1.4681235287  0.8223429327
C   1.3100769769 -0.5359012779  0.1153731248
H   1.0639489065 -0.9236344469  1.1059940899
H   0.8779311114 -1.1816924395 -0.6582837811
H   2.3967379442 -0.5425772870 -0.0312469938
7
Iter 66 Image 0  Energy = -153.9146221658
C   0.8260657415  0.5508603911 -0.1261794589
H   0.4554445983  1.2417513435 -0.8784317668
O   0.5680753083  1.0246514429  1.1187434847
C   1.4411098584 -0.5873603774 -0.4363613732
H   0.9099091373  0.3932317500  1.7666320721
H   1.5916834696 -0.8592929697 -1.4741885892
H   1.8089534565 -1.2734747403  0.3237244514
7
Iter 66 Image 1  Energy = -153.9131085220
C   0.8560746148  0.5771787899 -0.1625808714
H   0.4681422760  1.2348367570 -0.9300167674
O   0.7212278982  1.0986988529  1.0869306537
C   1.4083005417 -0.6035091916 -0.4108173296
H   0.8740700931  0.3815593951  1.7074255171
H   1.4091851150 -1.0410245745 -1.3958653171
H   1.8642407215 -1.1573731256  0.3988621096
7
Iter 66 Image 2  Energy = -153.9041403145
C   0.8787956002  0.6206788298 -0.1964020037
H   0.4879994605  1.2852654053 -0.9559486469
O   0.7974864638  1.0953852921  1.0757344167
C   1.3933770292 -0.5892860276 -0.3811259318
H   0.8265910444  0.2620642370  1.5597879121
H   1.2750016327 -1.1851321243 -1.2641428753
H   1.9419899476 -0.9986086348  0.4560351304
7
Iter 66 Image 3  Energy = -153.8890515017
C   0.9041414490  0.6542222768 -0.2048318677
H   0.5289627894  1.3403809461 -0.9552448323
O   0.8083364926  1.0616187706  1.0867366052
C   1.3949841280 -0.5704720003 -0.3550303772
H   0.7523623312  0.1469262907  1.4289090019
H   1.1689620477 -1.2396286272 -1.1531562223
H   2.0434919854 -0.9026800134  0.4465552172
7
Iter 66 Image 4  Energy = -153.8524803319
C   0.9175589187  0.6980701674 -0.1869796516
H   0.5613443073  1.3864595875 -0.9596084162
O   0.7959142321  1.0733897744  1.0871392903
C   1.3425217938 -0.5627720879 -0.2619097855
H   0.7484805207 -0.0064526601  1.2342202147
H   1.0980580181 -1.2514670671 -1.0513642553
H   2.1373636095 -0.8468593439  0.4324404157
7
Iter 66 Image 5  Energy = -153.8285487572
C   0.9072972577  0.7841725588 -0.1262827244
H   0.5532764101  1.4053412412 -0.9500329762
O   0.7963258091  1.2146932351  1.0468130935
C   1.2666102009 -0.5922123599 -0.1456863723
H   0.7819188172 -0.2385412187  1.0890224122
H   1.1352865972 -1.2181437967 -1.0470651262
H   2.1605263682 -0.8649415969  0.4271694045
7
Iter 66 Image 6  Energy = -153.8937392534
C   0.9120037226  0.8547947663 -0.0786529246
H   0.5797291745  1.3941215915 -0.9763932842
O   0.8163722071  1.3729676052  1.0108634299
C   1.2666961229 -0.5794217075 -0.0536960382
H   0.7308029894 -0.5389143164  0.9488334521
H   1.0631696455 -1.2005074477 -0.9428989470
H   2.2324674289 -0.8126729290  0.3858820520
7
Iter 66 Image 7  Energy = -153.9260688896
C   0.9002642548  0.8869191354 -0.0501393280
H   0.6608307522  1.3538475581 -1.0224709565
O   0.8019667895  1.5308341479  0.9628660526
C   1.2507282227 -0.5659851057  0.0264225268
H   0.7115389932 -0.8148388761  0.9358925072
H   0.9833259709 -1.1616026693 -0.8489526816
H   2.2925863116 -0.7388073810  0.2903198353
7
Iter 66 Image 8  Energy = -153.9299517723
C   0.8696931128  0.8902928462  0.0168146218
H   0.7247220167  1.3297694411 -0.9822914019
O   0.7608755971  1.6046609422  1.0099580293
C   1.2298727998 -0.5644614989  0.0530777346
H   0.6996723950 -1.0896314948  0.8420789527
H   1.0207270976 -1.0297081170 -0.9081319033
H   2.2956787675 -0.6505554116  0.2624331092
7
Iter 66 Image 9  Energy = -153.9312843381
C   0.8540483589  0.8903466336  0.0057925212
H   0.8236586170  1.3333030042 -1.0083645176
O   0.5958126247  1.5653895437  0.9705031628
C   1.2464748889 -0.5584309972  0.0687789205
H   0.7988240463 -1.0290086727  0.9407686378
H   0.9505422361 -1.0785654339 -0.8421793221
H   2.3318807635 -0.6326672158  0.1586392240
7
Iter 66 Image 10  Energy = -153.9315547828
C   0.8261177224  0.8819419148 -0.0097535072
H   0.9137409072  1.3287061055 -1.0190722592
O   0.4067026490  1.5357106290  0.9092530577
C   1.2696842184 -0.5491065576  0.0927365377
H   0.9261035911 -0.9922674866  1.0223593127
H   0.8993219383 -1.1205981930 -0.7582057724
H   2.3595705516 -0.5940195643  0.0566212606
7
Iter 66 Image 11  Energy = -153.9315568446
C   0.7840367852  0.8656586589 -0.0371164025
H   0.9809293880  1.3403901038 -1.0231241499
O   0.1875804579  1.4681235287  0.8223429327
C   1.3100769769 -0.5359012779  0.1153731248
H   1.0639489065 -0.9236344469  1.1059940899
H   0.8779311114 -1.1816924395 -0.6582837811
H   2.3967379442 -0.5425772870 -0.0312469938
7
Iter 67 Image 0  Energy = -153.9146221658
C   0.8260657415  0.5508603911 -0.1261794589
H   0.4554445983  1.2417513435 -0.8784317668
O   0.5680753083  1.0246514429  1.1187434847
C   1.4411098584 -0.5873603774 -0.4363613732
H   0.9099091373  0.3932317500  1.7666320721
H   1.5916834696 -0.8592929697 -1.4741885892
H   1.8089534565 -1.2734747403  0.3237244514
7
Iter 67 Image 1  Energy = -153.9131105219
C   0.8561071705  0.5771176566 -0.1627425599
H   0.4681763155  1.2345745471 -0.9302865879
O   0.7211961190  1.0989889634  1.0866088225
C   1.4085654799 -0.6036252093 -0.4107644956
H   0.8745051389  0.3824229481  1.7075540444
H   1.4085773921 -1.0416714763 -1.3955765716
H   1.8641136427 -1.1574405293  0.3991453439
7
Iter 67 Image 2  Energy = -153.9041446088
C   0.8785323719  0.6207338108 -0.1964070506
H   0.4880134381  1.2856191992 -0.9557691189
O   0.7977695789  1.0954090038  1.0757703090
C   1.3934107741 -0.5895367216 -0.3812887068
H   0.8261117568  0.2622312341  1.5600974285
H   1.2753793584 -1.1854497735 -1.2643485312
H   1.9420239000 -0.9986397677  0.4558836859
7
Iter 67 Image 3  Energy = -153.8891622466
C   0.9036659973  0.6542115849 -0.2045379595
H   0.5290351234  1.3402993106 -0.9555729194
O   0.8081601595  1.0623805283  1.0866864684
C   1.3943344523 -0.5705680467 -0.3551227369
H   0.7532418659  0.1467836388  1.4300848557
H   1.1702678932 -1.2394109227 -1.1542558094
H   2.0425357355 -0.9033284175  0.4466556267
7
Iter 67 Image 4  Energy = -153.8515449820
C   0.9167436943  0.6986117771 -0.1855867540
H   0.5606439543  1.3864689173 -0.9594543109
O   0.7964317883  1.0783897744  1.0862505906
C   1.3400014445 -0.5631140385 -0.2605489576
H   0.7501245491 -0.0111163222  1.2344904347
H   1.1017099040 -1.2502493118 -1.0542808086
H   2.1355860733 -0.8486224141  0.4330676107
7
Iter 67 Image 5  Energy = -153.8284950408
C   0.9066117253  0.7840814112 -0.1261655086
H   0.5534607769  1.4055853712 -0.9501917091
O   0.7959212521  1.2152259433  1.0466423581
C   1.2657419404 -0.5925180954 -0.1458483757
H   0.7829070948 -0.2385536008  1.0907415165
H   1.1371468322 -1.2177134391 -1.0483677385
H   2.1594518461 -0.8657395024  0.4271271655
7
Iter 67 Image 6  Energy = -153.8934703742
C   0.9116717740  0.8547017059 -0.0782418811
H   0.5787571273  1.3946194233 -0.9754242055
O   0.8168962603  1.3721814272  1.0116841989
C   1.2665957966 -0.5794423918 -0.0546917257
H   0.7305825585 -0.5385965338  0.9483314884
H   1.0656594141 -1.1999271204 -0.9451376129
H   2.2310783665 -0.8131689143  0.3874174616
7
Iter 67 Image 7  Energy = -153.9260066030
C   0.9004101989  0.8869203320 -0.0503941672
H   0.6600532195  1.3541965929 -1.0223075167
O   0.8032277360  1.5306726343  0.9629581391
C   1.2505585933 -0.5660465385  0.0259390982
H   0.7113051881 -0.8139194817  0.9357011012
H   0.9837642390 -1.1621742196 -0.8494219601
H   2.2919221219 -0.7392825022  0.2914632684
7
Iter 67 Image 8  Energy = -153.9297897220
C   0.8697564261  0.8896827289  0.0159258618
H   0.7248034816  1.3297114545 -0.9826824745
O   0.7601856059  1.6047587514  1.0111510869
C   1.2303463317 -0.5645075949  0.0527825087
H   0.6998349422 -1.0882566220  0.8423598127
H   1.0201956061 -1.0302337347 -0.9080333509
H   2.2961193920 -0.6507882768  0.2624357009
7
Iter 67 Image 9  Energy = -153.9312847811
C   0.8539690981  0.8902688161  0.0056482258
H   0.8242815613  1.3333759711 -1.0085057973
O   0.5945978601  1.5648914749  0.9703737119
C   1.2467440995 -0.5583998114  0.0687167271
H   0.7995109569 -1.0280205591  0.9414072675
H   0.9499229406 -1.0789822313 -0.8417809976
H   2.3322150175 -0.6327667985  0.1580794858
7
Iter 67 Image 10  Energy = -153.9315556322
C   0.8261202275  0.8819545222 -0.0097113795
H   0.9138341891  1.3287543411 -1.0190758413
O   0.4065694485  1.5354620828  0.9092807885
C   1.2697444467 -0.5491109603  0.0926730489
H   0.9261017202 -0.9919585322  1.0223949889
H   0.8992385703 -1.1206459187 -0.7581887631
H   2.3596329749 -0.5940886864  0.0565657843
7
Iter 67 Image 11  Energy = -153.9315568446
C   0.7840367852  0.8656586589 -0.0371164025
H   0.9809293880  1.3403901038 -1.0231241499
O   0.1875804579  1.4681235287  0.8223429327
C   1.3100769769 -0.5359012779  0.1153731248
H   1.0639489065 -0.9236344469  1.1059940899
H   0.8779311114 -1.1816924395 -0.6582837811
H   2.3967379442 -0.5425772870 -0.0312469938
7
Iter 68 Image 0  Energy = -153.9146221658
C   0.8260657415  0.5508603911 -0.1261794589
H   0.4554445983  1.2417513435 -0.8784317668
O   0.5680753083  1.0246514429  1.1187434847
C   1.4411098584 -0.5873603774 -0.4363613732
H   0.9099091373  0.3932317500  1.7666320721
H   1.5916834696 -0.8592929697 -1.4741885892
H   1.8089534565 -1.2734747403  0.3237244514
7
Iter 68 Image 1  Energy = -153.9131133645
C   0.8561479703  0.5770514651 -0.1629000933
H   0.4682043229  1.2342968012 -0.9305609645
O   0.7211599792  1.0992967317  1.0862797975
C   1.4087999079 -0.6037575666 -0.4107046792
H   0.8749547846  0.3833187501  1.7077002049
H   1.4079931629 -1.0423097696 -1.3952966319
H   1.8639811268 -1.1575295129  0.3994203612
7
Iter 68 Image 2  Energy = -153.9041572306
C   0.8782798796  0.6207613839 -0.1964046985
H   0.4880027655  1.2859192812 -0.9555899575
O   0.7980308899  1.0954484248  1.0757988419
C   1.3934219123 -0.5897982473 -0.3814725689
H   0.8256944480  0.2624834633  1.5605055808
H   1.2758441182 -1.1857121218 -1.2646379000
H   1.9419671657 -0.9987351924  0.4557387314
7
Iter 68 Image 3  Energy = -153.8892605608
C   0.9032001005  0.6542438773 -0.2042073761
H   0.5291045371  1.3402372701 -0.9558660354
O   0.8079733037  1.0631217912  1.0866959445
C   1.3935327788 -0.5706766822 -0.3550894989
H   0.7541960540  0.1465346472  1.4310321279
H   1.1716676253 -1.2390913691 -1.1553925986
H   2.0415668304 -0.9040018268  0.4467649602
7
Iter 68 Image 4  Energy = -153.8505815336
C   0.9158752251  0.6991685588 -0.1841628375
H   0.5600561864  1.3864320360 -0.9592721145
O   0.7968339036  1.0833897744  1.0853717628
C   1.3375373597 -0.5635257821 -0.2592449026
H   0.7517188927 -0.0157040352  1.2348553412
H   1.1053667302 -1.2489565313 -1.0571625716
H   2.1338531162 -0.8504356209  0.4335531214
7
Iter 68 Image 5  Energy = -153.8284790556
C   0.9058892861  0.7840168794 -0.1259920795
H   0.5537084364  1.4057755542 -0.9504120231
O   0.7954891109  1.2158649304  1.0463902279
C   1.2648077969 -0.5928241901 -0.1458534266
H   0.7839417342 -0.2387252520  1.0924048493
H   1.1389919606 -1.2171882319 -1.0496002635
H   2.1584131496 -0.8665515735  0.4270004154
7
Iter 68 Image 6  Energy = -153.8932073101
C   0.9113315413  0.8545986848 -0.0778545735
H   0.5778339860  1.3951072260 -0.9744965933
O   0.8173660202  1.3714516071  1.0124534207
C   1.2664418752 -0.5794766621 -0.0556152828
H   0.7304200489 -0.5383091986  0.9479151133
H   1.0681592572 -1.1993101546 -0.9473372800
H   2.2296885764 -0.8136938766  0.3888729084
7
Iter 68 Image 7  Energy = -153.9259434710
C   0.9005791069  0.8869239310 -0.0506374362
H   0.6592324491  1.3545530793 -1.0221127997
O   0.8044864548  1.5304801093  0.9630728859
C   1.2504013936 -0.5661111430  0.0254587629
H   0.7110035310 -0.8130116135  0.9354645651
H   0.9842808153 -1.1627050126 -0.8499294617
H   2.2912575497 -0.7397625259  0.2926214496
7
Iter 68 Image 8  Energy = -153.9296338866
C   0.8698009061  0.8891345940  0.0151359909
H   0.7248692036  1.3296608022 -0.9830599365
O   0.7595393557  1.6048010391  1.0122707438
C   1.2308028489 -0.5645516070  0.0525003829
H   0.6999692351 -1.0869501431  0.8426148820
H   1.0197061878 -1.0307188711 -0.9079451337
H   2.2965540478 -0.6510091142  0.2624222211
7
Iter 68 Image 9  Energy = -153.9312852411
C   0.8538919569  0.8901972957  0.0055092805
H   0.8249019748  1.3334537216 -1.0086398096
O   0.5933931055  1.5644022096  0.9702372443
C   1.2470071460 -0.5583666187  0.0686598996
H   0.8001946685 -1.0270685558  0.9420283105
H   0.9493129546 -1.0793894829 -0.8413757908
H   2.3325397249 -0.6328617070  0.1575194842
7
Iter 68 Image 10  Energy = -153.9315565406
C   0.8261105478  0.8819629996 -0.0096792732
H   0.9139608183  1.3288082439 -1.0190787337
O   0.4063676442  1.5352037498  0.9092825457
C   1.2698127606 -0.5491111590  0.0926205567
H   0.9261468343 -0.9916445609  1.0224609840
H   0.8991404578 -1.1207080436 -0.7581374960
H   2.3597025134 -0.5941443815  0.0564700402
7
Iter 68 Image 11  Energy = -153.9315568446
C   0.7840367852  0.8656586589 -0.0371164025
H   0.9809293880  1.3403901038 -1.0231241499
O   0.1875804579  1.4681235287  0.8223429327
C   1.3100769769 -0.5359012779  0.1153731248
H   1.0639489065 -0.9236344469  1.1059940899
H   0.8779311114 -1.1816924395 -0.6582837811
H   2.3967379442 -0.5425772870 -0.0312469938
7
Iter 69 Image 0  Energy = -153.9146221658
C   0.8260657415  0.5508603911 -0.1261794589
H   0.4554445983  1.2417513435 -0.8784317668
O   0.5680753083  1.0246514429  1.1187434847
C   1.4411098584 -0.5873603774 -0.4363613732
H   0.9099091373  0.3932317500  1.7666320721
H   1.5916834696 -0.8592929697 -1.4741885892
H   1.8089534565 -1.2734747403  0.3237244514
7
Iter 69 Image 1  Energy = -153.9131173330
C   0.8561950539  0.5769759496 -0.1630538355
H   0.4682255429  1.2339951414 -0.9308426747
O   0.7211165448  1.0996276018  1.0859398338
C   1.4090042660 -0.6039109318 -0.4106374859
H   0.8754290742  0.3842693488  1.7078730804
H   1.4074345206 -1.0429387694 -1.3950282505
H   1.8638362495 -1.1576514400  0.3996873275
7
Iter 69 Image 2  Energy = -153.9041785972
C   0.8780407166  0.6207480821 -0.1963949375
H   0.4879682036  1.2861699219 -0.9554107792
O   0.7982702783  1.0955058733  1.0758211353
C   1.3934038062 -0.5900610069 -0.3816732130
H   0.8253374265  0.2628221610  1.5610146424
H   1.2764036061 -1.1859184826 -1.2650172551
H   1.9418171402 -0.9988995437  0.4555984491
7
Iter 69 Image 3  Energy = -153.8893468199
C   0.9027218191  0.6543458947 -0.2038313771
H   0.5291853184  1.3401963035 -0.9561217743
O   0.8077681509  1.0638360670  1.0867664359
C   1.3925690245 -0.5708255979 -0.3549296853
H   0.7552327994  0.1461723292  1.4317520225
H   1.1731822668 -1.2386463715 -1.1565715624
H   2.0405818566 -0.9047108836  0.4468734665
7
Iter 69 Image 4  Energy = -153.8495825380
C   0.9149914542  0.6996650053 -0.1827076228
H   0.5595890111  1.3863599163 -0.9591091279
O   0.7971023508  1.0883897744  1.0844849969
C   1.3350536501 -0.5639083292 -0.2579164174
H   0.7532908931 -0.0202450230  1.2352880564
H   1.1090048708 -1.2475891327 -1.0599910928
H   2.1322091889 -0.8523037961  0.4338889948
7
Iter 69 Image 5  Energy = -153.8285014078
C   0.9051165283  0.7839805775 -0.1257650295
H   0.5540348086  1.4059043162 -0.9507067251
O   0.7950108974  1.2166220097  1.0460498461
C   1.2637945175 -0.5931422794 -0.1456788756
H   0.7850441753 -0.2390512782  1.0940246995
H   1.1408254191 -1.2165559830 -1.0507678476
H   2.1574151350 -0.8673892121  0.4267816148
7
Iter 69 Image 6  Energy = -153.8929499061
C   0.9109729701  0.8544913147 -0.0774717001
H   0.5769629000  1.3955829372 -0.9736149987
O   0.8177764314  1.3707763174  1.0131575554
C   1.2662310433 -0.5795252470 -0.0564654923
H   0.7303188553 -0.5380587112  0.9475953500
H   1.0706877608 -1.1986432498 -0.9495128816
H   2.2282913560 -0.8142556964  0.3902498686
7
Iter 69 Image 7  Energy = -153.9258793598
C   0.9007698234  0.8869327713 -0.0508619398
H   0.6583571980  1.3549212449 -1.0218817436
O   0.8057581254  1.5302527888  0.9632085390
C   1.2502540836 -0.5661787857  0.0249775447
H   0.7106231555 -0.8121150917  0.9351734271
H   0.9848929914 -1.1631922187 -0.8504872580
H   2.2905859246 -0.7402538714  0.2938094029
7
Iter 69 Image 8  Energy = -153.9294822793
C   0.8698321411  0.8886304747  0.0144146522
H   0.7249195701  1.3296168091 -0.9834198497
O   0.7589231482  1.6047930556  1.0133395066
C   1.2312475493 -0.5645888646  0.0522311643
H   0.7000791439 -1.0856926647  0.8428499682
H   1.0192536741 -1.0311701103 -0.9078649911
H   2.2969865585 -0.6512220030  0.2623887080
7
Iter 69 Image 9  Energy = -153.9312859486
C   0.8538145644  0.8901356829  0.0053805566
H   0.8255262593  1.3335384097 -1.0087687429
O   0.5921873627  1.5639133601  0.9700864264
C   1.2472668248 -0.5583309880  0.0686085146
H   0.8008818299 -1.0261442895  0.9426384833
H   0.9487062137 -1.0797921214 -0.8409590758
H   2.3328584745 -0.6329531913  0.1569524532
7
Iter 69 Image 10  Energy = -153.9315575159
C   0.8260858001  0.8819709566 -0.0096515302
H   0.9141233073  1.3288694842 -1.0190805765
O   0.4060948931  1.5349288638  0.9092517361
C   1.2698899190 -0.5491075618  0.0925792333
H   0.9262414042 -0.9913220222  1.0225584256
H   0.8990264525 -1.1207859643 -0.7580501362
H   2.3597797995 -0.5941869104  0.0563314670
7
Iter 69 Image 11  Energy = -153.9315568446
C   0.7840367852  0.8656586589 -0.0371164025
H   0.9809293880  1.3403901038 -1.0231241499
O   0.1875804579  1.4681235287  0.8223429327
C   1.3100769769 -0.5359012779  0.1153731248
H   1.0639489065 -0.9236344469  1.1059940899
H   0.8779311114 -1.1816924395 -0.6582837811
H   2.3967379442 -0.5425772870 -0.0312469938
7
Iter 70 Image 0  Energy = -153.9146221658
C   0.8260657415  0.5508603911 -0.1261794589
H   0.4554445983  1.2417513435 -0.8784317668
O   0.5680753083  1.0246514429  1.1187434847
C   1.4411098584 -0.5873603774 -0.4363613732
H   0.9099091373  0.3932317500  1.7666320721
H   1.5916834696 -0.8592929697 -1.4741885892
H   1.8089534565 -1.2734747403  0.3237244514
7
Iter 70 Image 1  Energy = -153.9131228748
C   0.8562431647  0.5768917424 -0.1632067597
H   0.4682403974  1.2336549564 -0.9311382597
O   0.7210626564  1.0999901620  1.0855799816
C   1.4091872568 -0.6040981503 -0.4105623010
H   0.8759460465  0.3853143748  1.7080830389
H   1.4068932065 -1.0435671360 -1.3947679244
H   1.8636685211 -1.1578190516  0.3999502156
7
Iter 70 Image 2  Energy = -153.9042073269
C   0.8777853981  0.6207461036 -0.1963785802
H   0.4879194252  1.2863744699 -0.9552199522
O   0.7984956761  1.0955736122  1.0758362090
C   1.3933763397 -0.5903770533 -0.3818967480
H   0.8250256418  0.2632458873  1.5616238588
H   1.2770662845 -1.1860684210 -1.2654791524
H   1.9415724158 -0.9991275792  0.4554524204
7
Iter 70 Image 3  Energy = -153.8894241952
C   0.9022401952  0.6544413923 -0.2034051048
H   0.5292920658  1.3401957683 -0.9563595097
O   0.8075261390  1.0645243998  1.0868970427
C   1.3914017924 -0.5709513428 -0.3546457225
H   0.7563640289  0.1457060157  1.4322897437
H   1.1748362496 -1.2380693420 -1.1578170388
H   2.0395807718 -0.9054791147  0.4469781072
7
Iter 70 Image 4  Energy = -153.8485579059
C   0.9140245867  0.7002753272 -0.1812478127
H   0.5592727092  1.3862134103 -0.9590026865
O   0.7972278519  1.0933897744  1.0835368181
C   1.3326147532 -0.5644369509 -0.2565594368
H   0.7548690479 -0.0247273066  1.2358803364
H   1.1125902656 -1.2461327788 -1.0627238512
H   2.1306422124 -0.8542130419  0.4340544092
7
Iter 70 Image 5  Energy = -153.8285533232
C   0.9042789481  0.7839466488 -0.1254903216
H   0.5544539740  1.4059720264 -0.9510977276
O   0.7944551053  1.2174949677  1.0456084674
C   1.2626817883 -0.5934737894 -0.1453329315
H   0.7862503227 -0.2394846332  1.0956852919
H   1.1426791185 -1.2158063476 -1.0519058354
H   2.1564422299 -0.8682806907  0.4264707320
7
Iter 70 Image 6  Energy = -153.8926905109
C   0.9105821591  0.8543676987 -0.0771160815
H   0.5761279877  1.3960489457 -0.9727610604
O   0.8181275570  1.3701545767  1.0138416895
C   1.2659609797 -0.5795926301 -0.0572609075
H   0.7302780955 -0.5378372701  0.9473764453
H   1.0733081708 -1.1979007021 -0.9517261134
H   2.2268563762 -0.8148729131  0.3915837191
7
Iter 70 Image 7  Energy = -153.9258124406
C   0.9009841038  0.8869340617 -0.0510888054
H   0.6574009363  1.3553126727 -1.0216024416
O   0.8070872199  1.5299990330  0.9633899463
C   1.2501069347 -0.5662497957  0.0244816005
H   0.7101490110 -0.8112184611  0.9348122347
H   0.9856295605 -1.1636385547 -0.8511235232
H   2.2898835379 -0.7407721062  0.2950689609
7
Iter 70 Image 8  Energy = -153.9293393865
C   0.8698448047  0.8881733448  0.0137776212
H   0.7249946847  1.3295765863 -0.9837633158
O   0.7582665633  1.6047166012  1.0143512659
C   1.2316900799 -0.5646168355  0.0519725253
H   0.7002003334 -1.0844814508  0.8430791919
H   1.0188152292 -1.0315888628 -0.9077869259
H   2.2974300909 -0.6514126939  0.2623088080
7
Iter 70 Image 9  Energy = -153.9312869282
C   0.8537354644  0.8900865365  0.0052625934
H   0.8261666229  1.3336345690 -1.0088983216
O   0.5909527133  1.5634047984  0.9699115607
C   1.2475309267 -0.5582922484  0.0685604673
H   0.8015871932 -1.0252146112  0.9432576052
H   0.9480875658 -1.0802040380 -0.8405195226
H   2.3331810400 -0.6330481435  0.1563642284
7
Iter 70 Image 10  Energy = -153.9315586473
C   0.8260434299  0.8819825374 -0.0096212480
H   0.9143212966  1.3289413998 -1.0190803259
O   0.4057520126  1.5346248182  0.9091826345
C   1.2699778371 -0.5491005154  0.0925466713
H   0.9263836569 -0.9909813019  1.0226866046
H   0.8988970948 -1.1208813615 -0.7579270252
H   2.3598662473 -0.5942187310  0.0561513052
7
Iter 70 Image 11  Energy = -153.9315568446
C   0.7840367852  0.8656586589 -0.0371164025
H   0.9809293880  1.3403901038 -1.0231241499
O   0.1875804579  1.4681235287  0.8223429327
C   1.3100769769 -0.5359012779  0.1153731248
H   1.0639489065 -0.9236344469  1.1059940899
H   0.8779311114 -1.1816924395 -0.6582837811
H   2.3967379442 -0.5425772870 -0.0312469938
7
Iter 71 Image 0  Energy = -153.9146221658
C   0.8260657415  0.5508603911 -0.1261794589
H   0.4554445983  1.2417513435 -0.8784317668
O   0.5680753083  1.0246514429  1.1187434847
C   1.4411098584 -0.5873603774 -0.4363613732
H   0.9099091373  0.3932317500  1.7666320721
H   1.5916834696 -0.8592929697 -1.4741885892
H   1.8089534565 -1.2734747403  0.3237244514
7
Iter 71 Image 1  Energy = -153.9131305720
C   0.8563077427  0.5767659655 -0.1633543000
H   0.4682442020  1.2332786337 -0.9314522079
O   0.7209947408  1.1003985516  1.0851933541
C   1.4093259054 -0.6042949698 -0.4104721413
H   0.8765101737  0.3864503590  1.7083376562
H   1.4063798691 -1.0441897725 -1.3945230709
H   1.8634786109 -1.1580418772  0.4002087009
7
Iter 71 Image 2  Energy = -153.9042489784
C   0.8775886757  0.6205913520 -0.1963487857
H   0.4878406722  1.2865484619 -0.9550450683
O   0.7986902526  1.0956741722  1.0758496058
C   1.3932668931 -0.5905955611 -0.3821328367
H   0.8247774524  0.2637601559  1.5623492379
H   1.2778452088 -1.1861641911 -1.2660586070
H   1.9412320321 -0.9994473613  0.4553245210
7
Iter 71 Image 3  Energy = -153.8894878357
C   0.9016860878  0.6547252956 -0.2029466840
H   0.5294629751  1.3402042061 -0.9565615935
O   0.8072347676  1.0651730269  1.0870681318
C   1.3901200954 -0.5712253793 -0.3542127907
H   0.7575786619  0.1451077813  1.4326447906
H   1.1765874554 -1.2373407871 -1.1590865263
H   2.0385712065 -0.9062763243  0.4470321902
7
Iter 71 Image 4  Energy = -153.8474950952
C   0.9131356387  0.7006408791 -0.1798100772
H   0.5590656741  1.3860480458 -0.9590239407
O   0.7971923001  1.0983897744  1.0825635661
C   1.3299724726 -0.5647529471 -0.2550638938
H   0.7565128242 -0.0291589796  1.2365393570
H   1.1161234526 -1.2446010934 -1.0653816566
H   2.1292390734 -0.8561972222  0.4341144057
7
Iter 71 Image 5  Energy = -153.8286372994
C   0.9033728232  0.7839382745 -0.1252082201
H   0.5549977893  1.4059546823 -0.9516102388
O   0.7937902843  1.2185088235  1.0450619925
C   1.2614907934 -0.5938578147 -0.1447952223
H   0.7875646383 -0.2400203279  1.0974177576
H   1.1444948497 -1.2149386786 -1.0529648374
H   2.1555303150 -0.8692167430  0.4260364429
7
Iter 71 Image 6  Energy = -153.8924303793
C   0.9101634706  0.8542361811 -0.0767267932
H   0.5753530605  1.3964992011 -0.9719710900
O   0.8183930527  1.3695664533  1.0144227937
C   1.2656159999 -0.5796722547 -0.0579757867
H   0.7303173391 -0.5376296744  0.9472959188
H   1.0759879414 -1.1970837756 -0.9539490683
H   2.2254104721 -0.8155483875  0.3928417045
7
Iter 71 Image 7  Energy = -153.9257448866
C   0.9012185664  0.8869708962 -0.0512510554
H   0.6563651563  1.3557218306 -1.0212761183
O   0.8084649035  1.5296896030  0.9635649283
C   1.2499705379 -0.5663289427  0.0239771031
H   0.7095616297 -0.8103504856  0.9343745754
H   0.9865021981 -1.1640254648 -0.8518391794
H   2.2891583138 -0.7413105649  0.2963877231
7
Iter 71 Image 8  Energy = -153.9292092717
C   0.8698509442  0.8877646522  0.0132091149
H   0.7250760666  1.3295495969 -0.9840998845
O   0.7575706032  1.6045420851  1.0152924592
C   1.2321361575 -0.5646370933  0.0517185785
H   0.7003315430 -1.0832450313  0.8433288247
H   1.0183881021 -1.0320016696 -0.9076925407
H   2.2978883722 -0.6516058554  0.2621826317
7
Iter 71 Image 9  Energy = -153.9312868455
C   0.8536699549  0.8900122806  0.0050922327
H   0.8268238068  1.3337427159 -1.0090245282
O   0.5896740457  1.5629157663  0.9697632992
C   1.2477979010 -0.5582469139  0.0685211025
H   0.8023118161 -1.0242841544  0.9438884530
H   0.9474572187 -1.0806265691 -0.8400514468
H   2.3335067832 -0.6331462622  0.1557494967
7
Iter 71 Image 10  Energy = -153.9315593986
C   0.8260081311  0.8819559123 -0.0096516462
H   0.9145572998  1.3290250408 -1.0190735657
O   0.4053034154  1.5343292041  0.9091255670
C   1.2700771480 -0.5490853372  0.0925252635
H   0.9265806603 -0.9906237809  1.0228512812
H   0.8987516664 -1.1209968592 -0.7577634825
H   2.3599632551 -0.5942373342  0.0559251979
7
Iter 71 Image 11  Energy = -153.9315568446
C   0.7840367852  0.8656586589 -0.0371164025
H   0.9809293880  1.3403901038 -1.0231241499
O   0.1875804579  1.4681235287  0.8223429327
C   1.3100769769 -0.5359012779  0.1153731248
H   1.0639489065 -0.9236344469  1.1059940899
H   0.8779311114 -1.1816924395 -0.6582837811
H   2.3967379442 -0.5425772870 -0.0312469938
7
Iter 72 Image 0  Energy = -153.9146221658
C   0.8260657415  0.5508603911 -0.1261794589
H   0.4554445983  1.2417513435 -0.8784317668
O   0.5680753083  1.0246514429  1.1187434847
C   1.4411098584 -0.5873603774 -0.4363613732
H   0.9099091373  0.3932317500  1.7666320721
H   1.5916834696 -0.8592929697 -1.4741885892
H   1.8089534565 -1.2734747403  0.3237244514
7
Iter 72 Image 1  Energy = -153.9131402313
C   0.8563368072  0.5766733516 -0.1635102955
H   0.4682481366  1.2328195727 -0.9317894746
O   0.7209106081  1.1008473494  1.0847684648
C   1.4094903738 -0.6045933422 -0.4103792078
H   0.8771616623  0.3877873166  1.7086500585
H   1.4058595391 -1.0448284167 -1.3942710731
H   1.8632341156 -1.1583389385  0.4004695158
7
Iter 72 Image 2  Energy = -153.9042865892
C   0.8772365528  0.6207303022 -0.1963230363
H   0.4877975898  1.2866752400 -0.9548054378
O   0.7989008381  1.0957404453  1.0758493729
C   1.3932602179 -0.5911249962 -0.3824107098
H   0.8245152953  0.2643287221  1.5631357861
H   1.2787208570 -1.1861980976 -1.2666517865
H   1.9408098365 -0.9997845742  0.4551438955
7
Iter 72 Image 3  Energy = -153.8895512388
C   0.9012146168  0.6546380414 -0.2024236749
H   0.5296852574  1.3403287972 -0.9568377272
O   0.8068544434  1.0658034754  1.0873009285
C   1.3884768491 -0.5711755399 -0.3536755319
H   0.7589131313  0.1444716729  1.4329401895
H   1.1785079506 -1.2364985971 -1.1604705805
H   2.0375890094 -0.9071999800  0.4471039092
7
Iter 72 Image 4  Energy = -153.8464242726
C   0.9118915957  0.7017700407 -0.1784093783
H   0.5591385146  1.3856936426 -0.9591627989
O   0.7969785234  1.1033897744  1.0813948815
C   1.3276644496 -0.5658684624 -0.2535419519
H   0.7582250717 -0.0335395995  1.2375318501
H   1.1194862771 -1.2429340437 -1.0677737046
H   2.1278570108 -0.8581428631  0.4338988561
7
Iter 72 Image 5  Energy = -153.8287240711
C   0.9023767989  0.7838493917 -0.1248582618
H   0.5556576010  1.4058867904 -0.9522742824
O   0.7929741662  1.2195903950  1.0443734799
C   1.2601507250 -0.5942331145 -0.1441146388
H   0.7890699346 -0.2405099695  1.0993626725
H   1.1464050797 -1.2139443887 -1.0540782042
H   2.1546071982 -0.8702708387  0.4255268948
7
Iter 72 Image 6  Energy = -153.8921487540
C   0.9096761618  0.8540559224 -0.0764521051
H   0.5745782471  1.3969354033 -0.9711619272
O   0.8185947733  1.3690372498  1.0151258503
C   1.2652232700 -0.5797927019 -0.0586890819
H   0.7304129249 -0.5374190980  0.9473163807
H   1.0788995378 -1.1961319298 -0.9563525977
H   2.2238564275 -0.8163170490  0.3941511454
7
Iter 72 Image 7  Energy = -153.9256682818
C   0.9014790644  0.8869241034 -0.0515366549
H   0.6551880939  1.3561826296 -1.0208701346
O   0.8100112459  1.5294092011  0.9639044895
C   1.2498027003 -0.5664075599  0.0234206126
H   0.7088629329 -0.8094363269  0.9338373270
H   0.9875630500 -1.1643843306 -0.8527097490
H   2.2883342223 -0.7419208213  0.2978920943
7
Iter 72 Image 8  Energy = -153.9290854658
C   0.8698199584  0.8873739266  0.0127051058
H   0.7253056481  1.3295167697 -0.9844118179
O   0.7566335451  1.6042918364  1.0161964382
C   1.2326016379 -0.5646335850  0.0514771772
H   0.7005864930 -1.0820531435  0.8436190033
H   1.0179022840 -1.0323934543 -0.9075828594
H   2.2983922243 -0.6517356714  0.2619361441
7
Iter 72 Image 9  Energy = -153.9312915062
C   0.8535598645  0.8900567328  0.0050913663
H   0.8275183004  1.3338763849 -1.0091753830
O   0.5883484091  1.5622591973  0.9694287482
C   1.2480899751 -0.5582071330  0.0684708623
H   0.8030829538 -1.0232569882  0.9445730647
H   0.9467839384 -1.0810919807 -0.8395371995
H   2.3338580831 -0.6332693510  0.1550871460
7
Iter 72 Image 10  Energy = -153.9315614094
C   0.8258856028  0.8820454032 -0.0095074553
H   0.9148274250  1.3291277376 -1.0190739462
O   0.4048595892  1.5338833667  0.9088870476
C   1.2701923483 -0.5490785508  0.0925001213
H   0.9268128569 -0.9902247998  1.0230391496
H   0.8985924828 -1.1211317012 -0.7575714695
H   2.3600712672 -0.5942546115  0.0556651688
7
Iter 72 Image 11  Energy = -153.9315568446
C   0.7840367852  0.8656586589 -0.0371164025
H   0.9809293880  1.3403901038 -1.0231241499
O   0.1875804579  1.4681235287  0.8223429327
C   1.3100769769 -0.5359012779  0.1153731248
H   1.0639489065 -0.9236344469  1.1059940899
H   0.8779311114 -1.1816924395 -0.6582837811
H   2.3967379442 -0.5425772870 -0.0312469938
7
Iter 73 Image 0  Energy = -153.9146221658
C   0.8260657415  0.5508603911 -0.1261794589
H   0.4554445983  1.2417513435 -0.8784317668
O   0.5680753083  1.0246514429  1.1187434847
C   1.4411098584 -0.5873603774 -0.4363613732
H   0.9099091373  0.3932317500  1.7666320721
H   1.5916834696 -0.8592929697 -1.4741885892
H   1.8089534565 -1.2734747403  0.3237244514
7
Iter 73 Image 1  Energy = -153.9131518071
C   0.8564049056  0.5764877834 -0.1636551697
H   0.4682384386  1.2323615516 -0.9321361145
O   0.7208147122  1.1013271010  1.0843357241
C   1.4095887051 -0.6048289790 -0.4102699592
H   0.8778268435  0.3891347840  1.7089881919
H   1.4053824287 -1.0454405756 -1.3940485902
H   1.8629852079 -1.1586747718  0.4007239002
7
Iter 73 Image 2  Energy = -153.9043399563
C   0.8770675210  0.6204621158 -0.1962815419
H   0.4877103180  1.2868289380 -0.9546300288
O   0.7990653207  1.0958636081  1.0758619860
C   1.3930774172 -0.5912901791 -0.3826437513
H   0.8243133854  0.2649295480  1.5639707257
H   1.2796432195 -1.1862231373 -1.2673523454
H   1.9403640058 -1.0002038382  0.4550130526
7
Iter 73 Image 3  Energy = -153.8895987213
C   0.9005286458  0.6551205895 -0.2019123616
H   0.5299888828  1.3403677525 -0.9570408614
O   0.8064629480  1.0663841078  1.0875237962
C   1.3869872465 -0.5716477288 -0.3530700475
H   0.7602617200  0.1437476858  1.4331081880
H   1.1804082589 -1.2355280016 -1.1617553239
H   2.0366035647 -0.9080764858  0.4470841205
7
Iter 73 Image 4  Energy = -153.8452750557
C   0.9110651674  0.7018674183 -0.1769856351
H   0.5591850231  1.3855189217 -0.9594616131
O   0.7966402553  1.1083897744  1.0803334196
C   1.3247419689 -0.5659332536 -0.2516722090
H   0.7600255853 -0.0379827100  1.2382008936
H   1.1228198439 -1.2413147024 -1.0702066522
H   2.1267636073 -0.8601769218  0.4337295437
7
Iter 73 Image 5  Energy = -153.8288385369
C   0.9013488448  0.7838368431 -0.1245675316
H   0.5564050580  1.4057353756 -0.9530005082
O   0.7920947625  1.2207806084  1.0436763554
C   1.2588184841 -0.5947026862 -0.1432822713
H   0.7906060626 -0.2410816190  1.1012241645
H   1.1481783902 -1.2128966849 -1.0550427274
H   2.1537899114 -0.8713035270  0.4249301648
7
Iter 73 Image 6  Energy = -153.8918805594
C   0.9091857997  0.8539112708 -0.0760273141
H   0.5738994778  1.3973388117 -0.9704713690
O   0.8187111718  1.3685067093  1.0155900715
C   1.2647892611 -0.5799057480 -0.0593006089
H   0.7305752859 -0.5372189971  0.9474505241
H   1.0817006087 -1.1951743513 -0.9586324239
H   2.2223797454 -0.8170898483  0.3953287698
7
Iter 73 Image 7  Energy = -153.9255953410
C   0.9017305016  0.8869909315 -0.0516194861
H   0.6540060464  1.3566351128 -1.0204601411
O   0.8115261100  1.5290170233  0.9640900060
C   1.2496565307 -0.5664968634  0.0228760324
H   0.7081151949 -0.8085691577  0.9332735790
H   0.9886774100 -1.1646869952 -0.8535948775
H   2.2875295200 -0.7425231294  0.2993728786
7
Iter 73 Image 8  Energy = -153.9289706961
C   0.8697949191  0.8870139448  0.0122206186
H   0.7254783855  1.3295056979 -0.9847223757
O   0.7557644495  1.6039821493  1.0170370214
C   1.2330621958 -0.5646273937  0.0512324231
H   0.7008074291 -1.0807960878  0.8439324607
H   1.0174453901 -1.0328075582 -0.9074562333
H   2.2988890235 -0.6519040770  0.2616952839
7
Iter 73 Image 9  Energy = -153.9312888832
C   0.8535225499  0.8899212519  0.0048081467
H   0.8282152436  1.3340076456 -1.0093007894
O   0.5869589134  1.5617933158  0.9693398098
C   1.2483714408 -0.5581487915  0.0684428386
H   0.8038554116 -1.0222750353  0.9452491898
H   0.9461163020 -1.0815479498 -0.8390161676
H   2.3342016613 -0.6333835757  0.1544155732
7
Iter 73 Image 10  Energy = -153.9315616252
C   0.8258784519  0.8819459200 -0.0096507773
H   0.9151097975  1.3292304753 -1.0190515441
O   0.4042617698  1.5336106769  0.9088809693
C   1.2703063634 -0.5490509850  0.0924914097
H   0.9270748844 -0.9898351628  1.0232444043
H   0.8984282801 -1.1212737148 -0.7573605623
H   2.3601820210 -0.5942603651  0.0553847162
7
Iter 73 Image 11  Energy = -153.9315568446
C   0.7840367852  0.8656586589 -0.0371164025
H   0.9809293880  1.3403901038 -1.0231241499
O   0.1875804579  1.4681235287  0.8223429327
C   1.3100769769 -0.5359012779  0.1153731248
H   1.0639489065 -0.9236344469  1.1059940899
H   0.8779311114 -1.1816924395 -0.6582837811
H   2.3967379442 -0.5425772870 -0.0312469938
7
Iter 74 Image 0  Energy = -153.9146221658
C   0.8260657415  0.5508603911 -0.1261794589
H   0.4554445983  1.2417513435 -0.8784317668
O   0.5680753083  1.0246514429  1.1187434847
C   1.4411098584 -0.5873603774 -0.4363613732
H   0.9099091373  0.3932317500  1.7666320721
H   1.5916834696 -0.8592929697 -1.4741885892
H   1.8089534565 -1.2734747403  0.3237244514
7
Iter 74 Image 1  Energy = -153.9131654365
C   0.8564435698  0.5763136508 -0.1638066369
H   0.4682288888  1.2318192989 -0.9325145187
O   0.7206988087  1.1018639641  1.0838449561
C   1.4097157736 -0.6051498579 -0.4101523368
H   0.8785928765  0.3906882681  1.7093891783
H   1.4048830455 -1.0460804165 -1.3938118046
H   1.8626782752 -1.1590880179  0.4009891421
7
Iter 74 Image 2  Energy = -153.9043876020
C   0.8767762813  0.6204145854 -0.1962394582
H   0.4876669885  1.2869773502 -0.9544013871
O   0.7992481183  1.0959569662  1.0758663781
C   1.3929604423 -0.5916858257 -0.3829198111
H   0.8240667869  0.2655415849  1.5648266108
H   1.2806350172 -1.1862080208 -1.2680375482
H   1.9398875527 -1.0006295708  0.4548433286
7
Iter 74 Image 3  Energy = -153.8896412192
C   0.8999476591  0.6551129530 -0.2013563974
H   0.5303780351  1.3405348998 -0.9573619770
O   0.8059569149  1.0670016575  1.0877640738
C   1.3851606418 -0.5716768695 -0.3522972530
H   0.7617122145  0.1429767219  1.4332997013
H   1.1824048358 -1.2345135155 -1.1631527465
H   2.0356809766 -0.9090678673  0.4470421022
7
Iter 74 Image 4  Energy = -153.8441207652
C   0.9097974454  0.7030978823 -0.1756652962
H   0.5595287367  1.3850814619 -0.9598764855
O   0.7961259550  1.1133897744  1.0790089110
C   1.3221768905 -0.5671308004 -0.2498487584
H   0.7619410835 -0.0424179111  1.2392058234
H   1.1259408326 -1.2394971580 -1.0722236441
H   2.1257305192 -0.8621546809  0.4333371865
7
Iter 74 Image 5  Energy = -153.8289420901
C   0.9002403366  0.7837314071 -0.1242558886
H   0.5572787282  1.4055377474 -0.9538828194
O   0.7910284065  1.2220212493  1.0428616245
C   1.2573697130 -0.5951665321 -0.1423543270
H   0.7923370143 -0.2415504380  1.1033508760
H   1.1500208431 -1.2117563228 -1.0560531317
H   2.1529664810 -0.8724487578  0.4242712965
7
Iter 74 Image 6  Energy = -153.8915839921
C   0.9086294662  0.8536897714 -0.0757337131
H   0.5732151684  1.3977199555 -0.9697629570
O   0.8187505115  1.3680208020  1.0162126301
C   1.2643093415 -0.5800466318 -0.0599215979
H   0.7307969594 -0.5369771787  0.9476674215
H   1.0847366080 -1.1940817633 -0.9611138496
H   2.2208033085 -0.8179570513  0.3965896963
7
Iter 74 Image 7  Energy = -153.9255125208
C   0.9020009758  0.8869650336 -0.0518591731
H   0.6526859694  1.3571372553 -1.0199715287
O   0.8132328072  1.5286816996  0.9644613390
C   1.2494786206 -0.5665893708  0.0222716944
H   0.7072647229 -0.8076592357  0.9326193547
H   0.9899741258 -1.1649650617 -0.8546428670
H   2.2866040969 -0.7432033715  0.3010591760
7
Iter 74 Image 8  Energy = -153.9288681313
C   0.8697282412  0.8866754010  0.0118046043
H   0.7258459660  1.3294931655 -0.9850270083
O   0.7545705898  1.6035705572  1.0178156473
C   1.2335514997 -0.5646088367  0.0509922064
H   0.7012146515 -1.0795209332  0.8443316028
H   1.0168837497 -1.0332354491 -0.9072832376
H   2.2994470969 -0.6520072323  0.2613053859
7
Iter 74 Image 9  Energy = -153.9312936945
C   0.8534089941  0.8899816713  0.0048090452
H   0.8289490755  1.3341687400 -1.0094629195
O   0.5855435097  1.5610711848  0.9689557014
C   1.2486855512 -0.5581052863  0.0683943565
H   0.8046768906 -1.0211588789  0.9459929888
H   0.9454005000 -1.0820575097 -0.8384439772
H   2.3345769990 -0.6335330608  0.1536934023
7
Iter 74 Image 10  Energy = -153.9315633720
C   0.8257349435  0.8820431664 -0.0094942261
H   0.9154197175  1.3293546826 -1.0190448630
O   0.4037353296  1.5331119711  0.9085941195
C   1.2704370471 -0.5490396633  0.0924681012
H   0.9273568289 -0.9894009257  1.0234646264
H   0.8982549938 -1.1214322100 -0.7571311329
H   2.3603027084 -0.5942701755  0.0550819902
7
Iter 74 Image 11  Energy = -153.9315568446
C   0.7840367852  0.8656586589 -0.0371164025
H   0.9809293880  1.3403901038 -1.0231241499
O   0.1875804579  1.4681235287  0.8223429327
C   1.3100769769 -0.5359012779  0.1153731248
H   1.0639489065 -0.9236344469  1.1059940899
H   0.8779311114 -1.1816924395 -0.6582837811
H   2.3967379442 -0.5425772870 -0.0312469938
7
Iter 75 Image 0  Energy = -153.9146221658
C   0.8260657415  0.5508603911 -0.1261794589
H   0.4554445983  1.2417513435 -0.8784317668
O   0.5680753083  1.0246514429  1.1187434847
C   1.4411098584 -0.5873603774 -0.4363613732
H   0.9099091373  0.3932317500  1.7666320721
H   1.5916834696 -0.8592929697 -1.4741885892
H   1.8089534565 -1.2734747403  0.3237244514
7
Iter 75 Image 1  Energy = -153.9131799837
C   0.8564796166  0.5761198062 -0.1639609848
H   0.4682174850  1.2312480303 -0.9329058922
O   0.7205745292  1.1024217775  1.0833390134
C   1.4098387787 -0.6054821357 -0.4100267060
H   0.8793966319  0.3923180199  1.7098081337
H   1.4043838682 -1.0467217612 -1.3935739528
H   1.8623503247 -1.1595368500  0.4012583656
7
Iter 75 Image 2  Energy = -153.9044337637
C   0.8764816994  0.6203651991 -0.1962005719
H   0.4876413496  1.2871386959 -0.9541669039
O   0.7994268681  1.0960422261  1.0758739189
C   1.3928354613 -0.5920754679 -0.3831814940
H   0.8238036592  0.2661400779  1.5656690634
H   1.2816354836 -1.1861853372 -1.2687204506
H   1.9394166673 -1.0010583071  0.4546645635
7
Iter 75 Image 3  Energy = -153.8896740790
C   0.8992108954  0.6554341182 -0.2008114620
H   0.5308704881  1.3406607191 -0.9576851529
O   0.8054036013  1.0675680137  1.0879861665
C   1.3833891260 -0.5720431361 -0.3515446865
H   0.7631810919  0.1422052944  1.4334625751
H   1.1843692103 -1.2334096320 -1.1644168572
H   2.0348168766 -0.9100473347  0.4469469180
7
Iter 75 Image 4  Energy = -153.8428651139
C   0.9088129241  0.7037219660 -0.1743441263
H   0.5599212662  1.3848124035 -0.9605051198
O   0.7954584098  1.1183897744  1.0776680960
C   1.3191766403 -0.5675972345 -0.2474970299
H   0.7640007956 -0.0470642085  1.2398702162
H   1.1289050829 -1.2377748718 -1.0741495097
H   2.1249663542 -0.8641192181  0.4328951995
7
Iter 75 Image 5  Energy = -153.8290439401
C   0.8991018506  0.7836502852 -0.1239600103
H   0.5582174588  1.4053019192 -0.9548276073
O   0.7898700965  1.2232850390  1.0420025916
C   1.2559216667 -0.5956836983 -0.1413761546
H   0.7941311851 -0.2419805859  1.1055271064
H   1.1518122925 -1.2105945949 -1.0570116839
H   2.1521869853 -0.8736099562  0.4235833739
7
Iter 75 Image 6  Energy = -153.8912801586
C   0.9080510185  0.8534811541 -0.0753740026
H   0.5725655565  1.3980743969 -0.9690981419
O   0.8187286641  1.3675097863  1.0167551388
C   1.2638194563 -0.5801976223 -0.0605239845
H   0.7310585234 -0.5367004858  0.9479417310
H   1.0877845328 -1.1929538033 -0.9636035962
H   2.2192336292 -0.8188454575  0.3978404680
7
Iter 75 Image 7  Energy = -153.9254280326
C   0.9022647295  0.8869927767 -0.0519971064
H   0.6513273210  1.3576522874 -1.0194681914
O   0.8150027483  1.5282847610  0.9647603684
C   1.2492879454 -0.5666887154  0.0216482907
H   0.7063813823 -0.8067485838  0.9319336763
H   0.9913373014 -1.1652179610 -0.8557489620
H   2.2856398957 -0.7439075848  0.3028099256
7
Iter 75 Image 8  Energy = -153.9287934985
C   0.8696417730  0.8864046261  0.0114814258
H   0.7262927319  1.3294908530 -0.9853355739
O   0.7532456840  1.6030423680  1.0184566475
C   1.2340544835 -0.5645790957  0.0507494701
H   0.7017141982 -1.0781846407  0.8448088617
H   1.0162655714 -1.0337062749 -0.9070700182
H   2.3000273536 -0.6521011729  0.2608483950
7
Iter 75 Image 9  Energy = -153.9312917576
C   0.8533701730  0.8898627187  0.0045241637
H   0.8296955187  1.3343343864 -1.0096110511
O   0.5840225132  1.5604915132  0.9688033803
C   1.2490067223 -0.5580423875  0.0683573778
H   0.8055185256 -1.0199969578  0.9467693181
H   0.9446644670 -1.0825855925 -0.8378514629
H   2.3349635980 -0.6336968200  0.1529468663
7
Iter 75 Image 10  Energy = -153.9315640144
C   0.8257168637  0.8819529083 -0.0096218350
H   0.9157284201  1.3294789247 -1.0190128750
O   0.4030843538  1.5327807058  0.9085593219
C   1.2705645667 -0.5490098011  0.0924520867
H   0.9276410491 -0.9889648499  1.0236858168
H   0.8980809623 -1.1215911505 -0.7569031363
H   2.3604253539 -0.5942798931  0.0547792391
7
Iter 75 Image 11  Energy = -153.9315568446
C   0.7840367852  0.8656586589 -0.0371164025
H   0.9809293880  1.3403901038 -1.0231241499
O   0.1875804579  1.4681235287  0.8223429327
C   1.3100769769 -0.5359012779  0.1153731248
H   1.0639489065 -0.9236344469  1.1059940899
H   0.8779311114 -1.1816924395 -0.6582837811
H   2.3967379442 -0.5425772870 -0.0312469938
7
Iter 76 Image 0  Energy = -153.9146221658
C   0.8260657415  0.5508603911 -0.1261794589
H   0.4554445983  1.2417513435 -0.8784317668
O   0.5680753083  1.0246514429  1.1187434847
C   1.4411098584 -0.5873603774 -0.4363613732
H   0.9099091373  0.3932317500  1.7666320721
H   1.5916834696 -0.8592929697 -1.4741885892
H   1.8089534565 -1.2734747403  0.3237244514
7
Iter 76 Image 1  Energy = -153.9131972520
C   0.8565612712  0.5757954065 -0.1641149585
H   0.4681938807  1.2306396139 -0.9333412627
O   0.7204286452  1.1030575051  1.0827773700
C   1.4099085215 -0.6057495573 -0.4098670337
H   0.8802803153  0.3940657681  1.7102678473
H   1.4038739052 -1.0473880266 -1.3933354211
H   1.8619946882 -1.1600538215  0.4015514363
7
Iter 76 Image 2  Energy = -153.9044947628
C   0.8764188701  0.6197870390 -0.1961457946
H   0.4875996271  1.2874206229 -0.9540051133
O   0.7995722655  1.0961832664  1.0759060707
C   1.3924798154 -0.5919674939 -0.3833697286
H   0.8235119067  0.2666931343  1.5664958158
H   1.2826518270 -1.1862085943 -1.2694764871
H   1.9390068774 -1.0015408747  0.4545333761
7
Iter 76 Image 3  Energy = -153.8896801289
C   0.8984798544  0.6556658196 -0.2002932593
H   0.5315210827  1.3408303023 -0.9581284445
O   0.8047165164  1.0681534721  1.0881463038
C   1.3815305254 -0.5722889424 -0.3505031792
H   0.7646949980  0.1413457724  1.4335891265
H   1.1861840668 -1.2323258614 -1.1655978528
H   2.0341142610 -0.9110124596  0.4467248021
7
Iter 76 Image 4  Energy = -153.8415603384
C   0.9076936150  0.7049877125 -0.1730982591
H   0.5604807902  1.3844745559 -0.9612715399
O   0.7945748780  1.1233897744  1.0762341109
C   1.3160156578 -0.5687327102 -0.2450745605
H   0.7662673909 -0.0518743770  1.2402627995
H   1.1317103803 -1.2358112499 -1.0755486981
H   2.1244987789 -0.8660650343  0.4324338597
7
Iter 76 Image 5  Energy = -153.8291542853
C   0.8979374764  0.7835497025 -0.1237799001
H   0.5593064453  1.4049995964 -0.9559163611
O   0.7885021822  1.2246416106  1.0411134268
C   1.2544677576 -0.5962358139 -0.1402539428
H   0.7960434569 -0.2423884119  1.1077864533
H   1.1534554312 -1.2094172461 -1.0578210445
H   2.1515288021 -0.8747809651  0.4228089721
7
Iter 76 Image 6  Energy = -153.8909638818
C   0.9074428039  0.8532537561 -0.0749394229
H   0.5719886284  1.3983805870 -0.9685262610
O   0.8185676723  1.3669713427  1.0171829405
C   1.2633066420 -0.5803500864 -0.0610770968
H   0.7314073102 -0.5363476065  0.9483291738
H   1.0908441147 -1.1917651655 -0.9661001034
H   2.2176842202 -0.8197747987  0.3990683576
7
Iter 76 Image 7  Energy = -153.9253400222
C   0.9025292571  0.8870417823 -0.0521026645
H   0.6498986283  1.3581823084 -1.0189237279
O   0.8168798154  1.5278624725  0.9650624214
C   1.2490875862 -0.5668004361  0.0209946478
H   0.7054237282 -0.8058484251  0.9311911083
H   0.9928259152 -1.1654152596 -0.8569650999
H   2.2845963987 -0.7446554221  0.3046813199
7
Iter 76 Image 8  Energy = -153.9286893889
C   0.8695610094  0.8860247141  0.0109374600
H   0.7268725687  1.3295221346 -0.9856625794
O   0.7516354895  1.6024587702  1.0191222784
C   1.2345964804 -0.5645146733  0.0504988958
H   0.7024141975 -1.0765550796  0.8455113459
H   1.0155026631 -1.0343382332 -0.9067326955
H   2.3006593903 -0.6522309652  0.2602645076
7
Iter 76 Image 9  Energy = -153.9312972709
C   0.8532431550  0.8899691139  0.0045680651
H   0.8304647873  1.3345283397 -1.0097983640
O   0.5825161816  1.5596442495  0.9683116854
C   1.2493507469 -0.5580000123  0.0683060090
H   0.8063962304 -1.0187229676  0.9476049442
H   0.9438981834 -1.0831602778 -0.8372083826
H   2.3353722311 -0.6338915855  0.1521546320
7
Iter 76 Image 10  Energy = -153.9315649146
C   0.8255215060  0.8821197412 -0.0093587238
H   0.9160591186  1.3296228471 -1.0190035109
O   0.4025523602  1.5321821872  0.9081640183
C   1.2707070703 -0.5490021249  0.0924201858
H   0.9279412447 -0.9885038821  1.0239162221
H   0.8979055684 -1.1217628545 -0.7566613338
H   2.3605547024 -0.5942890729  0.0544617594
7
Iter 76 Image 11  Energy = -153.9315568446
C   0.7840367852  0.8656586589 -0.0371164025
H   0.9809293880  1.3403901038 -1.0231241499
O   0.1875804579  1.4681235287  0.8223429327
C   1.3100769769 -0.5359012779  0.1153731248
H   1.0639489065 -0.9236344469  1.1059940899
H   0.8779311114 -1.1816924395 -0.6582837811
H   2.3967379442 -0.5425772870 -0.0312469938
7
Iter 77 Image 0  Energy = -153.9146221658
C   0.8260657415  0.5508603911 -0.1261794589
H   0.4554445983  1.2417513435 -0.8784317668
O   0.5680753083  1.0246514429  1.1187434847
C   1.4411098584 -0.5873603774 -0.4363613732
H   0.9099091373  0.3932317500  1.7666320721
H   1.5916834696 -0.8592929697 -1.4741885892
H   1.8089534565 -1.2734747403  0.3237244514
7
Iter 77 Image 1  Energy = -153.9132125401
C   0.8565497214  0.5756486722 -0.1642688311
H   0.4681890707  1.2299995663 -0.9337511211
O   0.7202941033  1.1036516317  1.0822254974
C   1.4100633652 -0.6061791440 -0.4097296939
H   0.8811612898  0.3958309275  1.7107074802
H   1.4033611624 -1.0480296503 -1.3930706311
H   1.8616225092 -1.1605551216  0.4018252775
7
Iter 77 Image 2  Energy = -153.9045189939
C   0.8759459833  0.6201733609 -0.1961124969
H   0.4876805491  1.2875700597 -0.9537112184
O   0.7997548001  1.0961827008  1.0759072031
C   1.3925035113 -0.5927253273 -0.3836713908
H   0.8231685407  0.2671943070  1.5672230511
H   1.2835953488 -1.1861355906 -1.2700012546
H   1.9385924565 -1.0018923962  0.4543042616
7
Iter 77 Image 3  Energy = -153.8896740757
C   0.8977920529  0.6558343232 -0.1997885842
H   0.5322174912  1.3410192925 -0.9586409927
O   0.8039829826  1.0687151946  1.0882868869
C   1.3796432280 -0.5725333845 -0.3495854246
H   0.7661633064  0.1405416021  1.4336994123
H   1.1878506017 -1.2312613279 -1.1665693928
H   2.0335916548 -0.9119475326  0.4465355854
7
Iter 77 Image 4  Energy = -153.8401832362
C   0.9066773188  0.7061791609 -0.1719015263
H   0.5610921404  1.3842276315 -0.9621251633
O   0.7936369068  1.1282843154  1.0747026722
C   1.3128882182 -0.5695275463 -0.2420995731
H   0.7685665084 -0.0568743770  1.2403208247
H   1.1342212121 -1.2340643360 -1.0768223643
H   2.1241592028 -0.8678561232  0.4318628340
7
Iter 77 Image 5  Energy = -153.8292555554
C   0.8968205131  0.7834565360 -0.1235194312
H   0.5603872878  1.4047253367 -0.9570255632
O   0.7871048784  1.2259008305  1.0401481114
C   1.2530601894 -0.5967598495 -0.1391594382
H   0.7979310695 -0.2427250132  1.1099781569
H   1.1549878196 -1.2083181471 -1.0585566051
H   2.1509498066 -0.8759111618  0.4220723649
7
Iter 77 Image 6  Energy = -153.8906511508
C   0.9068461914  0.8529516527 -0.0747929640
H   0.5714584704  1.3986402262 -0.9679635746
O   0.8183465077  1.3665493125  1.0178359218
C   1.2628361414 -0.5805130351 -0.0616031999
H   0.7317597193 -0.5359825411  0.9487015337
H   1.0937936341 -1.1906031919 -0.9685208592
H   2.2162007348 -0.8206743337  0.4002807060
7
Iter 77 Image 7  Energy = -153.9252492322
C   0.9027899225  0.8870022809 -0.0523372774
H   0.6484970594  1.3587013401 -1.0183811195
O   0.8187373817  1.5275198410  0.9654777677
C   1.2488752631 -0.5669011736  0.0203460779
H   0.7044987948 -0.8049467523  0.9304658977
H   0.9942950225 -1.1656020149 -0.8581883207
H   2.2835478945 -0.7454064657  0.3065549817
7
Iter 77 Image 8  Energy = -153.9286689944
C   0.8694428418  0.8858544121  0.0107113791
H   0.7275377684  1.3295706415 -0.9860341612
O   0.7499249152  1.6016598910  1.0194461879
C   1.2351452582 -0.5644672828  0.0502365007
H   0.7032101377 -1.0748872456  0.8463030750
H   1.0146762010 -1.0350214313 -0.9063436412
H   2.3013046803 -0.6523423153  0.2596198731
7
Iter 77 Image 9  Energy = -153.9312925845
C   0.8532457764  0.8897645253  0.0041247732
H   0.8312354779  1.3347159335 -1.0099595053
O   0.5808752382  1.5590737423  0.9682358569
C   1.2496955329 -0.5579263739  0.0682750569
H   0.8072824518 -1.0174171614  0.9484720826
H   0.9431195151 -1.0837472520 -0.8365581826
H   2.3357875212 -0.6340965544  0.1513485049
7
Iter 77 Image 10  Energy = -153.9315656599
C   0.8255853522  0.8819136566 -0.0096582052
H   0.9163636470  1.3297529297 -1.0189504283
O   0.4018278458  1.5319494701  0.9082927675
C   1.2708324376 -0.5489608564  0.0924018478
H   0.9282157971 -0.9880677569  1.0241283627
H   0.8977375675 -1.1219192893 -0.7564459417
H   2.3606789238 -0.5943013132  0.0541702143
7
Iter 77 Image 11  Energy = -153.9315568446
C   0.7840367852  0.8656586589 -0.0371164025
H   0.9809293880  1.3403901038 -1.0231241499
O   0.1875804579  1.4681235287  0.8223429327
C   1.3100769769 -0.5359012779  0.1153731248
H   1.0639489065 -0.9236344469  1.1059940899
H   0.8779311114 -1.1816924395 -0.6582837811
H   2.3967379442 -0.5425772870 -0.0312469938
7
Iter 78 Image 0  Energy = -153.9146221658
C   0.8260657415  0.5508603911 -0.1261794589
H   0.4554445983  1.2417513435 -0.8784317668
O   0.5680753083  1.0246514429  1.1187434847
C   1.4411098584 -0.5873603774 -0.4363613732
H   0.9099091373  0.3932317500  1.7666320721
H   1.5916834696 -0.8592929697 -1.4741885892
H   1.8089534565 -1.2734747403  0.3237244514
7
Iter 78 Image 1  Energy = -153.9132285154
C   0.8566111767  0.5753604716 -0.1644185899
H   0.4681710387  1.2294068529 -0.9341672948
O   0.7201600602  1.1042524264  1.0816969919
C   1.4101262139 -0.6064588070 -0.4095666356
H   0.8820129521  0.3975089809  1.7111179167
H   1.4028787223 -1.0486510301 -1.3928293828
H   1.8612810522 -1.1610520152  0.4021049737
7
Iter 78 Image 2  Energy = -153.9045671872
C   0.8758656944  0.6197361756 -0.1960742967
H   0.4876985565  1.2878464853 -0.9535549743
O   0.7998745415  1.0962777819  1.0759437514
C   1.3922069422 -0.5926745669 -0.3838141710
H   0.8228536524  0.2676282806  1.5679073547
H   1.2844747137 -1.1861562380 -1.2706319842
H   1.9382670911 -1.0022907879  0.4541624927
7
Iter 78 Image 3  Energy = -153.8896430970
C   0.8970908219  0.6562150332 -0.1993463822
H   0.5329612406  1.3411709970 -0.9591576936
O   0.8032308262  1.0692142886  1.0883952430
C   1.3778816633 -0.5729283916 -0.3485502061
H   0.7675731917  0.1397174716  1.4336351158
H   1.1892832393 -1.2302488678 -1.1673343770
H   2.0332203507 -0.9127722976  0.4462957743
7
Iter 78 Image 4  Energy = -153.8388048146
C   0.9057706376  0.7074073180 -0.1707399643
H   0.5617347636  1.3840639864 -0.9629910290
O   0.7926002774  1.1330173013  1.0732463118
C   1.3097420175 -0.5703979373 -0.2391763860
H   0.7708053420 -0.0618743770  1.2400273750
H   1.1365100098 -1.2323168519 -1.0777241209
H   2.1240784732 -0.8695306571  0.4312955097
7
Iter 78 Image 5  Energy = -153.8293826245
C   0.8957757980  0.7834140492 -0.1233136010
H   0.5614852707  1.4044320939 -0.9581421697
O   0.7856951807  1.2271762550  1.0391939461
C   1.2517501163 -0.5972636824 -0.1379680487
H   0.7997396672 -0.2431565337  1.1119280471
H   1.1562663518 -1.2073027094 -1.0590761606
H   2.1505291939 -0.8769308813  0.4213155752
7
Iter 78 Image 6  Energy = -153.8903615189
C   0.9062796331  0.8527800322 -0.0743281134
H   0.5710340981  1.3988628689 -0.9675483986
O   0.8180479015  1.3660290357  1.0180742033
C   1.2623855192 -0.5806727036 -0.0620522428
H   0.7321541964 -0.5355947957  0.9491309898
H   1.0964659073 -1.1895228113 -0.9706837404
H   2.2148741543 -0.8215134792  0.4013448467
7
Iter 78 Image 7  Energy = -153.9251642271
C   0.9030317003  0.8870737804 -0.0523645350
H   0.6471649911  1.3591869163 -1.0178702360
O   0.8204869674  1.5270700937  0.9657095767
C   1.2486806054 -0.5670089766  0.0197302647
H   0.7036036739 -0.8040913947  0.9297663650
H   0.9957235205 -1.1657397561 -0.8593715655
H   2.2825498861 -0.7461235749  0.3083381397
7
Iter 78 Image 8  Energy = -153.9286215393
C   0.8693569779  0.8856065658  0.0102762395
H   0.7281740658  1.3296510777 -0.9864094508
O   0.7482424619  1.6008909384  1.0197758260
C   1.2356817581 -0.5643927297  0.0499931581
H   0.7040357277 -1.0730494571  0.8472212119
H   1.0138217650 -1.0358197112 -0.9058883535
H   2.3019290485 -0.6525200143  0.2589705899
7
Iter 78 Image 9  Energy = -153.9312963854
C   0.8531389232  0.8898433873  0.0041163440
H   0.8319662545  1.3349093644 -1.0101451789
O   0.5794165921  1.5582684472  0.9677740815
C   1.2500265786 -0.5578836474  0.0682344102
H   0.8081284433 -1.0161533826  0.9493055716
H   0.9423845106 -1.0843181711 -0.8359175858
H   2.3361802079 -0.6342991365  0.1505709398
7
Iter 78 Image 10  Energy = -153.9315660548
C   0.8254011036  0.8820705223 -0.0094111249
H   0.9166764663  1.3298897488 -1.0189364998
O   0.4013196510  1.5313896279  0.9079210094
C   1.2709655318 -0.5489529268  0.0923721735
H   0.9285000395 -0.9876467043  1.0243407374
H   0.8975777486 -1.1220788415 -0.7562224364
H   2.3608010295 -0.5943045840  0.0538747569
7
Iter 78 Image 11  Energy = -153.9315568446
C   0.7840367852  0.8656586589 -0.0371164025
H   0.9809293880  1.3403901038 -1.0231241499
O   0.1875804579  1.4681235287  0.8223429327
C   1.3100769769 -0.5359012779  0.1153731248
H   1.0639489065 -0.9236344469  1.1059940899
H   0.8779311114 -1.1816924395 -0.6582837811
H   2.3967379442 -0.5425772870 -0.0312469938
7
Iter 79 Image 0  Energy = -153.9146221658
C   0.8260657415  0.5508603911 -0.1261794589
H   0.4554445983  1.2417513435 -0.8784317668
O   0.5680753083  1.0246514429  1.1187434847
C   1.4411098584 -0.5873603774 -0.4363613732
H   0.9099091373  0.3932317500  1.7666320721
H   1.5916834696 -0.8592929697 -1.4741885892
H   1.8089534565 -1.2734747403  0.3237244514
7
Iter 79 Image 1  Energy = -153.9132425528
C   0.8566506469  0.5751346796 -0.1645502361
H   0.4681593174  1.2288485533 -0.9345577718
O   0.7200393687  1.1048228109  1.0811820890
C   1.4101972718 -0.6067576190 -0.4094120575
H   0.8828133543  0.3990562404  1.7114904537
H   1.4024157788 -1.0492359893 -1.3925833975
H   1.8609654699 -1.1615017907  0.4023689013
7
Iter 79 Image 2  Energy = -153.9045966424
C   0.8756693718  0.6196570426 -0.1960355694
H   0.4877733196  1.2880700317 -0.9533777015
O   0.7999870122  1.0963096949  1.0759700149
C   1.3920446057 -0.5929102437 -0.3840098781
H   0.8225301999  0.2679832550  1.5684812693
H   1.2852402348 -1.1861409628 -1.2711012601
H   1.9379964497 -1.0026016696  0.4540113150
7
Iter 79 Image 3  Energy = -153.8895875600
C   0.8965380444  0.6564110609 -0.1989595231
H   0.5336987236  1.3413471254 -0.9597272618
O   0.8024698615  1.0697243860  1.0884431453
C   1.3762025751 -0.5731068309 -0.3474088337
H   0.7688747752  0.1388824596  1.4334941550
H   1.1904353920 -1.2294041001 -1.1679363274
H   2.0330219739 -0.9134857996  0.4460321179
7
Iter 79 Image 4  Energy = -153.8374418065
C   0.9048987250  0.7090058745 -0.1696509780
H   0.5623464755  1.3839224628 -0.9638136800
O   0.7915833271  1.1374688070  1.0717986817
C   1.3066787520 -0.5714932182 -0.2362182803
H   0.7729937859 -0.0668743770  1.2393259100
H   1.1385692181 -1.2306204468 -1.0782971269
H   2.1241712513 -0.8710402668  0.4307931634
7
Iter 79 Image 5  Energy = -153.8295226450
C   0.8948355683  0.7834025435 -0.1232029513
H   0.5625472706  1.4041638953 -0.9592118635
O   0.7843171823  1.2284430559  1.0383109835
C   1.2505665314 -0.5977333554 -0.1367642062
H   0.8014259220 -0.2436593908  1.1136290364
H   1.1573081258 -1.2064265887 -1.0594136093
H   2.1502409920 -0.8778215097  0.4205901931
7
Iter 79 Image 6  Energy = -153.8901007526
C   0.9057820101  0.8524619278 -0.0743155171
H   0.5707041469  1.3990368588 -0.9671857845
O   0.8176706930  1.3657369705  1.0186163519
C   1.2619866855 -0.5808047609 -0.0623954586
H   0.7325479847 -0.5352398082  0.9495221452
H   1.0988311788 -1.1885561691 -0.9725996956
H   2.2137187224 -0.8222668150  0.4022954853
7
Iter 79 Image 7  Energy = -153.9250809628
C   0.9032660678  0.8870341451 -0.0525757112
H   0.6459426469  1.3596239598 -1.0173854042
O   0.8220764927  1.5267385083  0.9660861225
C   1.2485117396 -0.5671056928  0.0191621886
H   0.7027824988 -0.8032711357  0.9291306370
H   0.9970472887 -1.1658545243 -0.8604787815
H   2.2816146170 -0.7467981397  0.3099989601
7
Iter 79 Image 8  Energy = -153.9286044906
C   0.8692910884  0.8854321567  0.0098783709
H   0.7287780560  1.3297601266 -0.9868188686
O   0.7466196113  1.6000412720  1.0199170859
C   1.2362041972 -0.5643197351  0.0497470107
H   0.7048765624 -1.0710749194  0.8482470215
H   1.0129419242 -1.0367197353 -0.9053642457
H   2.3025303679 -0.6527524970  0.2583328495
7
Iter 79 Image 9  Energy = -153.9312930253
C   0.8531321519  0.8896916715  0.0037471523
H   0.8326748494  1.3350884952 -1.0103051831
O   0.5779116816  1.5577085441  0.9676289066
C   1.2503393788 -0.5578202752  0.0682179194
H   0.8089538919 -1.0149326692  0.9501327252
H   0.9416711107 -1.0848755599 -0.8352873428
H   2.3365584417 -0.6344933474  0.1498044039
7
Iter 79 Image 10  Energy = -153.9315670739
C   0.8254525786  0.8818857424 -0.0096803344
H   0.9169623560  1.3300062933 -1.0188858044
O   0.4006405311  1.5311858583  0.9080267502
C   1.2710791858 -0.5489140477  0.0923597249
H   0.9287646391 -0.9872741711  1.0245369585
H   0.8974278105 -1.1222200400 -0.7560225809
H   2.3609144688 -0.5943027925  0.0536038987
7
Iter 79 Image 11  Energy = -153.9315568446
C   0.7840367852  0.8656586589 -0.0371164025
H   0.9809293880  1.3403901038 -1.0231241499
O   0.1875804579  1.4681235287  0.8223429327
C   1.3100769769 -0.5359012779  0.1153731248
H   1.0639489065 -0.9236344469  1.1059940899
H   0.8779311114 -1.1816924395 -0.6582837811
H   2.3967379442 -0.5425772870 -0.0312469938
7
Iter 80 Image 0  Energy = -153.9146221658
C   0.8260657415  0.5508603911 -0.1261794589
H   0.4554445983  1.2417513435 -0.8784317668
O   0.5680753083  1.0246514429  1.1187434847
C   1.4411098584 -0.5873603774 -0.4363613732
H   0.9099091373  0.3932317500  1.7666320721
H   1.5916834696 -0.8592929697 -1.4741885892
H   1.8089534565 -1.2734747403  0.3237244514
7
Iter 80 Image 1  Energy = -153.9132548351
C   0.8566546025  0.5749996196 -0.1646796232
H   0.4681550506  1.2283097193 -0.9349134651
O   0.7199370461  1.1053336701  1.0807222965
C   1.4102725167 -0.6071098526 -0.4092675421
H   0.8835573963  0.4005176489  1.7118137127
H   1.4019944255 -1.0497677993 -1.3923420805
H   1.8606701649 -1.1619161197  0.4026046864
7
Iter 80 Image 2  Energy = -153.9046165009
C   0.8754020222  0.6198132125 -0.1960115648
H   0.4878774637  1.2882190620 -0.9531879665
O   0.8000774339  1.0963023979  1.0759892787
C   1.3919821683 -0.5933300839 -0.3841921451
H   0.8222455090  0.2683158623  1.5690107391
H   1.2859439686 -1.1860850794 -1.2715115245
H   1.9377126303 -1.0028682125  0.4538413911
7
Iter 80 Image 3  Energy = -153.8895097293
C   0.8960082259  0.6568104286 -0.1985797448
H   0.5344211566  1.3415010630 -0.9602779419
O   0.8017228843  1.0701687557  1.0885057583
C   1.3745325472 -0.5734906448 -0.3463593764
H   0.7701214607  0.1380191870  1.4330955610
H   1.1914440787 -1.2285198638 -1.1682748432
H   2.0329910054 -0.9141205615  0.4458280586
7
Iter 80 Image 4  Energy = -153.8360784731
C   0.9041755488  0.7103334807 -0.1686611045
H   0.5629899400  1.3838803213 -0.9646210370
O   0.7905197345  1.1418005387  1.0704271872
C   1.3038266254 -0.5722552227 -0.2330396909
H   0.7750328375 -0.0718743770  1.2384351983
H   1.1403489046 -1.2291345010 -1.0787580371
H   2.1243479561 -0.8723813460  0.4301551668
7
Iter 80 Image 5  Energy = -153.8297055377
C   0.8939725586  0.7834739285 -0.1229019436
H   0.5635815481  1.4039061612 -0.9602954131
O   0.7829999830  1.2296516708  1.0372750252
C   1.2494228469 -0.5981509191 -0.1354517279
H   0.8030210000 -0.2442909287  1.1149894060
H   1.1581319857 -1.2056197318 -1.0595419535
H   2.1501116816 -0.8786014779  0.4198641853
7
Iter 80 Image 6  Energy = -153.8898723405
C   0.9053070577  0.8523458165 -0.0739216776
H   0.5704763780  1.3991825000 -0.9669577911
O   0.8172504545  1.3653367247  1.0186703067
C   1.2616156404 -0.5809583595 -0.0626689498
H   0.7329687342 -0.5349065637  0.9499609778
H   1.1009048549 -1.1876852102 -0.9742247688
H   2.2127183138 -0.8229466469  0.4030794125
7
Iter 80 Image 7  Energy = -153.9250030842
C   0.9034882197  0.8870696631 -0.0526207295
H   0.6448026136  1.3600279757 -1.0169373060
O   0.8235110950  1.5263100752  0.9663157852
C   1.2483629958 -0.5671995153  0.0186352147
H   0.7020078917 -0.8024757827  0.9285305684
H   0.9983103430 -1.1659329610 -0.8615230153
H   2.2807582004 -0.7474323032  0.3115374959
7
Iter 80 Image 8  Energy = -153.9286136751
C   0.8692382233  0.8853239738  0.0095292121
H   0.7293092782  1.3298966737 -0.9872461938
O   0.7451394042  1.5991495326  1.0199024186
C   1.2366979409 -0.5642460391  0.0495148694
H   0.7056733791 -1.0690561052  0.8493228511
H   1.0120902235 -1.0376715682 -0.9048062248
H   2.3030933621 -0.6530298020  0.2577222833
7
Iter 80 Image 9  Energy = -153.9312956084
C   0.8530428852  0.8897529530  0.0037103447
H   0.8333359867  1.3352657108 -1.0104763826
O   0.5765877976  1.5570010834  0.9672010095
C   1.2506302309 -0.5577798352  0.0681981135
H   0.8097278131 -1.0137967386  0.9509051399
H   0.9410122945 -1.0854017092 -0.8346800152
H   2.3369044955 -0.6346746060  0.1490803699
7
Iter 80 Image 10  Energy = -153.9315668433
C   0.8252581396  0.8820538291 -0.0094183433
H   0.9172595138  1.3301270165 -1.0188741517
O   0.4001652255  1.5306663412  0.9076376884
C   1.2712008082 -0.5489067427  0.0923415261
H   0.9290480386 -0.9869202395  1.0247374585
H   0.8972842915 -1.1223657594 -0.7558086163
H   2.3610255544 -0.5942876039  0.0533230512
7
Iter 80 Image 11  Energy = -153.9315568446
C   0.7840367852  0.8656586589 -0.0371164025
H   0.9809293880  1.3403901038 -1.0231241499
O   0.1875804579  1.4681235287  0.8223429327
C   1.3100769769 -0.5359012779  0.1153731248
H   1.0639489065 -0.9236344469  1.1059940899
H   0.8779311114 -1.1816924395 -0.6582837811
H   2.3967379442 -0.5425772870 -0.0312469938
7
Iter 81 Image 0  Energy = -153.9146221658
C   0.8260657415  0.5508603911 -0.1261794589
H   0.4554445983  1.2417513435 -0.8784317668
O   0.5680753083  1.0246514429  1.1187434847
C   1.4411098584 -0.5873603774 -0.4363613732
H   0.9099091373  0.3932317500  1.7666320721
H   1.5916834696 -0.8592929697 -1.4741885892
H   1.8089534565 -1.2734747403  0.3237244514
7
Iter 81 Image 1  Energy = -153.9132672335
C   0.8567319277  0.5747345942 -0.1648036834
H   0.4681405075  1.2278310063 -0.9352761405
O   0.7198393821  1.1058516697  1.0802766305
C   1.4102716551 -0.6073068733 -0.4091023947
H   0.8842612328  0.4018584941  1.7121043852
H   1.4015806844 -1.0503000499 -1.3921148526
H   1.8604158061 -1.1623019575  0.4028540436
7
Iter 81 Image 2  Energy = -153.9046528609
C   0.8754302363  0.6193652244 -0.1959795197
H   0.4879391071  1.2884764941 -0.9531098661
O   0.8001259946  1.0963674555  1.0760353870
C   1.3916817867 -0.5931457126 -0.3842655896
H   0.8219717429  0.2685667770  1.5694793429
H   1.2865661870 -1.1861198473 -1.2719665826
H   1.9375261444 -1.0031432165  0.4537450522
7
Iter 81 Image 3  Energy = -153.8894132913
C   0.8955688382  0.6571330362 -0.1982707685
H   0.5351353957  1.3416623755 -0.9608501595
O   0.8009790510  1.0705897862  1.0885465110
C   1.3729400275 -0.5737227721 -0.3451366519
H   0.7713040924  0.1371401707  1.4325905847
H   1.1922589912 -1.2277734370 -1.1685286966
H   2.0330549747 -0.9146607360  0.4455866556
7
Iter 81 Image 4  Energy = -153.8347274718
C   0.9034252949  0.7120444811 -0.1674959082
H   0.5635744256  1.3838195745 -0.9654216022
O   0.7895312586  1.1460015433  1.0689170770
C   1.3010471714 -0.5733756510 -0.2300413789
H   0.7770239599 -0.0768743770  1.2373210321
H   1.1420172097 -1.2276245385 -1.0789603692
H   2.1246222403 -0.8736220896  0.4296188207
7
Iter 81 Image 5  Energy = -153.8299103610
C   0.8931784050  0.7835532367 -0.1227871518
H   0.5645985955  1.4036592106 -0.9613397872
O   0.7817036437  1.2309536473  1.0363592688
C   1.2483511339 -0.5985391670 -0.1340539877
H   0.8045535363 -0.2450540120  1.1161479138
H   1.1587863624 -1.2049187607 -1.0595356551
H   2.1500699409 -0.8792853893  0.4191469669
7
Iter 81 Image 6  Energy = -153.8896688994
C   0.9048874294  0.8520883833 -0.0739522055
H   0.5703170014  1.3993012709 -0.9667606576
O   0.8167697333  1.3651556415  1.0190254420
C   1.2612743246 -0.5810876830 -0.0628514326
H   0.7333900741 -0.5346205165  0.9503609493
H   1.1027556244 -1.1869065520 -0.9756642979
H   2.2118472603 -0.8235622256  0.4037797046
7
Iter 81 Image 7  Energy = -153.9249260150
C   0.9037054349  0.8870569659 -0.0527441649
H   0.6437393177  1.3604013419 -1.0165142584
O   0.8248176394  1.5259197728  0.9665976604
C   1.2482367526 -0.5672886640  0.0181385804
H   0.7012914174 -0.8016762824  0.9279805444
H   0.9994951415 -1.1660066138 -0.8625041963
H   2.2799556632 -0.7480393418  0.3129838471
7
Iter 81 Image 8  Energy = -153.9286275515
C   0.8692242350  0.8852308068  0.0091122549
H   0.7297728557  1.3300563206 -0.9877048940
O   0.7437494542  1.5982295303  1.0198000765
C   1.2371869054 -0.5641679144  0.0492876659
H   0.7064531985 -1.0668673986  0.8504911083
H   1.0112207831 -1.0387344237 -0.9041910106
H   2.3036343794 -0.6533802498  0.2571440107
7
Iter 81 Image 9  Energy = -153.9312934398
C   0.8530250994  0.8896482801  0.0034121399
H   0.8339928018  1.3354322031 -1.0106308908
O   0.5752130397  1.5564711010  0.9669961817
C   1.2509085983 -0.5577233926  0.0681984477
H   0.8104987576 -1.0126931838  0.9516808219
H   0.9403615294 -1.0859224302 -0.8340718889
H   2.3372416755 -0.6348457212  0.1483537640
7
Iter 81 Image 10  Energy = -153.9315681483
C   0.8252997582  0.8818757068 -0.0096805450
H   0.9175425656  1.3302290609 -1.0188259713
O   0.3994922817  1.5304978409  0.9077256825
C   1.2713062929 -0.5488677303  0.0923426957
H   0.9293262178 -0.9866043241  1.0249318061
H   0.8971426725 -1.1224982109 -0.7556077463
H   2.3611317818 -0.5942655040  0.0530526889
7
Iter 81 Image 11  Energy = -153.9315568446
C   0.7840367852  0.8656586589 -0.0371164025
H   0.9809293880  1.3403901038 -1.0231241499
O   0.1875804579  1.4681235287  0.8223429327
C   1.3100769769 -0.5359012779  0.1153731248
H   1.0639489065 -0.9236344469  1.1059940899
H   0.8779311114 -1.1816924395 -0.6582837811
H   2.3967379442 -0.5425772870 -0.0312469938
7
Iter 82 Image 0  Energy = -153.9146221658
C   0.8260657415  0.5508603911 -0.1261794589
H   0.4554445983  1.2417513435 -0.8784317668
O   0.5680753083  1.0246514429  1.1187434847
C   1.4411098584 -0.5873603774 -0.4363613732
H   0.9099091373  0.3932317500  1.7666320721
H   1.5916834696 -0.8592929697 -1.4741885892
H   1.8089534565 -1.2734747403  0.3237244514
7
Iter 82 Image 1  Energy = -153.9132780926
C   0.8567510937  0.5746089257 -0.1649107744
H   0.4681350736  1.2273456930 -0.9356129679
O   0.7197535562  1.1063457045  1.0798338729
C   1.4102997521 -0.6076240907 -0.4089534718
H   0.8849406724  0.4031486635  1.7123829576
H   1.4011945582 -1.0507953321 -1.3918777429
H   1.8601664808 -1.1626626807  0.4030761174
7
Iter 82 Image 2  Energy = -153.9046690077
C   0.8752112390  0.6195415658 -0.1959489964
H   0.4880643093  1.2885910754 -0.9529616070
O   0.8001687021  1.0963438599  1.0760582820
C   1.3916053437 -0.5935382729 -0.3844500784
H   0.8217360059  0.2688360871  1.5699308291
H   1.2871740010 -1.1860398974 -1.2722987829
H   1.9372815998 -1.0033672260  0.4536085917
7
Iter 82 Image 3  Energy = -153.8892914132
C   0.8951596869  0.6575528785 -0.1979288492
H   0.5358377789  1.3418295293 -0.9614197926
O   0.8002439598  1.0709913525  1.0885735879
C   1.3713127162 -0.5740218599 -0.3438194027
H   0.7724854555  0.1361651894  1.4318431004
H   1.1930015535 -1.2270041642 -1.1686646272
H   2.0332002331 -0.9151444401  0.4453534536
7
Iter 82 Image 4  Energy = -153.8333943316
C   0.9027718938  0.7135676776 -0.1665559384
H   0.5642058849  1.3837509926 -0.9662056502
O   0.7884831373  1.1502005987  1.0675798906
C   1.2982550407 -0.5742940076 -0.2268961876
H   0.7789670990 -0.0818743770  1.2360518970
H   1.1435408643 -1.2261839776 -1.0790549406
H   2.1250176527 -0.8747979259  0.4290185983
7
Iter 82 Image 5  Energy = -153.8301693903
C   0.8923980808  0.7837258231 -0.1225540345
H   0.5656376030  1.4033895857 -0.9624319495
O   0.7804249220  1.2323199433  1.0352976651
C   1.2472701882 -0.5989383313 -0.1324780003
H   0.8060843377 -0.2460012266  1.1170569937
H   1.1592867213 -1.2042270337 -1.0593383733
H   2.1501397769 -0.8798999406  0.4183852640
7
Iter 82 Image 6  Energy = -153.8894904872
C   0.9044850165  0.8519238501 -0.0737765485
H   0.5702401124  1.3994095016 -0.9666726687
O   0.8162314352  1.3649504583  1.0190741736
C   1.2609191746 -0.5812149677 -0.0629419622
H   0.7338582499 -0.5343713209  0.9508148287
H   1.1044261818 -1.1861874423 -0.9769078870
H   2.2110812875 -0.8241417019  0.4043475529
7
Iter 82 Image 7  Energy = -153.9248486118
C   0.9039281908  0.8870285655 -0.0528877825
H   0.6427074442  1.3607581282 -1.0160899778
O   0.8260153152  1.5255058734  0.9669045192
C   1.2481398198 -0.5673791144  0.0176644600
H   0.7005820715 -0.8008621693  0.9274416096
H   1.0006750385 -1.1660513144 -0.8634634786
H   2.2791934945 -0.7486327581  0.3143686630
7
Iter 82 Image 8  Energy = -153.9286667864
C   0.8692296706  0.8852049640  0.0087262345
H   0.7301640607  1.3302396039 -0.9881797965
O   0.7424775874  1.5972417567  1.0195490702
C   1.2376573969 -0.5640811598  0.0490682339
H   0.7071912177 -1.0645882904  0.8517211073
H   1.0103676431 -1.0398638927 -0.9035312599
H   2.3041542349 -0.6537863040  0.2565856175
7
Iter 82 Image 9  Energy = -153.9312940208
C   0.8529691411  0.8896472589  0.0032695719
H   0.8346305845  1.3355998052 -1.0107887414
O   0.5739214327  1.5558758561  0.9666473698
C   1.2511726423 -0.5576773763  0.0682029023
H   0.8112509021 -1.0116420194  0.9524302551
H   0.9397375832 -1.0864286681 -0.8334629028
H   2.3375592143 -0.6350080008  0.1476401200
7
Iter 82 Image 10  Energy = -153.9315680962
C   0.8251465580  0.8819650343 -0.0095405296
H   0.9178512732  1.3303378543 -1.0188062902
O   0.3989386978  1.5300763388  0.9074224128
C   1.2714237828 -0.5488501647  0.0923417007
H   0.9296415989 -0.9862925217  1.0251450459
H   0.8969981910 -1.1226421156 -0.7553792915
H   2.3612414678 -0.5942275881  0.0527555607
7
Iter 82 Image 11  Energy = -153.9315568446
C   0.7840367852  0.8656586589 -0.0371164025
H   0.9809293880  1.3403901038 -1.0231241499
O   0.1875804579  1.4681235287  0.8223429327
C   1.3100769769 -0.5359012779  0.1153731248
H   1.0639489065 -0.9236344469  1.1059940899
H   0.8779311114 -1.1816924395 -0.6582837811
H   2.3967379442 -0.5425772870 -0.0312469938
7
Iter 83 Image 0  Energy = -153.9146221658
C   0.8260657415  0.5508603911 -0.1261794589
H   0.4554445983  1.2417513435 -0.8784317668
O   0.5680753083  1.0246514429  1.1187434847
C   1.4411098584 -0.5873603774 -0.4363613732
H   0.9099091373  0.3932317500  1.7666320721
H   1.5916834696 -0.8592929697 -1.4741885892
H   1.8089534565 -1.2734747403  0.3237244514
7
Iter 83 Image 1  Energy = -153.9132884505
C   0.8568096147  0.5744280250 -0.1650397176
H   0.4681275419  1.2268879707 -0.9359525617
O   0.7196849533  1.1068146736  1.0794457781
C   1.4102700751 -0.6078668743 -0.4087814843
H   0.8855862178  0.4043975241  1.7126020663
H   1.4008126719 -1.0512963943 -1.3916419228
H   1.8599501090 -1.1629980395  0.4033058336
7
Iter 83 Image 2  Energy = -153.9047003839
C   0.8752363201  0.6192243590 -0.1959293725
H   0.4881633600  1.2887738271 -0.9529071970
O   0.8001616943  1.0963793481  1.0761053327
C   1.3913347478 -0.5934248500 -0.3844812877
H   0.8215374957  0.2690467621  1.5703552170
H   1.2877327189 -1.1860335569 -1.2727155646
H   1.9370748663 -1.0035986837  0.4535111208
7
Iter 83 Image 3  Energy = -153.8891448896
C   0.8948195841  0.6580322651 -0.1976366704
H   0.5365462726  1.3419854656 -0.9620189315
O   0.7994883061  1.0713533402  1.0886550924
C   1.3695496286 -0.5743857188 -0.3425431298
H   0.7736713384  0.1351430167  1.4308214125
H   1.1936248585 -1.2261912306 -1.1685407212
H   2.0335414064 -0.9155686030  0.4452004186
7
Iter 83 Image 4  Energy = -153.8320559710
C   0.9020170560  0.7153960151 -0.1652887262
H   0.5647640614  1.3836172257 -0.9670607169
O   0.7875765914  1.1543688022  1.0659065339
C   1.2957687013 -0.5754443459 -0.2234572506
H   0.7809364835 -0.0868743770  1.2346514889
H   1.1449687042 -1.2248359084 -1.0791715389
H   2.1252099861 -0.8758583742  0.4283578696
7
Iter 83 Image 5  Energy = -153.8304935149
C   0.8916581672  0.7839281273 -0.1222195353
H   0.5667028781  1.4031168511 -0.9636167236
O   0.7791438539  1.2337998823  1.0340555306
C   1.2461156047 -0.5992780361 -0.1306523512
H   0.8076627601 -0.2471579665  1.1177033532
H   1.1595989325 -1.2036015565 -1.0589178978
H   2.1503594456 -0.8804384224  0.4175851884
7
Iter 83 Image 6  Energy = -153.8893394171
C   0.9040953301  0.8517922885 -0.0737179808
H   0.5702589546  1.3994917393 -0.9666568310
O   0.8156103641  1.3648535062  1.0190828946
C   1.2605801634 -0.5813834836 -0.0629428462
H   0.7343703644 -0.5341757361  0.9513051054
H   1.1058976086 -1.1855401318 -0.9779305022
H   2.2104286825 -0.8246697618  0.4047976332
7
Iter 83 Image 7  Energy = -153.9247713800
C   0.9041518301  0.8870993221 -0.0528262916
H   0.6417043447  1.3611109144 -1.0156962183
O   0.8271048344  1.5249267542  0.9670248860
C   1.2480616847 -0.5674716170  0.0171988433
H   0.6999022870 -0.7999788253  0.9269275037
H   1.0018348888 -1.1660958788 -0.8643889160
H   2.2784815097 -0.7492234215  0.3156982051
7
Iter 83 Image 8  Energy = -153.9287598994
C   0.8692843253  0.8853151768  0.0084201130
H   0.7304339543  1.3304711057 -0.9887341603
O   0.7413542902  1.5960682197  1.0190076005
C   1.2381380138 -0.5639944206  0.0488340992
H   0.7078898861 -1.0619873257  0.8531081461
H   1.0094869806 -1.0411839257 -0.9027665637
H   2.3046543626 -0.6543221561  0.2560699656
7
Iter 83 Image 9  Energy = -153.9312946243
C   0.8529144424  0.8896519409  0.0031252869
H   0.8352775676  1.3357683354 -1.0109498089
O   0.5726217388  1.5552907432  0.9662705487
C   1.2514295214 -0.5576289139  0.0682213306
H   0.8120165204 -1.0106102535  0.9531936059
H   0.9391135403 -1.0869422606 -0.8328292202
H   2.3378681641 -0.6351627356  0.1469068303
7
Iter 83 Image 10  Energy = -153.9315693393
C   0.8251378269  0.8818267162 -0.0097471949
H   0.9181773648  1.3304360032 -1.0187623227
O   0.3982002071  1.5298752921  0.9074100564
C   1.2715371330 -0.5488090819  0.0923623782
H   0.9299916011 -0.9860020774  1.0253754997
H   0.8968430581 -1.1227872408 -0.7551357113
H   2.3613543788 -0.5941727731  0.0524358975
7
Iter 83 Image 11  Energy = -153.9315568446
C   0.7840367852  0.8656586589 -0.0371164025
H   0.9809293880  1.3403901038 -1.0231241499
O   0.1875804579  1.4681235287  0.8223429327
C   1.3100769769 -0.5359012779  0.1153731248
H   1.0639489065 -0.9236344469  1.1059940899
H   0.8779311114 -1.1816924395 -0.6582837811
H   2.3967379442 -0.5425772870 -0.0312469938
7
Iter 84 Image 0  Energy = -153.9146221658
C   0.8260657415  0.5508603911 -0.1261794589
H   0.4554445983  1.2417513435 -0.8784317668
O   0.5680753083  1.0246514429  1.1187434847
C   1.4411098584 -0.5873603774 -0.4363613732
H   0.9099091373  0.3932317500  1.7666320721
H   1.5916834696 -0.8592929697 -1.4741885892
H   1.8089534565 -1.2734747403  0.3237244514
7
Iter 84 Image 1  Energy = -153.9132999284
C   0.8568783515  0.5742382898 -0.1651344086
H   0.4681119150  1.2264256903 -0.9363022591
O   0.7196068470  1.1073388940  1.0789975497
C   1.4102064033 -0.6081216710 -0.4086082947
H   0.8862501834  0.4056216096  1.7128660260
H   1.4004537297 -1.0517881304 -1.3914104972
H   1.8597337490 -1.1633477941  0.4035298754
7
Iter 84 Image 2  Energy = -153.9047255421
C   0.8751405026  0.6192169208 -0.1958865779
H   0.4882889125  1.2888636845 -0.9528246565
O   0.8001349647  1.0963768983  1.0761370382
C   1.3911402562 -0.5936322113 -0.3846314256
H   0.8213942601  0.2693044483  1.5708112104
H   1.2883398097 -1.1859185398 -1.2730833678
H   1.9368024997 -1.0038439777  0.4534160436
7
Iter 84 Image 3  Energy = -153.8889772198
C   0.8944809424  0.6585216182 -0.1972914203
H   0.5372436827  1.3421592640 -0.9626178376
O   0.7987580522  1.0716877646  1.0887022073
C   1.3677680108 -0.5746470642 -0.3408083982
H   0.7749307855  0.1340145875  1.4295712258
H   1.1942671793 -1.2254096292 -1.1685693502
H   2.0337927540 -0.9159579528  0.4449510381
7
Iter 84 Image 4  Energy = -153.8307505096
C   0.9013795142  0.7169082496 -0.1642228282
H   0.5654370380  1.3834158634 -0.9679479753
O   0.7865225612  1.1587316251  1.0644381089
C   1.2928693251 -0.5764835170 -0.2203352150
H   0.7829007272 -0.0918743770  1.2332265219
H   1.1463487428 -1.2233327482 -1.0789607381
H   2.1257836873 -0.8769960081  0.4277397813
7
Iter 84 Image 5  Energy = -153.8308770340
C   0.8908528403  0.7841844079 -0.1220731857
H   0.5678593397  1.4027433541 -0.9648659936
O   0.7778153261  1.2355544345  1.0328595367
C   1.2449106623 -0.5997013234 -0.1285115424
H   0.8093584601 -0.2485389854  1.1182008840
H   1.1598240321 -1.2029111211 -1.0583592651
H   2.1506209964 -0.8809618254  0.4166871318
7
Iter 84 Image 6  Energy = -153.8892070269
C   0.9037161501  0.8515667123 -0.0737915230
H   0.5703584511  1.3995632255 -0.9667334842
O   0.8148967316  1.3649097550  1.0191030548
C   1.2601686643 -0.5815159848 -0.0628004454
H   0.7349642163 -0.5340437113  0.9518754332
H   1.1072983891 -1.1849025515 -0.9788505150
H   2.2098388783 -0.8252089791  0.4051349400
7
Iter 84 Image 7  Energy = -153.9246840776
C   0.9044095865  0.8869154685 -0.0532195875
H   0.6406742699  1.3614622486 -1.0152368662
O   0.8281226317  1.5245319693  0.9675742704
C   1.2480182437 -0.5675581628  0.0167420037
H   0.6991809676 -0.7990410805  0.9263910914
H   1.0030679913 -1.1661076276 -0.8653527884
H   2.2777676961 -0.7498355306  0.3170398878
7
Iter 84 Image 8  Energy = -153.9288110630
C   0.8693876062  0.8853237983  0.0078795046
H   0.7306341798  1.3307166134 -0.9892726168
O   0.7403036628  1.5949703268  1.0185585534
C   1.2386081032 -0.5638756668  0.0486273414
H   0.7085439384 -1.0592888926  0.8545466949
H   1.0086207620 -1.0425632474 -0.9019667469
H   2.3051435622 -0.6549162545  0.2555664635
7
Iter 84 Image 9  Energy = -153.9312929448
C   0.8529056152  0.8895581230  0.0028185004
H   0.8359353709  1.3359394620 -1.0110967716
O   0.5712687221  1.5548124471  0.9660172949
C   1.2516789200 -0.5575678659  0.0682577746
H   0.8127959564 -1.0096071900  0.9539592254
H   0.9384870241 -1.0874561791 -0.8321733142
H   2.3381698819 -0.6353119410  0.1461558587
7
Iter 84 Image 10  Energy = -153.9315692227
C   0.8249496081  0.8819228133 -0.0096011269
H   0.9185460085  1.3305467471 -1.0187417341
O   0.3975268967  1.5294330536  0.9070369488
C   1.2716682806 -0.5487846880  0.0923838156
H   0.9303993119 -0.9856979215  1.0256392961
H   0.8966753684 -1.1229526191 -0.7548487566
H   2.3614760949 -0.5941005473  0.0520701544
7
Iter 84 Image 11  Energy = -153.9315568446
C   0.7840367852  0.8656586589 -0.0371164025
H   0.9809293880  1.3403901038 -1.0231241499
O   0.1875804579  1.4681235287  0.8223429327
C   1.3100769769 -0.5359012779  0.1153731248
H   1.0639489065 -0.9236344469  1.1059940899
H   0.8779311114 -1.1816924395 -0.6582837811
H   2.3967379442 -0.5425772870 -0.0312469938
7
Iter 85 Image 0  Energy = -153.9146221658
C   0.8260657415  0.5508603911 -0.1261794589
H   0.4554445983  1.2417513435 -0.8784317668
O   0.5680753083  1.0246514429  1.1187434847
C   1.4411098584 -0.5873603774 -0.4363613732
H   0.9099091373  0.3932317500  1.7666320721
H   1.5916834696 -0.8592929697 -1.4741885892
H   1.8089534565 -1.2734747403  0.3237244514
7
Iter 85 Image 1  Energy = -153.9133057747
C   0.8569533167  0.5741301783 -0.1651984016
H   0.4681076279  1.2261271853 -0.9365714124
O   0.7195856741  1.1077359530  1.0786617306
C   1.4100916907 -0.6082913325 -0.4084403449
H   0.8866967290  0.4063588620  1.7129515493
H   1.4001607244 -1.0521778722 -1.3911795915
H   1.8596454115 -1.1635160814  0.4037144638
7
Iter 85 Image 2  Energy = -153.9047331495
C   0.8751446755  0.6192718677 -0.1958673634
H   0.4884761253  1.2889200680 -0.9528325287
O   0.8000307362  1.0963193467  1.0761855262
C   1.3909736461 -0.5937232716 -0.3847110408
H   0.8212989711  0.2693257125  1.5709889350
H   1.2886030923 -1.1858354144 -1.2732028992
H   1.9367139617 -1.0039110705  0.4533776482
7
Iter 85 Image 3  Energy = -153.8887822474
C   0.8944296035  0.6590401178 -0.1971897846
H   0.5379025993  1.3422577216 -0.9632927724
O   0.7980526240  1.0717439640  1.0886353782
C   1.3664510592 -0.5748487274 -0.3391233331
H   0.7758253424  0.1331587888  1.4280887904
H   1.1940161186 -1.2250446074 -1.1678974970
H   2.0345640693 -0.9159386289  0.4447166820
7
Iter 85 Image 4  Energy = -153.8295641504
C   0.9012404348  0.7185732728 -0.1636159181
H   0.5660335395  1.3834719813 -0.9688395299
O   0.7858161950  1.1620985266  1.0634295330
C   1.2899336720 -0.5773889992 -0.2167418856
H   0.7845155882 -0.0968743770  1.2297686191
H   1.1464472543 -1.2223967065 -1.0775042045
H   2.1272549219 -0.8771145598  0.4274410457
7
Iter 85 Image 5  Energy = -153.8313411293
C   0.8905186717  0.7844403990 -0.1219921372
H   0.5688635527  1.4023142732 -0.9660693726
O   0.7768943717  1.2372514906  1.0317230643
C   1.2444414352 -0.5997480784 -0.1266722594
H   0.8101698424 -0.2503536052  1.1180334219
H   1.1589679006 -1.2027400893 -1.0569620454
H   2.1513858942 -0.8807953944  0.4158769035
7
Iter 85 Image 6  Energy = -153.8891621560
C   0.9035388050  0.8513856435 -0.0740085311
H   0.5706962502  1.3995517272 -0.9670589832
O   0.8140516921  1.3650812867  1.0188983409
C   1.2599052216 -0.5816127960 -0.0624467906
H   0.7355551095 -0.5338960675  0.9524026996
H   1.1077197985 -1.1846740716 -0.9789517132
H   2.2097746141 -0.8254672264  0.4051024309
7
Iter 85 Image 7  Energy = -153.9246135764
C   0.9046249518  0.8867456035 -0.0535687432
H   0.6400056058  1.3616712870 -1.0149254154
O   0.8286132541  1.5241481804  0.9680094856
C   1.2480489003 -0.5676361008  0.0164438416
H   0.6987195556 -0.7982039047  0.9260699221
H   1.0039218889 -1.1660725549 -0.8660181205
H   2.2773072374 -0.7502851946  0.3179270394
7
Iter 85 Image 8  Energy = -153.9290548705
C   0.8695569084  0.8858610236  0.0078218552
H   0.7306310331  1.3310663188 -0.9899429512
O   0.7396130375  1.5933258402  1.0171127059
C   1.2390375660 -0.5637552532  0.0484069502
H   0.7091660829 -1.0560732260  0.8563237634
H   1.0077139739 -1.0443106538 -0.9009576964
H   2.3055232135 -0.6557473673  0.2551745535
7
Iter 85 Image 9  Energy = -153.9312939184
C   0.8528824638  0.8895703222  0.0026598280
H   0.8364656185  1.3360833709 -1.0112375766
O   0.5701997154  1.5543646048  0.9656389373
C   1.2518611339 -0.5575263498  0.0683178274
H   0.8134437788 -1.0087924575  0.9546351844
H   0.9379936494 -1.0879010207 -0.8315762439
H   2.3383951257 -0.6354316127  0.1455006070
7
Iter 85 Image 10  Energy = -153.9315673871
C   0.8247278831  0.8820804336 -0.0093689207
H   0.9188665667  1.3306247358 -1.0187351169
O   0.3969806238  1.5290320912  0.9066064849
C   1.2717764328 -0.5487683076  0.0924109641
H   0.9307717496 -0.9855048682  1.0258708881
H   0.8965394797 -1.1230862486 -0.7546022022
H   2.3615788325 -0.5940109978  0.0517564925
7
Iter 85 Image 11  Energy = -153.9315568446
C   0.7840367852  0.8656586589 -0.0371164025
H   0.9809293880  1.3403901038 -1.0231241499
O   0.1875804579  1.4681235287  0.8223429327
C   1.3100769769 -0.5359012779  0.1153731248
H   1.0639489065 -0.9236344469  1.1059940899
H   0.8779311114 -1.1816924395 -0.6582837811
H   2.3967379442 -0.5425772870 -0.0312469938
7
Iter 86 Image 0  Energy = -153.9146221658
C   0.8260657415  0.5508603911 -0.1261794589
H   0.4554445983  1.2417513435 -0.8784317668
O   0.5680753083  1.0246514429  1.1187434847
C   1.4411098584 -0.5873603774 -0.4363613732
H   0.9099091373  0.3932317500  1.7666320721
H   1.5916834696 -0.8592929697 -1.4741885892
H   1.8089534565 -1.2734747403  0.3237244514
7
Iter 86 Image 1  Energy = -153.9133129762
C   0.8570033650  0.5740515798 -0.1652768726
H   0.4681026104  1.2257790515 -0.9368433096
O   0.7195616777  1.1081336290  1.0783437634
C   1.4099688444 -0.6085313749 -0.4082677357
H   0.8871772667  0.4072168835  1.7130578493
H   1.3998985466 -1.0525494854 -1.3909609094
H   1.8595288595 -1.1637333848  0.4038852061
7
Iter 86 Image 2  Energy = -153.9047488894
C   0.8751757338  0.6192505831 -0.1958437937
H   0.4886538099  1.2889504110 -0.9528476001
O   0.7999003042  1.0962784699  1.0762281335
C   1.3907648463 -0.5937689509 -0.3847454505
H   0.8212575125  0.2693992771  1.5712296156
H   1.2889437991 -1.1857128464 -1.2734116404
H   1.9365452063 -1.0040296881  0.4533290259
7
Iter 86 Image 3  Energy = -153.8885543816
C   0.8943271228  0.6596766128 -0.1970282378
H   0.5385914784  1.3423787364 -0.9639454975
O   0.7973443370  1.0718858676  1.0886431723
C   1.3648568059 -0.5752376653 -0.3374441794
H   0.7768242680  0.1320850371  1.4262935855
H   1.1938964663 -1.2244665983 -1.1671352701
H   2.0354009498 -0.9159533144  0.4445538855
7
Iter 86 Image 4  Energy = -153.8283935362
C   0.9009799329  0.7203623102 -0.1627388532
H   0.5667797984  1.3833683629 -0.9698087986
O   0.7850448325  1.1657429533  1.0620694663
C   1.2873810210 -0.5785176400 -0.2131687054
H   0.7859816906 -0.1018743770  1.2267738511
H   1.1464333463 -1.2214716530 -1.0760132420
H   2.1286409948 -0.8772407641  0.4268239474
7
Iter 86 Image 5  Energy = -153.8318616040
C   0.8901744380  0.7847378587 -0.1217506168
H   0.5699277486  1.4017588628 -0.9673835880
O   0.7760315883  1.2389524441  1.0304592670
C   1.2438514806 -0.5997630206 -0.1246261381
H   0.8109488193 -0.2522677219  1.1176326015
H   1.1580060095 -1.2024753938 -1.0554466745
H   2.1523015971 -0.8805739770  0.4150527330
7
Iter 86 Image 6  Energy = -153.8891293942
C   0.9033082373  0.8512974151 -0.0740546183
H   0.5711179420  1.3994982485 -0.9674787821
O   0.8131427559  1.3652627249  1.0184330942
C   1.2596181543 -0.5817397653 -0.0620249942
H   0.7362047405 -0.5338073440  0.9530768181
H   1.1081347576 -1.1843966993 -0.9789836132
H   2.2097149166 -0.8257460480  0.4049695398
7
Iter 86 Image 7  Energy = -153.9245428119
C   0.9048390820  0.8867764593 -0.0535146777
H   0.6392473150  1.3619224498 -1.0145949855
O   0.8291497924  1.5234722563  0.9681339823
C   1.2480786700 -0.5677269117  0.0161000361
H   0.6981829768 -0.7972927153  0.9256901885
H   1.0049189192 -1.1660060282 -0.8667688762
H   2.2768246458 -0.7507781616  0.3188923359
7
Iter 86 Image 8  Energy = -153.9291735699
C   0.8698003469  0.8860598698  0.0072289939
H   0.7305883382  1.3314296722 -0.9905734463
O   0.7389083087  1.5919621834  1.0160702063
C   1.2394553188 -0.5635977535  0.0482152977
H   0.7097742708 -1.0527741245  0.8581398823
H   1.0068187781 -1.0460933499 -0.8999168841
H   2.3058964536 -0.6566198106  0.2547751167
7
Iter 86 Image 9  Energy = -153.9312945915
C   0.8528633327  0.8895719280  0.0024832021
H   0.8370091868  1.3362391382 -1.0113776597
O   0.5691062217  1.5539268755  0.9652586862
C   1.2520459438 -0.5574781001  0.0683864940
H   0.8141072234 -1.0079842522  0.9553166762
H   0.9374916455 -1.0883543577 -0.8309554589
H   2.3386179262 -0.6355543732  0.1448266210
7
Iter 86 Image 10  Energy = -153.9315688832
C   0.8246472413  0.8820069997 -0.0094869622
H   0.9192256153  1.3307044144 -1.0186995335
O   0.3962074318  1.5288275051  0.9064510790
C   1.2718873262 -0.5487260938  0.0924630501
H   0.9312025541 -0.9853076300  1.0261349878
H   0.8963824183 -1.1232333785 -0.7543184669
H   2.3616889806 -0.5939049779  0.0513944276
7
Iter 86 Image 11  Energy = -153.9315568446
C   0.7840367852  0.8656586589 -0.0371164025
H   0.9809293880  1.3403901038 -1.0231241499
O   0.1875804579  1.4681235287  0.8223429327
C   1.3100769769 -0.5359012779  0.1153731248
H   1.0639489065 -0.9236344469  1.1059940899
H   0.8779311114 -1.1816924395 -0.6582837811
H   2.3967379442 -0.5425772870 -0.0312469938
7
Iter 87 Image 0  Energy = -153.9146221658
C   0.8260657415  0.5508603911 -0.1261794589
H   0.4554445983  1.2417513435 -0.8784317668
O   0.5680753083  1.0246514429  1.1187434847
C   1.4411098584 -0.5873603774 -0.4363613732
H   0.9099091373  0.3932317500  1.7666320721
H   1.5916834696 -0.8592929697 -1.4741885892
H   1.8089534565 -1.2734747403  0.3237244514
7
Iter 87 Image 1  Energy = -153.9133223020
C   0.8570791269  0.5739014379 -0.1653486261
H   0.4680860146  1.2254073488 -0.9371356061
O   0.7195315546  1.1085741964  1.0780137589
C   1.4097708535 -0.6087481642 -0.4080716818
H   0.8876911078  0.4081362140  1.7131915873
H   1.3996801990 -1.0529023512 -1.3907635552
H   1.8594023081 -1.1640017811  0.4040521123
7
Iter 87 Image 2  Energy = -153.9047703633
C   0.8752714351  0.6191318163 -0.1958078639
H   0.4888523474  1.2889616582 -0.9529022135
O   0.7997089182  1.0962501577  1.0762746368
C   1.3904646305 -0.5937226100 -0.3847314213
H   0.8212917093  0.2694563637  1.5714570444
H   1.2893103209 -1.1855335086 -1.2736489953
H   1.9363418536 -1.0041766102  0.4532971175
7
Iter 87 Image 3  Energy = -153.8882648380
C   0.8942308225  0.6603936572 -0.1968181872
H   0.5393534446  1.3425307225 -0.9646398865
O   0.7966305933  1.0720574688  1.0886725018
C   1.3629982984 -0.5756817770 -0.3354051862
H   0.7779063023  0.1307531628  1.4239648368
H   1.1937039866 -1.2237978561 -1.1662011225
H   2.0364179892 -0.9158866540  0.4443644988
7
Iter 87 Image 4  Energy = -153.8272193402
C   0.9006909236  0.7221411467 -0.1615887992
H   0.5675425946  1.3829120290 -0.9709272171
O   0.7842988903  1.1699360852  1.0602672455
C   1.2851297179 -0.5796542760 -0.2093520078
H   0.7873491285 -0.1068743770  1.2243102338
H   1.1463788265 -1.2206132852 -1.0747051836
H   2.1298515440 -0.8774780758  0.4259334008
7
Iter 87 Image 5  Energy = -153.8324996698
C   0.8898786602  0.7851236516 -0.1215160677
H   0.5710840184  1.4009989130 -0.9688427915
O   0.7752550949  1.2408895557  1.0291423497
C   1.2432277904 -0.5998100694 -0.1221695231
H   0.8116218424 -0.2544873000  1.1167514809
H   1.1566942930 -1.2021919396 -1.0535986685
H   2.1534799917 -0.8801537080  0.4141708232
7
Iter 87 Image 6  Energy = -153.8891366276
C   0.9030677292  0.8511346229 -0.0743804945
H   0.5717384926  1.3993358710 -0.9680856625
O   0.8120592378  1.3657116349  1.0179825902
C   1.2592962173 -0.5818647333 -0.0613893222
H   0.7369490672 -0.5338185814  0.9539222242
H   1.1083099279 -1.1841422085 -0.9787394852
H   2.2098208465 -0.8259880270  0.4046275913
7
Iter 87 Image 7  Energy = -153.9244555238
C   0.9050804835  0.8865985424 -0.0537811530
H   0.6384296412  1.3621911354 -1.0141915101
O   0.8295932491  1.5228416843  0.9685928227
C   1.2481460628 -0.5678082639  0.0157414715
H   0.6975913339 -0.7962340665  0.9252744612
H   1.0060651833 -1.1658893121 -0.8676126717
H   2.2763354555 -0.7513323299  0.3199145813
7
Iter 87 Image 8  Energy = -153.9293589526
C   0.8700531644  0.8864592680  0.0068753224
H   0.7304924575  1.3318461685 -0.9912837103
O   0.7382789924  1.5903879021  1.0146488531
C   1.2398696003 -0.5634643715  0.0480252512
H   0.7103663744 -1.0493051918  0.8600940572
H   1.0059092766 -1.0479967493 -0.8987592286
H   2.3062719504 -0.6575603344  0.2543386033
7
Iter 87 Image 9  Energy = -153.9312947902
C   0.8528611615  0.8895390112  0.0022372939
H   0.8375665730  1.3364089434 -1.0115152754
O   0.5679805827  1.5535355006  0.9648935089
C   1.2522258311 -0.5574210817  0.0684764404
H   0.8147924348 -1.0071907710  0.9560148783
H   0.9369834566 -1.0888234266 -0.8302901623
H   2.3388314353 -0.6356813148  0.1441218727
7
Iter 87 Image 10  Energy = -153.9315682896
C   0.8244572866  0.8820498967 -0.0094294151
H   0.9196432463  1.3307988740 -1.0186688103
O   0.3953823288  1.5284797020  0.9060710208
C   1.2720184760 -0.5486870551  0.0925283438
H   0.9317217973 -0.9850968004  1.0264445508
H   0.8962074837 -1.1234074175 -0.7539739904
H   2.3618109491 -0.5937703604  0.0509668761
7
Iter 87 Image 11  Energy = -153.9315568446
C   0.7840367852  0.8656586589 -0.0371164025
H   0.9809293880  1.3403901038 -1.0231241499
O   0.1875804579  1.4681235287  0.8223429327
C   1.3100769769 -0.5359012779  0.1153731248
H   1.0639489065 -0.9236344469  1.1059940899
H   0.8779311114 -1.1816924395 -0.6582837811
H   2.3967379442 -0.5425772870 -0.0312469938
7
Iter 88 Image 0  Energy = -153.9146221658
C   0.8260657415  0.5508603911 -0.1261794589
H   0.4554445983  1.2417513435 -0.8784317668
O   0.5680753083  1.0246514429  1.1187434847
C   1.4411098584 -0.5873603774 -0.4363613732
H   0.9099091373  0.3932317500  1.7666320721
H   1.5916834696 -0.8592929697 -1.4741885892
H   1.8089534565 -1.2734747403  0.3237244514
7
Iter 88 Image 1  Energy = -153.9133332602
C   0.8571296878  0.5737928845 -0.1654086926
H   0.4680670900  1.2249763751 -0.9374477131
O   0.7195016908  1.1090679583  1.0776427778
C   1.4095339081 -0.6090653548 -0.4078558038
H   0.8882611495  0.4091579628  1.7133571772
H   1.3994945145 -1.0532446379 -1.3905583708
H   1.8592531214 -1.1643182852  0.4042086184
7
Iter 88 Image 2  Energy = -153.9047919423
C   0.8753457809  0.6191255781 -0.1957603295
H   0.4891072491  1.2889107511 -0.9529741688
O   0.7994477189  1.0962019341  1.0763249911
C   1.3901227904 -0.5937795852 -0.3847112948
H   0.8214152357  0.2695038916  1.5716704517
H   1.2897221841 -1.1852498343 -1.2738828582
H   1.9360802586 -1.0043454486  0.4532715258
7
Iter 88 Image 3  Energy = -153.8879053522
C   0.8941491107  0.6612247316 -0.1965390877
H   0.5402195862  1.3426839837 -0.9654234184
O   0.7958779621  1.0722232532  1.0887078617
C   1.3608023973 -0.5761716325 -0.3328708708
H   0.7791164927  0.1291800184  1.4210289343
H   1.1934263034 -1.2230216610 -1.1650859596
H   2.0376495956 -0.9157499113  0.4441199989
7
Iter 88 Image 4  Energy = -153.8260818109
C   0.9003221166  0.7241511516 -0.1603899609
H   0.5683215235  1.3819571738 -0.9722043751
O   0.7835425538  1.1747287774  1.0583155047
C   1.2827327308 -0.5811038289 -0.2052524889
H   0.7888099001 -0.1118743770  1.2219698437
H   1.1464435691 -1.2195361531 -1.0734115901
H   2.1310692389 -0.8779534408  0.4249107537
7
Iter 88 Image 5  Energy = -153.8333000935
C   0.8896307776  0.7855572241 -0.1211176982
H   0.5723804593  1.3999830604 -0.9705716447
O   0.7745289086  1.2432695202  1.0275178343
C   1.2425663305 -0.5998193611 -0.1191754355
H   0.8122318786 -0.2571752170  1.1155050533
H   1.1549808835 -1.2018982194 -1.0513505440
H   2.1549224621 -0.8795478478  0.4131300594
7
Iter 88 Image 6  Energy = -153.8891815024
C   0.9028080124  0.8510642774 -0.0745097663
H   0.5725786954  1.3990680044 -0.9689669487
O   0.8107715686  1.3662239246  1.0170742522
C   1.2588972357 -0.5820148131 -0.0605119891
H   0.7378398728 -0.5338594137  0.9549908073
H   1.1082353573 -1.1839164715 -0.9781897404
H   2.2101107929 -0.8261968790  0.4040508239
7
Iter 88 Image 7  Energy = -153.9243624589
C   0.9053298701  0.8866443472 -0.0536319347
H   0.6375107674  1.3624986727 -1.0137603484
O   0.8299977204  1.5218197085  0.9687263855
C   1.2482560042 -0.5679224191  0.0153360945
H   0.6969095533 -0.7949910954  0.9247988472
H   1.0074051571 -1.1657218936 -0.8685565941
H   2.2758323461 -0.7519598842  0.3210255466
7
Iter 88 Image 8  Energy = -153.9295606156
C   0.8703871518  0.8869437611  0.0064157310
H   0.7302704601  1.3323385338 -0.9920681315
O   0.7377420485  1.5886073009  1.0129495564
C   1.2403034510 -0.5633027747  0.0478518381
H   0.7109538175 -1.0453294981  0.8623233451
H   1.0049404040 -1.0502003461 -0.8974264335
H   2.3066444838 -0.6586902757  0.2538932256
7
Iter 88 Image 9  Energy = -153.9312967737
C   0.8528303471  0.8895882111  0.0020858728
H   0.8381626749  1.3366040177 -1.0116667612
O   0.5668188420  1.5530676330  0.9643648709
C   1.2524064078 -0.5573650482  0.0685858015
H   0.8155296013 -1.0063811998  0.9567603428
H   0.9364501222 -1.0893292271 -0.8295444863
H   2.3390434741 -0.6358175234  0.1433529104
7
Iter 88 Image 10  Energy = -153.9315708830
C   0.8243450319  0.8819285839 -0.0096230758
H   0.9201419209  1.3309023127 -1.0186124868
O   0.3942822364  1.5282469146  0.9058382393
C   1.2721657837 -0.5486228964  0.0926227065
H   0.9323581059 -0.9848772472  1.0268205232
H   0.8959970825 -1.1236114710 -0.7535552268
H   2.3619514068 -0.5935993564  0.0504478936
7
Iter 88 Image 11  Energy = -153.9315568446
C   0.7840367852  0.8656586589 -0.0371164025
H   0.9809293880  1.3403901038 -1.0231241499
O   0.1875804579  1.4681235287  0.8223429327
C   1.3100769769 -0.5359012779  0.1153731248
H   1.0639489065 -0.9236344469  1.1059940899
H   0.8779311114 -1.1816924395 -0.6582837811
H   2.3967379442 -0.5425772870 -0.0312469938
7
Iter 89 Image 0  Energy = -153.9146221658
C   0.8260657415  0.5508603911 -0.1261794589
H   0.4554445983  1.2417513435 -0.8784317668
O   0.5680753083  1.0246514429  1.1187434847
C   1.4411098584 -0.5873603774 -0.4363613732
H   0.9099091373  0.3932317500  1.7666320721
H   1.5916834696 -0.8592929697 -1.4741885892
H   1.8089534565 -1.2734747403  0.3237244514
7
Iter 89 Image 1  Energy = -153.9133460036
C   0.8572040780  0.5736242864 -0.1654701574
H   0.4680384498  1.2245270963 -0.9377730526
O   0.7194772755  1.1095878844  1.0772858602
C   1.4092040208 -0.6093646827 -0.4076088219
H   0.8888466776  0.4102262220  1.7135231097
H   1.3993664597 -1.0535585926 -1.3903737624
H   1.8591041985 -1.1646753079  0.4043548203
7
Iter 89 Image 2  Energy = -153.9048201600
C   0.8755151119  0.6189764384 -0.1957020517
H   0.4893914436  1.2888304890 -0.9531105782
O   0.7991001422  1.0961696868  1.0763848938
C   1.3896475038 -0.5936824047 -0.3845948170
H   0.8216586541  0.2695153546  1.5718428813
H   1.2901480423 -1.1848982745 -1.2741544057
H   1.9357803228 -1.0045439784  0.4532723978
7
Iter 89 Image 3  Energy = -153.8874889394
C   0.8940757840  0.6622196300 -0.1962403215
H   0.5411379701  1.3427677866 -0.9662558231
O   0.7951362749  1.0724025929  1.0888068479
C   1.3582988927 -0.5768550032 -0.3300996571
H   0.7804004214  0.1274752610  1.4175478131
H   1.1930828492 -1.2220791634 -1.1637210737
H   2.0391092707 -0.9155622594  0.4438996827
7
Iter 89 Image 4  Energy = -153.8250719409
C   0.8999201444  0.7261723460 -0.1589310620
H   0.5690043398  1.3805254077 -0.9736514006
O   0.7829034723  1.1797287774  1.0561710843
C   1.2803337640 -0.5826403235 -0.2008223546
H   0.7903072654 -0.1164430230  1.2197096697
H   1.1466420407 -1.2183263072 -1.0723101471
H   2.1321306127 -0.8786475176  0.4237719054
7
Iter 89 Image 5  Energy = -153.8342457039
C   0.8894649554  0.7860635638 -0.1206763643
H   0.5737482139  1.3986257181 -0.9724926175
O   0.7739632393  1.2460583915  1.0257378824
C   1.2418759712 -0.5998246320 -0.1157760572
H   0.8126739002 -0.2602126649  1.1138529831
H   1.1528724874 -1.2015803594 -1.0487043850
H   2.1566429398 -0.8787607920  0.4119961983
7
Iter 89 Image 6  Energy = -153.8892774405
C   0.9025718199  0.8508801523 -0.0750593297
H   0.5736717561  1.3986393871 -0.9700915838
O   0.8092761717  1.3671093837  1.0162155690
C   1.2584672563 -0.5821924330 -0.0593390042
H   0.7388418794 -0.5339776646  0.9562737870
H   1.1077871140 -1.1837590780 -0.9772480843
H   2.2106255510 -0.8263310616  0.4031860874
7
Iter 89 Image 7  Energy = -153.9242517075
C   0.9056200091  0.8864078287 -0.0539332997
H   0.6365585406  1.3628067629 -1.0132653699
O   0.8302300983  1.5209027656  0.9693015712
C   1.2484205551 -0.5680200623  0.0149454101
H   0.6961783578 -0.7935914837  0.9242976221
H   1.0088720411 -1.1654993764 -0.8695603173
H   2.2753618255 -0.7526389466  0.3221523744
7
Iter 89 Image 8  Energy = -153.9297780553
C   0.8708016688  0.8875288717  0.0059384288
H   0.7299030048  1.3328970734 -0.9929099036
O   0.7373733733  1.5866816038  1.0109654927
C   1.2407241674 -0.5631219404  0.0476913062
H   0.7114746909 -1.0410424295  0.8647377465
H   1.0039761071 -1.0526057716 -0.8959536601
H   2.3069888062 -0.6599706945  0.2534697030
7
Iter 89 Image 9  Energy = -153.9312975962
C   0.8528473419  0.8895526964  0.0017792219
H   0.8387641379  1.3368104771 -1.0118048356
O   0.5656239418  1.5527194371  0.9639216365
C   1.2525700832 -0.5572947195  0.0687277484
H   0.8162784963 -1.0056283948  0.9575120716
H   0.9359236283 -1.0898405037 -0.8287543558
H   2.3392338318 -0.6359521279  0.1425570583
7
Iter 89 Image 10  Energy = -153.9315705731
C   0.8240940709  0.8819596022 -0.0095907494
H   0.9207083663  1.3310226439 -1.0185645492
O   0.3931319651  1.5278371007  0.9053229367
C   1.2723367401 -0.5485638013  0.0927320095
H   0.9330984477 -0.9846457143  1.0272519382
H   0.8957654762 -1.1238477920 -0.7530659628
H   2.3621065015 -0.5933951984  0.0498529425
7
Iter 89 Image 11  Energy = -153.9315568446
C   0.7840367852  0.8656586589 -0.0371164025
H   0.9809293880  1.3403901038 -1.0231241499
O   0.1875804579  1.4681235287  0.8223429327
C   1.3100769769 -0.5359012779  0.1153731248
H   1.0639489065 -0.9236344469  1.1059940899
H   0.8779311114 -1.1816924395 -0.6582837811
H   2.3967379442 -0.5425772870 -0.0312469938
7
Iter 90 Image 0  Energy = -153.9146221658
C   0.8260657415  0.5508603911 -0.1261794589
H   0.4554445983  1.2417513435 -0.8784317668
O   0.5680753083  1.0246514429  1.1187434847
C   1.4411098584 -0.5873603774 -0.4363613732
H   0.9099091373  0.3932317500  1.7666320721
H   1.5916834696 -0.8592929697 -1.4741885892
H   1.8089534565 -1.2734747403  0.3237244514
7
Iter 90 Image 1  Energy = -153.9133595098
C   0.8572617743  0.5734816182 -0.1655045364
H   0.4680057223  1.2240686231 -0.9380918221
O   0.7194603070  1.1101290064  1.0769167249
C   1.4088203797 -0.6097131211 -0.4073549037
H   0.8894281932  0.4112713896  1.7137030172
H   1.3993080391 -1.0538194335 -1.3902050384
H   1.8589567372 -1.1650511737  0.4044745546
7
Iter 90 Image 2  Energy = -153.9048457749
C   0.8756546611  0.6189698920 -0.1956247844
H   0.4897259586  1.2886702828 -0.9532816490
O   0.7986771878  1.0961216755  1.0764449574
C   1.3891361498 -0.5937055706 -0.3844573556
H   0.8220348374  0.2694907253  1.5719434211
H   1.2905723947 -1.1844296134 -1.2743814809
H   1.9354400372 -1.0047500496  0.4532952144
7
Iter 90 Image 3  Energy = -153.8870321574
C   0.8940855978  0.6631190729 -0.1958845696
H   0.5420331088  1.3427806561 -0.9671488615
O   0.7944634531  1.0725797408  1.0889163334
C   1.3555836134 -0.5774359856 -0.3268994602
H   0.7817180228  0.1257645555  1.4136524070
H   1.1926871796 -1.2211016853 -1.1623414152
H   2.0406704999 -0.9153374496  0.4436430437
7
Iter 90 Image 4  Energy = -153.8242554514
C   0.8994708017  0.7281863056 -0.1574246606
H   0.5695438613  1.3785861231 -0.9751569252
O   0.7824209809  1.1847287774  1.0540924271
C   1.2778944555 -0.5843415495 -0.1963444353
H   0.7918143868 -0.1202838403  1.2175368169
H   1.1470612385 -1.2168981786 -1.0713961023
H   2.1330359198 -0.8796082260  0.4226305844
7
Iter 90 Image 5  Energy = -153.8353091414
C   0.8893903010  0.7865999817 -0.1201630445
H   0.5751083452  1.3969234747 -0.9745683536
O   0.7736115929  1.2491871737  1.0238427478
C   1.2411743513 -0.5998270684 -0.1119958115
H   0.8129561010 -0.2634255327  1.1118316128
H   1.1504775291 -1.2012336092 -1.0457943267
H   2.1585234924 -0.8778551307  0.4107848372
7
Iter 90 Image 6  Energy = -153.8894248816
C   0.9023581477  0.8508168506 -0.0753570320
H   0.5749805001  1.3980534202 -0.9715160901
O   0.8076671896  1.3680803572  1.0148180056
C   1.2579849477 -0.5823839717 -0.0579246101
H   0.7399306157 -0.5341148640  0.9577711014
H   1.1069330013 -1.1837019563 -0.9758922337
H   2.2113871621 -0.8263810913  0.4020383086
7
Iter 90 Image 7  Energy = -153.9241418941
C   0.9058960039  0.8864113523 -0.0537854547
H   0.6356075492  1.3631153206 -1.0127990043
O   0.8303027235  1.5196259193  0.9694886421
C   1.2486404633 -0.5681429082  0.0145550997
H   0.6954284294 -0.7920685257  0.9237981580
H   1.0104071732 -1.1652377249 -0.8705536131
H   2.2749590964 -0.7533358872  0.3232341569
7
Iter 90 Image 8  Energy = -153.9300041465
C   0.8712956282  0.8882313263  0.0054817875
H   0.7293515125  1.3335132933 -0.9937957409
O   0.7372564915  1.5846483997  1.0087149087
C   1.2411157972 -0.5629453984  0.0475503619
H   0.7118809550 -1.0365289890  0.8672542426
H   1.0030679620 -1.0551602132 -0.8943838259
H   2.3072734734 -0.6613916950  0.2531173597
7
Iter 90 Image 9  Energy = -153.9313005757
C   0.8528213208  0.8896451934  0.0016567723
H   0.8393364542  1.3370263311 -1.0119450880
O   0.5645534780  1.5523198713  0.9632908879
C   1.2527077837 -0.5572343033  0.0688854157
H   0.8169963092 -1.0049764105  0.9582261980
H   0.9354384319 -1.0903337106 -0.8279528136
H   2.3393876764 -0.6360801040  0.1417771686
7
Iter 90 Image 10  Energy = -153.9315737514
C   0.8239412155  0.8818142165 -0.0098285779
H   0.9213233633  1.3311439194 -1.0184926341
O   0.3917625549  1.5275837546  0.9049927908
C   1.2725127319 -0.5484820644  0.0928689482
H   0.9339207491 -0.9844289907  1.0277267427
H   0.8955118709 -1.1241006706 -0.7525270401
H   2.3622690822 -0.5931633248  0.0491983310
7
Iter 90 Image 11  Energy = -153.9315568446
C   0.7840367852  0.8656586589 -0.0371164025
H   0.9809293880  1.3403901038 -1.0231241499
O   0.1875804579  1.4681235287  0.8223429327
C   1.3100769769 -0.5359012779  0.1153731248
H   1.0639489065 -0.9236344469  1.1059940899
H   0.8779311114 -1.1816924395 -0.6582837811
H   2.3967379442 -0.5425772870 -0.0312469938
7
Iter 91 Image 0  Energy = -153.9146221658
C   0.8260657415  0.5508603911 -0.1261794589
H   0.4554445983  1.2417513435 -0.8784317668
O   0.5680753083  1.0246514429  1.1187434847
C   1.4411098584 -0.5873603774 -0.4363613732
H   0.9099091373  0.3932317500  1.7666320721
H   1.5916834696 -0.8592929697 -1.4741885892
H   1.8089534565 -1.2734747403  0.3237244514
7
Iter 91 Image 1  Energy = -153.9133745219
C   0.8573141750  0.5733276345 -0.1655383073
H   0.4679679827  1.2235836821 -0.9384143498
O   0.7194552216  1.1106854649  1.0765668153
C   1.4083593926 -0.6100931303 -0.4070752625
H   0.8900206304  0.4123668060  1.7138811870
H   1.3993200041 -1.0540365492 -1.3900558093
H   1.8588037402 -1.1654669932  0.4045737224
7
Iter 91 Image 2  Energy = -153.9048770432
C   0.8758689361  0.6188462507 -0.1955328037
H   0.4900960216  1.2884652016 -0.9535272161
O   0.7981586109  1.0960931156  1.0765169146
C   1.3884795862 -0.5936031768 -0.3842030619
H   0.8225695847  0.2694309359  1.5719803610
H   1.2910183752 -1.1838677838 -1.2746459097
H   1.9350501173 -1.0049971647  0.4533500421
7
Iter 91 Image 3  Energy = -153.8865305026
C   0.8940315694  0.6642669330 -0.1954681194
H   0.5429356942  1.3426213743 -0.9680796722
O   0.7938595231  1.0728005975  1.0890716549
C   1.3525931917 -0.5783739332 -0.3235047815
H   0.7831214717  0.1240585123  1.4092862105
H   1.1923301548 -1.2198797524 -1.1607832113
H   2.0423698816 -0.9151247615  0.4434154132
7
Iter 91 Image 4  Energy = -153.8236082527
C   0.8989646688  0.7302129588 -0.1557822681
H   0.5699744186  1.3761484097 -0.9767712133
O   0.7820891815  1.1897287774  1.0520350761
C   1.2753099647 -0.5861965707 -0.1915972762
H   0.7933692483 -0.1234834926  1.2152329327
H   1.1476872101 -1.2152084726 -1.0706060993
H   2.1338469551 -0.8808321479  0.4214265744
7
Iter 91 Image 5  Energy = -153.8365073714
C   0.8894015909  0.7871775548 -0.1194969334
H   0.5764633845  1.3947713389 -0.9768625554
O   0.7735002200  1.2527241889  1.0217685138
C   1.2403907312 -0.5998386156 -0.1078237905
H   0.8130776547 -0.2668172293  1.1094319695
H   1.1478105014 -1.2007795061 -1.0425737692
H   2.1605976338 -0.8768683731  0.4094942452
7
Iter 91 Image 6  Energy = -153.8896243937
C   0.9021736039  0.8506311102 -0.0761162279
H   0.5765555550  1.3972255253 -0.9732265794
O   0.8058753422  1.3694876818  1.0134548637
C   1.2574587269 -0.5826146508 -0.0561712124
H   0.7411323171 -0.5342808504  0.9595296401
H   1.1056576295 -1.1837206194 -0.9741060650
H   2.2123884059 -0.8263593940  0.4005730379
7
Iter 91 Image 7  Energy = -153.9240154931
C   0.9062063362  0.8861571261 -0.0540488176
H   0.6346417812  1.3634124021 -1.0122920254
O   0.8301665221  1.5184327727  0.9700633706
C   1.2489237204 -0.5682502205  0.0141906513
H   0.6946403523 -0.7903716635  0.9232923775
H   1.0120501641 -1.1649307787 -0.8715781747
H   2.2746125729 -0.7540820283  0.3243105952
7
Iter 91 Image 8  Energy = -153.9301990105
C   0.8719015726  0.8889215090  0.0048276578
H   0.7286207643  1.3341892394 -0.9947266536
O   0.7373451469  1.5826149878  1.0063580913
C   1.2414878169 -0.5627533941  0.0474427063
H   0.7121775743 -1.0317412000  0.8699089021
H   1.0021971330 -1.0578939837 -0.8926915648
H   2.3075118110 -0.6629704206  0.2528199295
7
Iter 91 Image 9  Energy = -153.9313023297
C   0.8528608112  0.8896198255  0.0013293286
H   0.8399001429  1.3372498182 -1.0120657553
O   0.5634683406  1.5520961057  0.9628026264
C   1.2528203685 -0.5571580542  0.0690789802
H   0.8177064999 -1.0044173179  0.9589267853
H   0.9349738266 -1.0908197190 -0.8271214958
H   2.3395114574 -0.6362037900  0.1409880662
7
Iter 91 Image 10  Energy = -153.9315741988
C   0.8236549327  0.8818154042 -0.0098489619
H   0.9220030174  1.3312843242 -1.0184283353
O   0.3903465029  1.5271599177  0.9043896429
C   1.2727115030 -0.5484057742  0.0930200646
H   0.9348436071 -0.9841989148  1.0282548056
H   0.8952372488 -1.1243855977 -0.7519193027
H   2.3624447589 -0.5929025199  0.0484706400
7
Iter 91 Image 11  Energy = -153.9315568446
C   0.7840367852  0.8656586589 -0.0371164025
H   0.9809293880  1.3403901038 -1.0231241499
O   0.1875804579  1.4681235287  0.8223429327
C   1.3100769769 -0.5359012779  0.1153731248
H   1.0639489065 -0.9236344469  1.1059940899
H   0.8779311114 -1.1816924395 -0.6582837811
H   2.3967379442 -0.5425772870 -0.0312469938
7
Iter 92 Image 0  Energy = -153.9146221658
C   0.8260657415  0.5508603911 -0.1261794589
H   0.4554445983  1.2417513435 -0.8784317668
O   0.5680753083  1.0246514429  1.1187434847
C   1.4411098584 -0.5873603774 -0.4363613732
H   0.9099091373  0.3932317500  1.7666320721
H   1.5916834696 -0.8592929697 -1.4741885892
H   1.8089534565 -1.2734747403  0.3237244514
7
Iter 92 Image 1  Energy = -153.9133913225
C   0.8573683374  0.5731370117 -0.1655462574
H   0.4679205452  1.2230826241 -0.9387428172
O   0.7194578610  1.1112834771  1.0762047396
C   1.4078014327 -0.6104867853 -0.4067739413
H   0.8906243576  0.4134739243  1.7140813549
H   1.3994223574 -1.0541935855 -1.3899348651
H   1.8586462514 -1.1659297451  0.4046497888
7
Iter 92 Image 2  Energy = -153.9049068977
C   0.8760428214  0.6188650985 -0.1954089673
H   0.4905309511  1.2881616511 -0.9538322102
O   0.7975396550  1.0960619984  1.0765901254
C   1.3877425146 -0.5936316313 -0.3838845156
H   0.8233022883  0.2693304138  1.5719139710
H   1.2914863189 -1.1831426301 -1.2748772483
H   1.9345966898 -1.0052774809  0.4534371678
7
Iter 92 Image 3  Energy = -153.8859870076
C   0.8940962539  0.6651142652 -0.1949752219
H   0.5437728806  1.3423190629 -0.9691087122
O   0.7933649601  1.0731178567  1.0892695525
C   1.3491969160 -0.5791123765 -0.3195898658
H   0.7846082820  0.1224292727  1.4044560284
H   1.1920348471 -1.2185292764 -1.1592935317
H   2.0441673595 -0.9149697715  0.4431792647
7
Iter 92 Image 4  Energy = -153.8231423279
C   0.8984092605  0.7321743930 -0.1540044484
H   0.5702549287  1.3731795454 -0.9784730982
O   0.7819363819  1.1946126499  1.0500592544
C   1.2725485285 -0.5881774913 -0.1866903131
H   0.7949444191 -0.1258331358  1.2128413540
H   1.1485935353 -1.2131940401 -1.0699758896
H   2.1345545943 -0.8823924202  0.4201808766
7
Iter 92 Image 5  Energy = -153.8378391021
C   0.8894854704  0.7878070900 -0.1188292463
H   0.5777653907  1.3920676023 -0.9793407572
O   0.7736717062  1.2567752234  1.0196709365
C   1.2394853272 -0.5999327886 -0.1031775260
H   0.8130746556 -0.2703228743  1.1065981866
H   1.1449678668 -1.2001433640 -1.0391110829
H   2.1627913030 -0.8758814644  0.4081271961
7
Iter 92 Image 6  Energy = -153.8898810628
C   0.9020080297  0.8505661694 -0.0766134409
H   0.5783973878  1.3961032826 -0.9753572074
O   0.8039685119  1.3710773589  1.0114344769
C   1.2568510570 -0.5828779132 -0.0540786588
H   0.7424540113 -0.5343997082  0.9616121958
H   1.1038891243 -1.1838356729 -0.9718089384
H   2.2136734685 -0.8262646407  0.3987490425
7
Iter 92 Image 7  Energy = -153.9238837054
C   0.9065069372  0.8860759085 -0.0539721291
H   0.6336781262  1.3636960664 -1.0118212925
O   0.8298095321  1.5169082908  0.9703305958
C   1.2492785638 -0.5683782270  0.0138383341
H   0.6938315052 -0.7884781432  0.9228031669
H   1.0137833384 -1.1645876948 -0.8725876242
H   2.2743534573 -0.7548685165  0.3253469164
7
Iter 92 Image 8  Energy = -153.9303898457
C   0.8726009248  0.8897332346  0.0041971414
H   0.7276778709  1.3349266459 -0.9957281949
O   0.7377276299  1.5805102748  1.0037280636
C   1.2418269014 -0.5625813718  0.0473648030
H   0.7123169810 -1.0267412000  0.8726544248
H   1.0014040385 -1.0607776007 -0.8908809332
H   2.3076874713 -0.6647032299  0.2526037372
7
Iter 92 Image 9  Energy = -153.9313060956
C   0.8528429253  0.8897592709  0.0012394447
H   0.8404292225  1.3374860648 -1.0121934062
O   0.5625430252  1.5518120364  0.9620762854
C   1.2529017218 -0.5570949656  0.0692926281
H   0.8183762100 -1.0039872763  0.9595805309
H   0.9345576043 -1.0912860959 -0.8262773635
H   2.3395907315 -0.6363221658  0.1402204116
7
Iter 92 Image 10  Energy = -153.9315778814
C   0.8234629773  0.8816408880 -0.0101395136
H   0.9227421699  1.3314334904 -1.0183367911
O   0.3886857435  1.5268811949  0.9039575424
C   1.2729191032 -0.5483061873  0.0932012680
H   0.9358656683 -0.9839745815  1.0288346609
H   0.8949359893 -1.1246943502 -0.7512492509
H   2.3626299215 -0.5926136140  0.0476706285
7
Iter 92 Image 11  Energy = -153.9315568446
C   0.7840367852  0.8656586589 -0.0371164025
H   0.9809293880  1.3403901038 -1.0231241499
O   0.1875804579  1.4681235287  0.8223429327
C   1.3100769769 -0.5359012779  0.1153731248
H   1.0639489065 -0.9236344469  1.1059940899
H   0.8779311114 -1.1816924395 -0.6582837811
H   2.3967379442 -0.5425772870 -0.0312469938
7
Iter 93 Image 0  Energy = -153.9146221658
C   0.8260657415  0.5508603911 -0.1261794589
H   0.4554445983  1.2417513435 -0.8784317668
O   0.5680753083  1.0246514429  1.1187434847
C   1.4411098584 -0.5873603774 -0.4363613732
H   0.9099091373  0.3932317500  1.7666320721
H   1.5916834696 -0.8592929697 -1.4741885892
H   1.8089534565 -1.2734747403  0.3237244514
7
Iter 93 Image 1  Energy = -153.9134091279
C   0.8573737927  0.5729961700 -0.1655473373
H   0.4678758019  1.2225506514 -0.9390585900
O   0.7194745529  1.1118761295  1.0758621793
C   1.4072164609 -0.6109663092 -0.4064665208
H   0.8912323016  0.4146269281  1.7142866983
H   1.3995999597 -1.0542867161 -1.3898336694
H   1.8584682705 -1.1664299254  0.4046952439
7
Iter 93 Image 2  Energy = -153.9049406221
C   0.8762583716  0.6187665964 -0.1952654758
H   0.4909919339  1.2878211289 -0.9542137088
O   0.7968464678  1.0960669794  1.0766751523
C   1.3868562553 -0.5935511251 -0.3834337970
H   0.8242029478  0.2691998025  1.5717518584
H   1.2919793222 -1.1823221996 -1.2751393419
H   1.9341059480 -1.0056137172  0.4535636261
7
Iter 93 Image 3  Energy = -153.8854322143
C   0.8939511646  0.6663371914 -0.1943988554
H   0.5445660492  1.3417348688 -0.9701168686
O   0.7930169852  1.0735201766  1.0894702273
C   1.3457174029 -0.5804335048 -0.3156456708
H   0.7861430972  0.1210080680  1.3994560284
H   1.1919277633 -1.2168786524 -1.1577713782
H   2.0459190505 -0.9149190452  0.4429440495
7
Iter 93 Image 4  Energy = -153.8228338819
C   0.8978089316  0.7340769884 -0.1522686986
H   0.5704611672  1.3699024469 -0.9801880174
O   0.7819043084  1.1992146300  1.0483211488
C   1.2696649925 -0.5902622212 -0.1817358432
H   0.7964765735 -0.1274848127  1.2103003406
H   1.1496707208 -1.2109101512 -1.0693822619
H   2.1352549502 -0.8841673415  0.4188910763
7
Iter 93 Image 5  Energy = -153.8392316106
C   0.8896216018  0.7884559612 -0.1178609976
H   0.5789281000  1.3889418128 -0.9819506488
O   0.7741181310  1.2610490288  1.0174130427
C   1.2384423151 -0.6000502739 -0.0983492723
H   0.8129793968 -0.2737203865  1.1035494813
H   1.1421891206 -1.1992804488 -1.0356228118
H   2.1649630532 -0.8750262113  0.4067589301
7
Iter 93 Image 6  Energy = -153.8901701416
C   0.9018744683  0.8503418245 -0.0776362262
H   0.5804178358  1.3946426647 -0.9777386329
O   0.8020024349  1.3731434004  1.0095722832
C   1.2561972927 -0.5831889220 -0.0516903592
H   0.7438437081 -0.5344441112  0.9639270051
H   1.1017844289 -1.1839787554 -0.9691829764
H   2.2151214388 -0.8261471503  0.3966863954
7
Iter 93 Image 7  Energy = -153.9237418241
C   0.9068150392  0.8858039275 -0.0542070355
H   0.6327533196  1.3639343040 -1.0113716629
O   0.8292450701  1.5154895238  0.9708445987
C   1.2496846704 -0.5684905074  0.0135360700
H   0.6930313690 -0.7864546226  0.9223572448
H   1.0155382045 -1.1642318146 -0.8735565636
H   2.2741737980 -0.7556830480  0.3263353040
7
Iter 93 Image 8  Energy = -153.9305199096
C   0.8733842328  0.8904109691  0.0032897519
H   0.7266106030  1.3356718611 -0.9967334000
O   0.7382841417  1.5786374109  1.0012616323
C   1.2421315756 -0.5624139623  0.0473437955
H   0.7123202714 -1.0217718823  0.8753629975
H   1.0006970613 -1.0636714463 -0.8890396448
H   2.3078139316 -0.6664961800  0.2524538782
7
Iter 93 Image 9  Energy = -153.9313085319
C   0.8529166994  0.8897180797  0.0008605109
H   0.8409203074  1.3377163279 -1.0122924790
O   0.5616382411  1.5517889675  0.9616133217
C   1.2529514744 -0.5570155674  0.0695358531
H   0.8189974082 -1.0036856198  0.9601832849
H   0.9341823046 -1.0917214982 -0.8254509151
H   2.3396349997 -0.6364338188  0.1394889503
7
Iter 93 Image 10  Energy = -153.9315786481
C   0.8231422180  0.8816327635 -0.0101809169
H   0.9235078126  1.3316020420 -1.0182560057
O   0.3870741732  1.5264294853  0.9032622180
C   1.2731396908 -0.5482190637  0.0933836153
H   0.9369316710 -0.9837381337  1.0294349260
H   0.8946284632 -1.1250212040 -0.7505456311
H   2.3628175446 -0.5923190487  0.0468403342
7
Iter 93 Image 11  Energy = -153.9315568446
C   0.7840367852  0.8656586589 -0.0371164025
H   0.9809293880  1.3403901038 -1.0231241499
O   0.1875804579  1.4681235287  0.8223429327
C   1.3100769769 -0.5359012779  0.1153731248
H   1.0639489065 -0.9236344469  1.1059940899
H   0.8779311114 -1.1816924395 -0.6582837811
H   2.3967379442 -0.5425772870 -0.0312469938
7
Iter 94 Image 0  Energy = -153.9146221658
C   0.8260657415  0.5508603911 -0.1261794589
H   0.4554445983  1.2417513435 -0.8784317668
O   0.5680753083  1.0246514429  1.1187434847
C   1.4411098584 -0.5873603774 -0.4363613732
H   0.9099091373  0.3932317500  1.7666320721
H   1.5916834696 -0.8592929697 -1.4741885892
H   1.8089534565 -1.2734747403  0.3237244514
7
Iter 94 Image 1  Energy = -153.9134284897
C   0.8574087223  0.5727244811 -0.1655296607
H   0.4678179828  1.2220313226 -0.9393775503
O   0.7194917621  1.1124934545  1.0755285052
C   1.4065395741 -0.6113561317 -0.4061418785
H   0.8918378899  0.4157707134  1.7145144667
H   1.3998640927 -1.0543142297 -1.3897837128
H   1.8582811112 -1.1669826830  0.4047278357
7
Iter 94 Image 2  Energy = -153.9049708594
C   0.8763766017  0.6188314817 -0.1950886460
H   0.4914965489  1.2874013451 -0.9546403438
O   0.7961038726  1.0960887223  1.0767546515
C   1.3859204863 -0.5936432718 -0.3829097181
H   0.8252769152  0.2690397752  1.5714568372
H   1.2924887523 -1.1813596425 -1.2753538833
H   1.9335780795 -1.0059908864  0.4537194074
7
Iter 94 Image 3  Energy = -153.8848838373
C   0.8939991403  0.6667776337 -0.1937604234
H   0.5452015573  1.3410232242 -0.9712057656
O   0.7928200953  1.0741465609  1.0897085020
C   1.3418866726 -0.5812011269 -0.3114194094
H   0.7876729430  0.1198455070  1.3944560284
H   1.1920198246 -1.2151549478 -1.1565658445
H   2.0476412933 -0.9150676861  0.4427244664
7
Iter 94 Image 4  Energy = -153.8226583819
C   0.8972282447  0.7357178635 -0.1504810300
H   0.5705653941  1.3664809713 -0.9819005122
O   0.7819776911  1.2033195008  1.0467600183
C   1.2667801285 -0.5922216102 -0.1769682061
H   0.7978692752 -0.1283426743  1.2078569305
H   1.1509009070 -1.2084334006 -1.0688973073
H   2.1359199971 -0.8861510869  0.4175678625
7
Iter 94 Image 5  Energy = -153.8406337971
C   0.8897674084  0.7891207826 -0.1171570318
H   0.5799085245  1.3854111702 -0.9845080378
O   0.7747843812  1.2656609272  1.0155125788
C   1.2372642754 -0.6003232224 -0.0934093724
H   0.8128658831 -0.2769642497  1.1003435357
H   1.1396746559 -1.1981073800 -1.0322762761
H   2.1669765864 -0.8744284901  0.4054323371
7
Iter 94 Image 6  Energy = -153.8904813037
C   0.9017490767  0.8503027108 -0.0781202283
H   0.5825180684  1.3928268895 -0.9804535352
O   0.8001477559  1.3752379636  1.0069869602
C   1.2554764082 -0.5835192032 -0.0491041737
H   0.7452667198 -0.5343030294  0.9664635669
H   1.0993904624 -1.1841346013 -0.9662714662
H   2.2166931298 -0.8260417047  0.3944363909
7
Iter 94 Image 7  Energy = -153.9236007270
C   0.9070878826  0.8856149125 -0.0542924207
H   0.6319190167  1.3640961992 -1.0110234707
O   0.8284768632  1.5139878630  0.9711451679
C   1.2501323599 -0.5686065788  0.0132970811
H   0.6922879812 -0.7843422953  0.9220017524
H   1.0172369440 -1.1638825894 -0.8744102669
H   2.2741004336 -0.7564996649  0.3272200976
7
Iter 94 Image 8  Energy = -153.9306348738
C   0.8741681480  0.8911640016  0.0025353765
H   0.7254664630  1.3363914557 -0.9977435074
O   0.7390520311  1.5769071680  0.9987365557
C   1.2423795975 -0.5622962223  0.0473745478
H   0.7121648269 -1.0171140945  0.8778939880
H   1.0001231879 -1.0664293563 -0.8872290877
H   2.3078875627 -0.6682561613  0.2523711082
7
Iter 94 Image 9  Energy = -153.9313125141
C   0.8528847429  0.8899348124  0.0008868374
H   0.8413365804  1.3379430913 -1.0124060065
O   0.5610152020  1.5516379105  0.9608304633
C   1.2529669963 -0.5569657642  0.0697741827
H   0.8195215522 -1.0035373789  0.9606895369
H   0.9338829913 -1.0921079100 -0.8246807511
H   2.3396333638 -0.6365378866  0.1388442606
7
Iter 94 Image 10  Energy = -153.9315828953
C   0.8229801641  0.8814059653 -0.0105549625
H   0.9242627904  1.3317743132 -1.0181457556
O   0.3853360065  1.5261944503  0.9028627323
C   1.2733490816 -0.5481131527  0.0935769634
H   0.9379955941 -0.9835163389  1.0300290494
H   0.8943213284 -1.1253449000 -0.7498444783
H   2.3629966093 -0.5920334972  0.0460149838
7
Iter 94 Image 11  Energy = -153.9315568446
C   0.7840367852  0.8656586589 -0.0371164025
H   0.9809293880  1.3403901038 -1.0231241499
O   0.1875804579  1.4681235287  0.8223429327
C   1.3100769769 -0.5359012779  0.1153731248
H   1.0639489065 -0.9236344469  1.1059940899
H   0.8779311114 -1.1816924395 -0.6582837811
H   2.3967379442 -0.5425772870 -0.0312469938
7
Iter 95 Image 0  Energy = -153.9146221658
C   0.8260657415  0.5508603911 -0.1261794589
H   0.4554445983  1.2417513435 -0.8784317668
O   0.5680753083  1.0246514429  1.1187434847
C   1.4411098584 -0.5873603774 -0.4363613732
H   0.9099091373  0.3932317500  1.7666320721
H   1.5916834696 -0.8592929697 -1.4741885892
H   1.8089534565 -1.2734747403  0.3237244514
7
Iter 95 Image 1  Energy = -153.9134487200
C   0.8573247129  0.5726220283 -0.1654960372
H   0.4677757144  1.2214466838 -0.9396764526
O   0.7195247791  1.1131039339  1.0751839554
C   1.4059082355 -0.6119585086 -0.4058301734
H   0.8924725035  0.4170012550  1.7147613152
H   1.4001909421 -1.0542716484 -1.3897296017
H   1.8580442428 -1.1675768164  0.4047250028
7
Iter 95 Image 2  Energy = -153.9050041227
C   0.8765132483  0.6187522400 -0.1948882581
H   0.4920272225  1.2869563073 -0.9551482573
O   0.7953056391  1.0961667165  1.0768472710
C   1.3848107488 -0.5936230216 -0.3822412437
H   0.8265172944  0.2688582051  1.5710459957
H   1.2930413480 -1.1802941811 -1.2755990996
H   1.9330257654 -1.0064486797  0.4539218825
7
Iter 95 Image 3  Energy = -153.8843347907
C   0.8935854913  0.6680776167 -0.1930388329
H   0.5458453020  1.3399217235 -0.9722197646
O   0.7927774816  1.0748429565  1.0898819496
C   1.3382297822 -0.5830554493 -0.3072471953
H   0.7892353848  0.1189796497  1.3894560284
H   1.1923475871 -1.2130428076 -1.1553019082
H   2.0492205052 -0.9153544690  0.4424072929
7
Iter 95 Image 4  Energy = -153.8225558035
C   0.8966123578  0.7373839146 -0.1488862041
H   0.5706876600  1.3629445814 -0.9836040570
O   0.7820534423  1.2072332568  1.0454729770
C   1.2638470305 -0.5942939173 -0.1721968040
H   0.7991702354 -0.1289085986  1.2053370988
H   1.1521857303 -1.2057157212 -1.0683275081
H   2.1366851780 -0.8882739311  0.4161422583
7
Iter 95 Image 5  Energy = -153.8420553902
C   0.8899332547  0.7898457599 -0.1157930405
H   0.5807186116  1.3815959201 -0.9872023580
O   0.7756614799  1.2702599608  1.0131881708
C   1.2359622624 -0.6005437176 -0.0884405605
H   0.8127201742 -0.2800624743  1.0970962907
H   1.1373797782 -1.1966454862 -1.0290262658
H   2.1688661490 -0.8740803854  0.4041155115
7
Iter 95 Image 6  Energy = -153.8908027181
C   0.9016651018  0.8499577087 -0.0794843588
H   0.5847129899  1.3905535931 -0.9833679729
O   0.7982909846  1.3779937054  1.0049272648
C   1.2547033721 -0.5839007878 -0.0462364619
H   0.7467478592 -0.5340097437  0.9692106344
H   1.0967950734 -1.1842152835 -0.9631549100
H   2.2183262487 -0.8260100822  0.3920433489
7
Iter 95 Image 7  Energy = -153.9234566322
C   0.9073418599  0.8854399682 -0.0543456168
H   0.6311492608  1.3641641163 -1.0107816173
O   0.8275495541  1.5124853827  0.9713178022
C   1.2506124433 -0.5687201492  0.0131239257
H   0.6915833214 -0.7821146156  0.9217387431
H   1.0189021044 -1.1635420789 -0.8751669722
H   2.2741029495 -0.7573446880  0.3280516611
7
Iter 95 Image 8  Energy = -153.9306973953
C   0.8749986603  0.8917393744  0.0014837343
H   0.7242780244  1.3370786669 -0.9987480849
O   0.7399083700  1.5754956757  0.9964722352
C   1.2426003656 -0.5621823500  0.0474751407
H   0.7119104575 -1.0126037973  0.8803409210
H   0.9996124087 -1.0691404585 -0.8854115712
H   2.3079335261 -0.6700203020  0.2523265746
7
Iter 95 Image 9  Energy = -153.9313150632
C   0.8530139190  0.8898116525  0.0003771961
H   0.8417151358  1.3381531903 -1.0124797686
O   0.5603460461  1.5518975488  0.9605442116
C   1.2529530686 -0.5568881308  0.0700446271
H   0.8199944000 -1.0035013259  0.9611500496
H   0.9336137633 -1.0924653468 -0.8239406430
H   2.3396050910 -0.6366407114  0.1382428469
7
Iter 95 Image 10  Energy = -153.9315831730
C   0.8226338433  0.8814445287 -0.0105296714
H   0.9250218476  1.3319730768 -1.0180559844
O   0.3837677460  1.5256990871  0.9020957027
C   1.2735681460 -0.5480321948  0.0937548359
H   0.9390597712 -0.9832756941  1.0306196525
H   0.8940182204 -1.1256790726 -0.7491352352
H   2.3631719994 -0.5917628890  0.0451892293
7
Iter 95 Image 11  Energy = -153.9315568446
C   0.7840367852  0.8656586589 -0.0371164025
H   0.9809293880  1.3403901038 -1.0231241499
O   0.1875804579  1.4681235287  0.8223429327
C   1.3100769769 -0.5359012779  0.1153731248
H   1.0639489065 -0.9236344469  1.1059940899
H   0.8779311114 -1.1816924395 -0.6582837811
H   2.3967379442 -0.5425772870 -0.0312469938
7
Iter 96 Image 0  Energy = -153.9146221658
C   0.8260657415  0.5508603911 -0.1261794589
H   0.4554445983  1.2417513435 -0.8784317668
O   0.5680753083  1.0246514429  1.1187434847
C   1.4411098584 -0.5873603774 -0.4363613732
H   0.9099091373  0.3932317500  1.7666320721
H   1.5916834696 -0.8592929697 -1.4741885892
H   1.8089534565 -1.2734747403  0.3237244514
7
Iter 96 Image 1  Energy = -153.9134709840
C   0.8573317573  0.5722443140 -0.1654682829
H   0.4677127150  1.2208825650 -0.9400044910
O   0.7195496724  1.1137539682  1.0748606164
C   1.4051465452 -0.6123406669 -0.4054753523
H   0.8931274100  0.4182667869  1.7150207791
H   1.4005792628 -1.0541949321 -1.3897352419
H   1.8577937657 -1.1682451013  0.4047399826
7
Iter 96 Image 2  Energy = -153.9050340604
C   0.8765359034  0.6188093759 -0.1946606093
H   0.4925948814  1.2864494255 -0.9556929583
O   0.7944887257  1.0962744496  1.0769306223
C   1.3836567607 -0.5937650693 -0.3814824299
H   0.8278953002  0.2686660079  1.5705115023
H   1.2936216696 -1.1791068314 -1.2758091332
H   1.9324480354 -1.0069597054  0.4541412809
7
Iter 96 Image 3  Energy = -153.8837904898
C   0.8935631565  0.6680564124 -0.1922546469
H   0.5463397999  1.3388300592 -0.9733991020
O   0.7927884539  1.0758745482  1.0900958125
C   1.3340465127 -0.5838440886 -0.3028590654
H   0.7907664297  0.1182808199  1.3845936120
H   1.1928328642 -1.2109238840 -1.1543725154
H   2.0509043261 -0.9159045874  0.4421334970
7
Iter 96 Image 4  Energy = -153.8224992049
C   0.8960448271  0.7388575257 -0.1471783539
H   0.5708022161  1.3595314111 -0.9853284454
O   0.7820953356  1.2107518433  1.0441963050
C   1.2610409523 -0.5961528840 -0.1676147570
H   0.8002984049 -0.1292102555  1.2030358908
H   1.1534700136 -1.2029182076 -1.0677901628
H   2.1374898799 -0.8904898262  0.4146172849
7
Iter 96 Image 5  Energy = -153.8434470390
C   0.8900841894  0.7905410925 -0.1151832709
H   0.5814178796  1.3775610698 -0.9897392081
O   0.7765599853  1.2752599608  1.0115912502
C   1.2346159958 -0.6009084430 -0.0834880324
H   0.8125971952 -0.2831924409  1.0938916490
H   1.1353855494 -1.1948722253 -1.0259667537
H   2.1705809051 -0.8740194007  0.4028321193
7
Iter 96 Image 6  Energy = -153.8911215178
C   0.9015587771  0.8499840263 -0.0797585693
H   0.5868518254  1.3879279726 -0.9865818945
O   0.7966617447  1.3805025187  1.0017686256
C   1.2538754339 -0.5842794488 -0.0432887359
H   0.7482366175 -0.5334669085  0.9721297182
H   1.0941092906 -1.1842078859 -0.9599280067
H   2.2199479490 -0.8260910846  0.3895964276
7
Iter 96 Image 7  Energy = -153.9233104878
C   0.9075915526  0.8849611495 -0.0549746239
H   0.6305016536  1.3640778453 -1.0106401663
O   0.8264362259  1.5113866026  0.9718638742
C   1.2511111845 -0.5688049277  0.0130705518
H   0.6909628616 -0.7798401744  0.9216121124
H   1.0204516840 -1.1632126806 -0.8757812906
H   2.2741863431 -0.7581997818  0.3287874550
7
Iter 96 Image 8  Energy = -153.9307512831
C   0.8757796572  0.8923781458  0.0006220493
H   0.7231209072  1.3377003591 -0.9997455067
O   0.7408524786  1.5742503590  0.9941782646
C   1.2427747477 -0.5621033550  0.0476305700
H   0.7115699010 -1.0085013362  0.8825962663
H   0.9991840313 -1.0716697133 -0.8836409192
H   2.3079600869 -0.6716876301  0.2522981968
7
Iter 96 Image 9  Energy = -153.9313190153
C   0.8529538736  0.8901190782  0.0005428025
H   0.8420347217  1.3383602213 -1.0125948577
O   0.5600030477  1.5518411959  0.9596981444
C   1.2529178088 -0.5568572240  0.0702922860
H   0.8203838791 -1.0035649653  0.9615348984
H   0.9334016364 -1.0927892026 -0.8232537202
H   2.3395464519 -0.6367422244  0.1377189608
7
Iter 96 Image 10  Energy = -153.9315876245
C   0.8225252027  0.8811777762 -0.0109690465
H   0.9257414200  1.3321745815 -1.0179271673
O   0.3820781246  1.5255121493  0.9017781665
C   1.2737651409 -0.5479274147  0.0939363278
H   0.9400733740 -0.9830519226  1.0311783061
H   0.8937251588 -1.1259980427 -0.7484604339
H   2.3633331537 -0.5915202836  0.0444023741
7
Iter 96 Image 11  Energy = -153.9315568446
C   0.7840367852  0.8656586589 -0.0371164025
H   0.9809293880  1.3403901038 -1.0231241499
O   0.1875804579  1.4681235287  0.8223429327
C   1.3100769769 -0.5359012779  0.1153731248
H   1.0639489065 -0.9236344469  1.1059940899
H   0.8779311114 -1.1816924395 -0.6582837811
H   2.3967379442 -0.5425772870 -0.0312469938
7
Iter 97 Image 0  Energy = -153.9146221658
C   0.8260657415  0.5508603911 -0.1261794589
H   0.4554445983  1.2417513435 -0.8784317668
O   0.5680753083  1.0246514429  1.1187434847
C   1.4411098584 -0.5873603774 -0.4363613732
H   0.9099091373  0.3932317500  1.7666320721
H   1.5916834696 -0.8592929697 -1.4741885892
H   1.8089534565 -1.2734747403  0.3237244514
7
Iter 97 Image 1  Energy = -153.9134946182
C   0.8571948549  0.5720712278 -0.1653993762
H   0.4676663127  1.2202358645 -0.9403161934
O   0.7195889423  1.1144277558  1.0744845753
C   1.4044261422 -0.6129908395 -0.4051358918
H   0.8938342315  0.4196192462  1.7153207797
H   1.4010538438 -1.0540243116 -1.3897314398
H   1.8574767950 -1.1689720042  0.4047155581
7
Iter 97 Image 2  Energy = -153.9050644072
C   0.8764948426  0.6188878566 -0.1943910834
H   0.4932208415  1.2858569534 -0.9563276352
O   0.7935998742  1.0964390873  1.0770148142
C   1.3823331906 -0.5939722649 -0.3805946247
H   0.8295025910  0.2684573466  1.5698218077
H   1.2942605383 -1.1777275918 -1.2759992724
H   1.9318294116 -1.0075736679  0.4544142518
7
Iter 97 Image 3  Energy = -153.8832255997
C   0.8930489377  0.6689910057 -0.1914062930
H   0.5468785167  1.3373145583 -0.9745102469
O   0.7929388350  1.0769531020  1.0902313322
C   1.3300891336 -0.5857601257 -0.2982623277
H   0.7923194462  0.1178661534  1.3796132675
H   1.1934878086 -1.2084097093 -1.1533804432
H   2.0524788746 -0.9165856460  0.4416523280
7
Iter 97 Image 4  Energy = -153.8224767399
C   0.8954535096  0.7403742055 -0.1456240688
H   0.5709470397  1.3560045394 -0.9870628689
O   0.7820717889  1.2141202343  1.0431195004
C   1.2582660022 -0.5980718580 -0.1630557659
H   0.8013008466 -0.1292945368  1.2008639885
H   1.1548102103 -1.1998558335 -1.0672321861
H   2.1383922247 -0.8929071293  0.4129291668
7
Iter 97 Image 5  Energy = -153.8448807638
C   0.8902522274  0.7914717679 -0.1136661065
H   0.5819814795  1.3732578061 -0.9924606858
O   0.7776460831  1.2801819938  1.0093148735
C   1.2332283902 -0.6012325290 -0.0784880324
H   0.8123977318 -0.2863376185  1.0906541026
H   1.1335156236 -1.1927789279 -1.0229152553
H   2.1722201515 -0.8741928599  0.4014988618
7
Iter 97 Image 6  Energy = -153.8914639028
C   0.9015404106  0.8495436767 -0.0813108306
H   0.5891046203  1.3846945536 -0.9900621224
O   0.7950039265  1.3839809702  0.9993880129
C   1.2529866290 -0.5846752531 -0.0399457180
H   0.7498005584 -0.5328021597  0.9753238008
H   1.0911474239 -1.1840640273 -0.9564123299
H   2.2216580777 -0.8263084930  0.3869567718
7
Iter 97 Image 7  Energy = -153.9231712668
C   0.9077691133  0.8850873023 -0.0545125484
H   0.6299424141  1.3638278605 -1.0107551534
O   0.8251647475  1.5097607503  0.9712520605
C   1.2516426562 -0.5689296692  0.0130945125
H   0.6904096136 -0.7774056192  0.9216482765
H   1.0219350916 -1.1628814183 -0.8762149580
H   2.2743778822 -0.7590910633  0.3294257080
7
Iter 97 Image 8  Energy = -153.9307898895
C   0.8765767978  0.8930573091 -0.0002296358
H   0.7219079854  1.3382828859 -1.0007747859
O   0.7419639005  1.5731622838  0.9918067844
C   1.2429059549 -0.5620444651  0.0478608393
H   0.7111152970 -1.0045503243  0.8847884490
H   0.9988236404 -1.0741713984 -0.8818234193
H   2.3079482312 -0.6733694358  0.2523106589
7
Iter 97 Image 9  Energy = -153.9313224619
C   0.8530841757  0.8900360759  0.0000881610
H   0.8422990625  1.3385435485 -1.0126624750
O   0.5596372040  1.5522778843  0.9594215070
C   1.2528396505 -0.5567946226  0.0705813898
H   0.8207008958 -1.0037790486  0.9618563074
H   0.9332337826 -1.0930738676 -0.8226020495
H   2.3394466450 -0.6368430864  0.1372556700
7
Iter 97 Image 10  Energy = -153.9315885839
C   0.8222235601  0.8811894322 -0.0109919617
H   0.9264704432  1.3324095319 -1.0178174899
O   0.3805649751  1.5250567497  0.9010756936
C   1.2739703321 -0.5478482229  0.0941018420
H   0.9410888474 -0.9828151908  1.0317342747
H   0.8934342870 -1.1263288507 -0.7477748652
H   2.3634891290 -0.5912966066  0.0436110323
7
Iter 97 Image 11  Energy = -153.9315568446
C   0.7840367852  0.8656586589 -0.0371164025
H   0.9809293880  1.3403901038 -1.0231241499
O   0.1875804579  1.4681235287  0.8223429327
C   1.3100769769 -0.5359012779  0.1153731248
H   1.0639489065 -0.9236344469  1.1059940899
H   0.8779311114 -1.1816924395 -0.6582837811
H   2.3967379442 -0.5425772870 -0.0312469938
7
Iter 98 Image 0  Energy = -153.9146221658
C   0.8260657415  0.5508603911 -0.1261794589
H   0.4554445983  1.2417513435 -0.8784317668
O   0.5680753083  1.0246514429  1.1187434847
C   1.4411098584 -0.5873603774 -0.4363613732
H   0.9099091373  0.3932317500  1.7666320721
H   1.5916834696 -0.8592929697 -1.4741885892
H   1.8089534565 -1.2734747403  0.3237244514
7
Iter 98 Image 1  Energy = -153.9135187852
C   0.8570828993  0.5717874950 -0.1653541830
H   0.4676179807  1.2195853816 -0.9406424323
O   0.7196267510  1.1150995374  1.0741365776
C   1.4036791573 -0.6135543169 -0.4047738597
H   0.8945643925  0.4210319998  1.7156063041
H   1.4015362797 -1.0538465194 -1.3897454132
H   1.8571336567 -1.1697366318  0.4047110184
7
Iter 98 Image 2  Energy = -153.9050949483
C   0.8764835708  0.6187483407 -0.1941189257
H   0.4938329498  1.2852862873 -0.9570124130
O   0.7927275044  1.0966696452  1.0771030917
C   1.3808893481 -0.5940073320 -0.3795791455
H   0.8311537538  0.2682654607  1.5690731890
H   1.2949192742 -1.1763411403 -1.2762299502
H   1.9312349003 -1.0082534695  0.4547023879
7
Iter 98 Image 3  Energy = -153.8826700530
C   0.8926488046  0.6694373988 -0.1905029324
H   0.5473778005  1.3358110182 -0.9756775394
O   0.7930444821  1.0782029041  1.0903435716
C   1.3260377355 -0.5873365382 -0.2938761953
H   0.7937977948  0.1175475476  1.3749591765
H   1.1942197875 -1.2058408201 -1.1524834997
H   2.0541151582 -0.9174521148  0.4411750574
7
Iter 98 Image 4  Energy = -153.8224595171
C   0.8948893926  0.7418965218 -0.1441813395
H   0.5712026250  1.3528396890 -0.9887306609
O   0.7818705629  1.2172579450  1.0421602247
C   1.2556540443 -0.5998785740 -0.1586913257
H   0.8021720944 -0.1296917289  1.1988227261
H   1.1560280993 -1.1968076285 -1.0666049416
H   2.1394247973 -0.8952465877  0.4111630804
7
Iter 98 Image 5  Energy = -153.8462319909
C   0.8904308236  0.7922724138 -0.1126777841
H   0.5825160010  1.3691085984 -0.9950268926
O   0.7785717619  1.2851819938  1.0075586190
C   1.2319397012 -0.6014742858 -0.0737790472
H   0.8121812836 -0.2895953062  1.0877970779
H   1.1318744984 -1.1905618870 -1.0201094407
H   2.1737276048 -0.8745618703  0.4001752389
7
Iter 98 Image 6  Energy = -153.8917797744
C   0.9014847881  0.8495431024 -0.0817374857
H   0.5911529164  1.3812885058 -0.9936141534
O   0.7936276169  1.3870300632  0.9960754323
C   1.2521104052 -0.5850672345 -0.0367217022
H   0.7512980286 -0.5319780763  0.9785300136
H   1.0883643193 -1.1837486088 -0.9530500535
H   2.2232035774 -0.8266984074  0.3844555572
7
Iter 98 Image 7  Energy = -153.9230317638
C   0.9080079516  0.8843723879 -0.0556364521
H   0.6295151906  1.3633594676 -1.0109237798
O   0.8237696530  1.5091894896  0.9718788789
C   1.2521614978 -0.5689785365  0.0132926420
H   0.6899498289 -0.7750250773  0.9218427969
H   1.0232366277 -1.1625585739 -0.8765033322
H   2.2746007826 -0.7599909045  0.3299871304
7
Iter 98 Image 8  Energy = -153.9307947966
C   0.8773475175  0.8934788369 -0.0013676265
H   0.7208153816  1.3387637548 -1.0017462967
O   0.7429791541  1.5724880202  0.9898704395
C   1.2430151399 -0.5619686726  0.0481494537
H   0.7106646918 -1.0009934438  0.8868130554
H   0.9984771892 -1.0764812956 -0.8800873020
H   2.3079427304 -0.6749203205  0.2523071397
7
Iter 98 Image 9  Energy = -153.9313259168
C   0.8530952482  0.8902163390  0.0000536619
H   0.8425368115  1.3387134671 -1.0127607074
O   0.5594571044  1.5525050762  0.9588131890
C   1.2527548387 -0.5567629389  0.0708462706
H   0.8209707682 -1.0040231757  0.9621399246
H   0.9330863476 -1.0933383513 -0.8219961412
H   2.3393402958 -0.6369435289  0.1368423090
7
Iter 98 Image 10  Energy = -153.9315914068
C   0.8220831193  0.8810230092 -0.0112882407
H   0.9271402283  1.3326458706 -1.0176868708
O   0.3790672435  1.5248006590  0.9006838395
C   1.2741510568 -0.5477600144  0.0942550928
H   0.9420097040 -0.9825925082  1.0322381456
H   0.8931620405 -1.1266353016 -0.7471499544
H   2.3636281811 -0.5911148695  0.0428865119
7
Iter 98 Image 11  Energy = -153.9315568446
C   0.7840367852  0.8656586589 -0.0371164025
H   0.9809293880  1.3403901038 -1.0231241499
O   0.1875804579  1.4681235287  0.8223429327
C   1.3100769769 -0.5359012779  0.1153731248
H   1.0639489065 -0.9236344469  1.1059940899
H   0.8779311114 -1.1816924395 -0.6582837811
H   2.3967379442 -0.5425772870 -0.0312469938
7
Iter 99 Image 0  Energy = -153.9146221658
C   0.8260657415  0.5508603911 -0.1261794589
H   0.4554445983  1.2417513435 -0.8784317668
O   0.5680753083  1.0246514429  1.1187434847
C   1.4411098584 -0.5873603774 -0.4363613732
H   0.9099091373  0.3932317500  1.7666320721
H   1.5916834696 -0.8592929697 -1.4741885892
H   1.8089534565 -1.2734747403  0.3237244514
7
Iter 99 Image 1  Energy = -153.9135445014
C   0.8569928780  0.5713493279 -0.1652779256
H   0.4675579193  1.2189407182 -0.9409787217
O   0.7196632247  1.1158125670  1.0737813973
C   1.4028211518 -0.6140209155 -0.4043843595
H   0.8953168797  0.4224309816  1.7159109116
H   1.4021362668 -1.0535657115 -1.3898161011
H   1.8567527964 -1.1705800182  0.4047028091
7
Iter 99 Image 2  Energy = -153.9051191384
C   0.8761938419  0.6190899683 -0.1937931750
H   0.4945307541  1.2845291715 -0.9577461705
O   0.7918165745  1.0969257948  1.0771550812
C   1.3794530003 -0.5945600475 -0.3784881348
H   0.8330532147  0.2680824780  1.5681250016
H   1.2955987492 -1.1746858211 -1.2763204153
H   1.9305951803 -1.0090136662  0.4550060207
7
Iter 99 Image 3  Energy = -153.8821093869
C   0.8924089997  0.6692128948 -0.1895734293
H   0.5477909635  1.3341923908 -0.9768977344
O   0.7931951327  1.0796814956  1.0904675358
C   1.3218495580 -0.5884161978 -0.2891901721
H   0.7951442161  0.1174101275  1.3703785621
H   1.1950006353 -1.2031729224 -1.1518064416
H   2.0558520661 -0.9185383407  0.4405593418
7
Iter 99 Image 4  Energy = -153.8224662625
C   0.8943786897  0.7432255287 -0.1426199703
H   0.5714483655  1.3498715390 -0.9903403747
O   0.7815326960  1.2197215642  1.0412598081
C   1.2534346008 -0.6014132518 -0.1547784573
H   0.8027479621 -0.1296431182  1.1973654259
H   1.1572650011 -1.1936459376 -1.0661853584
H   2.1404342894 -0.8977466842  0.4092366960
7
Iter 99 Image 5  Energy = -153.8475579153
C   0.8906179942  0.7933842973 -0.1117800971
H   0.5829486583  1.3648614573 -0.9974567936
O   0.7795186609  1.2901819938  1.0059769509
C   1.2307868929 -0.6018604368 -0.0692451016
H   0.8118247188 -0.2929804941  1.0850677975
H   1.1303996597 -1.1880345842 -1.0174371129
H   2.1751450789 -0.8751825522  0.3988121289
7
Iter 99 Image 6  Energy = -153.8921294694
C   0.9015797751  0.8491125105 -0.0832220514
H   0.5931925811  1.3772886940 -0.9973940276
O   0.7923660734  1.3910015380  0.9934377562
C   1.2512409192 -0.5853657729 -0.0331698844
H   0.7527485125 -0.5311432607  0.9819236606
H   1.0853048573 -1.1832454147 -0.9494491741
H   2.2248089367 -0.8272788743  0.3818113546
7
Iter 99 Image 7  Energy = -153.9229150325
C   0.9081122772  0.8846751146 -0.0549439911
H   0.6292974652  1.3625770798 -1.0115436666
O   0.8221994024  1.5078938555  0.9705496851
C   1.2526886228 -0.5690776997  0.0136510119
H   0.6896683214 -0.7725893755  0.9223506967
H   1.0242736411 -1.1622259239 -0.8764217573
H   2.2750018149 -0.7608846834  0.3302958920
7
Iter 99 Image 8  Energy = -153.9308184472
C   0.8780175750  0.8942969442 -0.0018133249
H   0.7197149638  1.3391408103 -1.0027391089
O   0.7442913933  1.5718074806  0.9874041040
C   1.2430213882 -0.5619591252  0.0485200040
H   0.7100587762 -0.9980091804  0.8885872413
H   0.9982736984 -1.0785525758 -0.8783880664
H   2.3078640061 -0.6763574454  0.2523679882
7
Iter 99 Image 9  Energy = -153.9313294029
C   0.8531629809  0.8903066598 -0.0001117862
H   0.8426595126  1.3388401593 -1.0128316723
O   0.5595212910  1.5530018444  0.9583976046
C   1.2526062538 -0.5567332755  0.0711300000
H   0.8210863959 -1.0045086171  0.9622793705
H   0.9330423465 -1.0935122509 -0.8214962772
H   2.3391626345 -0.6370276303  0.1365712616
7
Iter 99 Image 10  Energy = -153.9315925639
C   0.8218627847  0.8810151400 -0.0113528079
H   0.9277647554  1.3329058759 -1.0175645793
O   0.3777888187  1.5244379529  0.9001230826
C   1.2743150333 -0.5476923855  0.0943889463
H   0.9428551548 -0.9823948427  1.0326939574
H   0.8929116604 -1.1269279906 -0.7465652838
H   2.3637433642 -0.5909769018  0.0422152042
7
Iter 99 Image 11  Energy = -153.9315568446
C   0.7840367852  0.8656586589 -0.0371164025
H   0.9809293880  1.3403901038 -1.0231241499
O   0.1875804579  1.4681235287  0.8223429327
C   1.3100769769 -0.5359012779  0.1153731248
H   1.0639489065 -0.9236344469  1.1059940899
H   0.8779311114 -1.1816924395 -0.6582837811
H   2.3967379442 -0.5425772870 -0.0312469938
7
Iter 100 Image 0  Energy = -153.9146221658
C   0.8260657415  0.5508603911 -0.1261794589
H   0.4554445983  1.2417513435 -0.8784317668
O   0.5680753083  1.0246514429  1.1187434847
C   1.4411098584 -0.5873603774 -0.4363613732
H   0.9099091373  0.3932317500  1.7666320721
H   1.5916834696 -0.8592929697 -1.4741885892
H   1.8089534565 -1.2734747403  0.3237244514
7
Iter 100 Image 1  Energy = -153.9135725088
C   0.8567351778  0.5711625808 -0.1651842350
H   0.4675226114  1.2181611166 -0.9413216026
O   0.7197139507  1.1165645397  1.0733616666
C   1.4020263160 -0.6148300687 -0.4039940207
H   0.8961808505  0.4240381143  1.7162478767
H   1.4027903613 -1.0532232334 -1.3898468094
H   1.8562718489 -1.1715060912  0.4046751373
7
Iter 100 Image 2  Energy = -153.9051481019
C   0.8760842884  0.6188528763 -0.1934382135
H   0.4952521425  1.2837818439 -0.9586500947
O   0.7908149859  1.0973228403  1.0772326686
C   1.3776030609 -0.5946222184 -0.3771273706
H   0.8351629646  0.2678952868  1.5670555626
H   1.2963609859 -1.1729144620 -1.2765193651
H   1.9299629012 -1.0099481887  0.4553849942
7
Iter 100 Image 3  Energy = -153.8814993991
C   0.8916374894  0.6701889847 -0.1885354536
H   0.5483664845  1.3322380337 -0.9780629202
O   0.7933072592  1.0811122114  1.0905200286
C   1.3178776684 -0.5907775295 -0.2844117139
H   0.7965485773  0.1173976677  1.3656323186
H   1.1959001241 -1.2000141967 -1.1509169901
H   2.0576039756 -0.9197756712  0.4397124204
7
Iter 100 Image 4  Energy = -153.8224744482
C   0.8938329621  0.7446519615 -0.1412740517
H   0.5719123111  1.3469465896 -0.9919751417
O   0.7808767858  1.2223285700  1.0406437576
C   1.2510542419 -0.6030129770 -0.1505485950
H   0.8033180068 -0.1299784688  1.1957310641
H   1.1585026269 -1.1901574149 -1.0656545560
H   2.1417446580 -0.9004086204  0.4070152924
7
Iter 100 Image 5  Energy = -153.8489389909
C   0.8908467545  0.7945698776 -0.1100890574
H   0.5834212535  1.3605508809 -1.0001618200
O   0.7803978154  1.2951819938  1.0037767565
C   1.2296409921 -0.6020168122 -0.0646023588
H   0.8113764655 -0.2966875713  1.0824981777
H   1.1289063627 -1.1852526765 -1.0147398928
H   2.1766520097 -0.8759759911  0.3972559702
7
Iter 100 Image 6  Energy = -153.8924967772
C   0.9016394030  0.8491570023 -0.0837631491
H   0.5952394732  1.3728409867 -1.0015361552
O   0.7912044332  1.3948788315  0.9896673183
C   1.2503156236 -0.5857144322 -0.0294332852
H   0.7542514289 -0.5302087251  0.9856335505
H   1.0821643126 -1.1824988399 -0.9456863208
H   2.2264269834 -0.8280853263  0.3790557003
7
Iter 100 Image 7  Energy = -153.9227945812
C   0.9083203032  0.8840846510 -0.0559432657
H   0.6291669465  1.3614695597 -1.0122714521
O   0.8203821708  1.5076503733  0.9704645250
C   1.2532534458 -0.5691017059  0.0142366450
H   0.6894293736 -0.7700013921  0.9230689614
H   1.0252332398 -1.1618432811 -0.8761932516
H   2.2754560819 -0.7618897058  0.3305756952
7
Iter 100 Image 8  Energy = -153.9308111750
C   0.8787693724  0.8947683380 -0.0028888710
H   0.7186266476  1.3394466046 -1.0037608558
O   0.7455940918  1.5716042662  0.9853511585
C   1.2430153204 -0.5619040236  0.0489924731
H   0.7094150844 -0.9950535225  0.8904241497
H   0.9980391479 -1.0806710789 -0.8765950281
H   2.3077821333 -0.6778236427  0.2524157829
7
Iter 100 Image 9  Energy = -153.9313329026
C   0.8532215484  0.8904440550 -0.0002245902
H   0.8427817372  1.3389576435 -1.0129155447
O   0.5596562131  1.5535399988  0.9579156671
C   1.2524350289 -0.5567097472  0.0714313282
H   0.8211826583 -1.0050657756  0.9624076857
H   0.9330001256 -1.0936819638 -0.8209842577
H   2.3389641044 -0.6371173176  0.1363082107
7
Iter 100 Image 10  Energy = -153.9315951431
C   0.8217752754  0.8808336514 -0.0116894449
H   0.9284037013  1.3331927914 -1.0174110601
O   0.3763864546  1.5242330630  0.8998058661
C   1.2744723984 -0.5476084622  0.0945252742
H   0.9436993114 -0.9821930049  1.0331509808
H   0.8926490839 -1.1272277636 -0.7459762659
H   2.3638553449 -0.5908634268  0.0415331648
7
Iter 100 Image 11  Energy = -153.9315568446
C   0.7840367852  0.8656586589 -0.0371164025
H   0.9809293880  1.3403901038 -1.0231241499
O   0.1875804579  1.4681235287  0.8223429327
C   1.3100769769 -0.5359012779  0.1153731248
H   1.0639489065 -0.9236344469  1.1059940899
H   0.8779311114 -1.1816924395 -0.6582837811
H   2.3967379442 -0.5425772870 -0.0312469938
7
Iter 101 Image 0  Energy = -153.9146221658
C   0.8260657415  0.5508603911 -0.1261794589
H   0.4554445983  1.2417513435 -0.8784317668
O   0.5680753083  1.0246514429  1.1187434847
C   1.4411098584 -0.5873603774 -0.4363613732
H   0.9099091373  0.3932317500  1.7666320721
H   1.5916834696 -0.8592929697 -1.4741885892
H   1.8089534565 -1.2734747403  0.3237244514
7
Iter 101 Image 1  Energy = -153.9135997967
C   0.8566143486  0.5706440385 -0.1651270150
H   0.4674710776  1.2174525941 -0.9416905670
O   0.7197538309  1.1173018268  1.0730186396
C   1.4011190353 -0.6152995027 -0.4035569578
H   0.8970326469  0.4255968206  1.7165311279
H   1.4034616045 -1.0528695313 -1.3899335260
H   1.8557885727 -1.1724592726  0.4046963105
7
Iter 101 Image 2  Energy = -153.9051682226
C   0.8757380561  0.6190159767 -0.1930816556
H   0.4959978432  1.2829460776 -0.9595273396
O   0.7898770853  1.0977135495  1.0772782654
C   1.3759127500 -0.5950987427 -0.3757445951
H   0.8372753215  0.2677657169  1.5659130453
H   1.2970734668 -1.1710830498 -1.2766063822
H   1.9293668208 -1.0108914569  0.4557068176
7
Iter 101 Image 3  Energy = -153.8809279120
C   0.8914227442  0.6696712768 -0.1874601015
H   0.5488552982  1.3306193866 -0.9792962495
O   0.7932119043  1.0827065730  1.0906275434
C   1.3137645031 -0.5916979824 -0.2799993581
H   0.7976952963  0.1173156873  1.3614529873
H   1.1967172724 -1.1970479391 -1.1502777913
H   2.0595745608 -0.9211974578  0.4388906813
7
Iter 101 Image 4  Energy = -153.8224898233
C   0.8932900206  0.7460605059 -0.1399136794
H   0.5725349320  1.3446237347 -0.9933657134
O   0.7799232299  1.2242369040  1.0401593865
C   1.2492410643 -0.6044995573 -0.1469677679
H   0.8036197031 -0.1303744593  1.1945029353
H   1.1595390205 -1.1868001161 -1.0651870937
H   2.1430936128 -0.9028773763  0.4047096974
7
Iter 101 Image 5  Energy = -153.8501688267
C   0.8911118364  0.7955062697 -0.1097645821
H   0.5839632904  1.3567245175 -1.0024041795
O   0.7808647368  1.3001819938  1.0028764352
C   1.2287689749 -0.6021390905 -0.0604685392
H   0.8108260052 -0.3005352050  1.0804582825
H   1.1276026573 -1.1824756187 -1.0124259030
H   2.1781041384 -0.8768931551  0.3956662700
7
Iter 101 Image 6  Energy = -153.8928565850
C   0.9018226351  0.8488989433 -0.0850509312
H   0.5970280839  1.3683895874 -1.0053991275
O   0.7902280942  1.3991109191  0.9868285823
C   1.2495418909 -0.5859392045 -0.0258237153
H   0.7555087943 -0.5294936762  0.9891161965
H   1.0792311165 -1.1815320809 -0.9422291619
H   2.2278810445 -0.8290649277  0.3764958445
7
Iter 101 Image 7  Energy = -153.9227031395
C   0.9084667218  0.8839023065 -0.0562890195
H   0.6292375338  1.3600374012 -1.0133479922
O   0.8185929107  1.5074842130  0.9694635174
C   1.2537570567 -0.5691124344  0.0150147004
H   0.6893746923 -0.7676320845  0.9240799860
H   1.0258094961 -1.1614567466 -0.8756201834
H   2.2760031640 -0.7628540257  0.3306368317
7
Iter 101 Image 8  Energy = -153.9308036328
C   0.8794155200  0.8951968522 -0.0038176983
H   0.7176872233  1.3395832480 -1.0047057310
O   0.7469160972  1.5717398289  0.9834649752
C   1.2429366476 -0.5618637909  0.0495276979
H   0.7087517101 -0.9928026723  0.8919526684
H   0.9978719978 -1.0824280876 -0.8749746442
H   2.3076625981 -0.6790584009  0.2524915147
7
Iter 101 Image 9  Energy = -153.9313362474
C   0.8533052357  0.8905229779 -0.0003902351
H   0.8428401533  1.3390190511 -1.0129839751
O   0.5599385114  1.5542154895  0.9575876748
C   1.2522324685 -0.5566916139  0.0717217539
H   0.8211757512 -1.0057451104  0.9624382444
H   0.9330116082 -1.0937721568 -0.8205901682
H   2.3387376887 -0.6371817463  0.1361552029
7
Iter 101 Image 10  Energy = -153.9315954909
C   0.8215485432  0.8809272299 -0.0116143039
H   0.9289470784  1.3334840954 -1.0172910911
O   0.3754073511  1.5238455376  0.8992294788
C   1.2746004448 -0.5475641483  0.0946208718
H   0.9443768345 -0.9820255197  1.0335135204
H   0.8924274259 -1.1274863612 -0.7454874894
H   2.3639338910 -0.5908139860  0.0409675229
7
Iter 101 Image 11  Energy = -153.9315568446
C   0.7840367852  0.8656586589 -0.0371164025
H   0.9809293880  1.3403901038 -1.0231241499
O   0.1875804579  1.4681235287  0.8223429327
C   1.3100769769 -0.5359012779  0.1153731248
H   1.0639489065 -0.9236344469  1.1059940899
H   0.8779311114 -1.1816924395 -0.6582837811
H   2.3967379442 -0.5425772870 -0.0312469938
