7
Image 0  Energy = -153.91462217
C   0.8260657415  0.5508603911 -0.1261794589
H   0.4554445983  1.2417513435 -0.8784317668
O   0.5680753083  1.0246514429  1.1187434847
C   1.4411098584 -0.5873603774 -0.4363613732
H   0.9099091373  0.3932317500  1.7666320721
H   1.5916834696 -0.8592929697 -1.4741885892
H   1.8089534565 -1.2734747403  0.3237244514
7
Image 1  Energy = -153.91299975
C   0.8564589848  0.5803881878 -0.1583035421
H   0.4668225486  1.2409677894 -0.9237732351
O   0.7225636011  1.0926578561  1.0951863664
C   1.3973307010 -0.6033024519 -0.4111893012
H   0.8631723123  0.3605080022  1.7038654515
H   1.4263314752 -1.0251131623 -1.4029850470
H   1.8685617008 -1.1557392675  0.3911374540
7
Image 2  Energy = -153.90552627
C   0.8848538203  0.6180217354 -0.1938231969
H   0.4827485198  1.2662811452 -0.9622910920
O   0.7857776192  1.0979824857  1.0750002779
C   1.3906258600 -0.5889379945 -0.3815958657
H   0.8521691516  0.2757299218  1.5725744222
H   1.2812923995 -1.1681359011 -1.2770262220
H   1.9237737268 -1.0105746317  0.4610991682
7
Image 3  Energy = -153.88363073
C   0.9241245201  0.6662917089 -0.2044539436
H   0.5247416299  1.3384520774 -0.9492565482
O   0.8083079603  1.0507383856  1.0937662156
C   1.3913440033 -0.5701664104 -0.3352380589
H   0.7430197146  0.1270200964  1.3762961387
H   1.1411467208 -1.2341613126 -1.1327468958
H   2.0685566386 -0.8878077949  0.4455710180
7
Image 4  Energy = -153.84319630
C   0.9270967795  0.7118169673 -0.1762268639
H   0.5677918189  1.3856201362 -0.9475869586
O   0.7906818836  1.0628302798  1.1078027137
C   1.3374073255 -0.5706524419 -0.2305685047
H   0.7289499675 -0.0187531108  1.1322672516
H   1.0668554587 -1.2451989410 -1.0081056276
H   2.1824579606 -0.8352960291  0.4163558523
7
Image 5  Energy = -153.84393710
C   0.9215187738  0.7950056430 -0.1189777632
H   0.5730934228  1.3905691122 -0.9668309609
O   0.7975384666  1.2312773661  1.0345440636
C   1.2788596800 -0.5840791139 -0.1060283962
H   0.7562082831 -0.2825313831  1.0303319468
H   1.0580126412 -1.2258736342 -0.9741041689
H   2.2160099430 -0.8340011187  0.3950031973
7
Image 6  Energy = -153.90209812
C   0.9207609181  0.8571861916 -0.0926307365
H   0.6165678958  1.3808964152 -1.0097910201
O   0.7934951135  1.4008437544  0.9793270131
C   1.2647366533 -0.5807736788 -0.0166689617
H   0.7428391110 -0.5530082065  0.9748491429
H   0.9903674142 -1.2154977324 -0.8699923304
H   2.2724739603 -0.7992799750  0.3288448785
7
Image 7  Energy = -153.92755439
C   0.9012622688  0.8879117694 -0.0433317544
H   0.6799515234  1.3424040448 -1.0268459369
O   0.7575615810  1.5339160958  0.9608261417
C   1.2607215600 -0.5640621658  0.0435264078
H   0.7095710878 -0.8398528650  0.9389764332
H   0.9747201988 -1.1449600976 -0.8322848711
H   2.3174529689 -0.7249901189  0.2530710850
7
Image 8  Energy = -153.93104235
C   0.8782261766  0.9002842709  0.0179197677
H   0.6822835244  1.3366679320 -0.9826992171
O   0.8221844180  1.5956227350  0.9931798734
C   1.2249442819 -0.5647053358  0.0535157869
H   0.6655954225 -1.0723153356  0.8385409412
H   1.0432552980 -1.0345068549 -0.9085166170
H   2.2847525342 -0.6706805289  0.2819982777
7
Image 9  Energy = -153.93120790
C   0.8533629564  0.8937214804  0.0116711922
H   0.8178543913  1.3311815371 -1.0051643072
O   0.6140856813  1.5793853569  0.9700689225
C   1.2395992139 -0.5589593076  0.0728942717
H   0.7903482995 -1.0609352762  0.9269973879
H   0.9615210028 -1.0689718181 -0.8467201512
H   2.3244700791 -0.6250551055  0.1641914809
7
Image 10  Energy = -153.93154855
C   0.8227715448  0.8822512419 -0.0106353852
H   0.9174442629  1.3282790661 -1.0199514100
O   0.3986205929  1.5393931983  0.9030318701
C   1.2697349236 -0.5487921702  0.0962480374
H   0.9346691607 -0.9985260571  1.0269469963
H   0.8985119865 -1.1223038424 -0.7525497989
H   2.3594891331 -0.5899345756  0.0508484242
7
Image 11  Energy = -153.93155684
C   0.7840367852  0.8656586589 -0.0371164025
H   0.9809293880  1.3403901038 -1.0231241499
O   0.1875804579  1.4681235287  0.8223429327
C   1.3100769769 -0.5359012779  0.1153731248
H   1.0639489065 -0.9236344469  1.1059940899
H   0.8779311114 -1.1816924395 -0.6582837811
H   2.3967379442 -0.5425772870 -0.0312469938
