7
Iter 0 Image 0  Energy = -153.9146221658
C   0.8260657415  0.5508603911 -0.1261794589
H   0.4554445983  1.2417513435 -0.8784317668
O   0.5680753083  1.0246514429  1.1187434847
C   1.4411098584 -0.5873603774 -0.4363613732
H   0.9099091373  0.3932317500  1.7666320721
H   1.5916834696 -0.8592929697 -1.4741885892
H   1.8089534565 -1.2734747403  0.3237244514
7
Iter 0 Image 1  Energy = -153.8852920517
C   1.0001975305  0.6793785265 -0.1302608745
H   0.5563133166  1.3034882874 -0.9028175093
O   0.5543622139  1.0156887897  1.1007035702
C   1.3861727904 -0.5914236713 -0.3622705070
H   0.7099736782  0.1663091274  1.6579100720
H   1.2792457445 -1.0101917967 -1.3573034890
H   2.1149762960 -1.0728824230  0.2879775575
7
Iter 0 Image 2  Energy = -153.8533852874
C   1.0493407089  0.7382748925 -0.1301843339
H   0.5944350049  1.3264235731 -0.9260971171
O   0.5429669934  1.0153037003  1.0841859290
C   1.3619470026 -0.5825035149 -0.2944300326
H   0.6739354784  0.0351564468  1.5596823038
H   1.1662337763 -1.0547414627 -1.2528964709
H   2.2123826056 -0.9875467951  0.2536785418
7
Iter 0 Image 3  Energy = -153.8181334348
C   1.0741405414  0.7827226587 -0.1260872923
H   0.6241146895  1.3399723977 -0.9485039012
O   0.5288084814  1.0220912483  1.0685529152
C   1.3447689444 -0.5734011164 -0.2327485906
H   0.6666644804 -0.0759114183  1.4720355154
H   1.0899494293 -1.0814244891 -1.1599975797
H   2.2727950036 -0.9236824408  0.2206877532
7
Iter 0 Image 4  Energy = -153.7876023009
C   1.0840275823  0.8184698356 -0.1183287843
H   0.6515967780  1.3474395933 -0.9702930359
O   0.5108856422  1.0372968767  1.0531209999
C   1.3321870658 -0.5653309585 -0.1771105865
H   0.6750232675 -0.1770081661  1.3952291050
H   1.0333710170 -1.0999548605 -1.0772014962
H   2.3141502172 -0.8705454805  0.1885226179
7
Iter 0 Image 5  Energy = -153.7791758528
C   1.0819136748  0.8475041201 -0.1074288050
H   0.6802272289  1.3504267710 -0.9915918155
O   0.4879387695  1.0623849341  1.0370570414
C   1.3232114295 -0.5585338204 -0.1272727155
H   0.6947441001 -0.2737226681  1.3294690220
H   0.9893628371 -1.1145238697 -1.0028852980
H   2.3438435301 -0.8231686270  0.1565913906
7
Iter 0 Image 6  Energy = -153.7999611930
C   1.0681679691  0.8702301339 -0.0941262487
H   0.7128800832  1.3501666040 -1.0122765507
O   0.4580780106  1.0987041858  1.0191681147
C   1.3172272056 -0.5528875501 -0.0826452947
H   0.7250811723 -0.3700277728  1.2748996787
H   0.9540175389 -1.1273817645 -0.9352093779
H   2.3657895902 -0.7784369963  0.1241284986
7
Iter 0 Image 7  Energy = -153.8305296345
C   1.0411506244  0.8859175469 -0.0794540203
H   0.7529279013  1.3480545336 -1.0316481812
O   0.4185292241  1.1471387076  0.9975834696
C   1.3137136007 -0.5481957384 -0.0420607515
H   0.7677097895 -0.4688646659  1.2315439363
H   0.9249968582 -1.1398089284 -0.8721242333
H   2.3822135718 -0.7338746154  0.0900986004
7
Iter 0 Image 8  Energy = -153.8670274948
C   0.9964002091  0.8924958638 -0.0651701304
H   0.8047643915  1.3461979653 -1.0474504537
O   0.3661090898  1.2079079003  0.9695863789
C   1.3122696605 -0.5444040795 -0.0037427659
H   0.8261884561 -0.5721758250  1.1988362231
H   0.9012961748 -1.1527227410 -0.8115117713
H   2.3942135881 -0.6869322440  0.0533913392
7
Iter 0 Image 9  Energy = -153.9017774825
C   0.9235553859  0.8851007631 -0.0556978044
H   0.8728502092  1.3483198306 -1.0533907893
O   0.3021326179  1.2816999028  0.9330886404
C   1.3125738458 -0.5417036668  0.0340510731
H   0.9032030803 -0.6813246845  1.1736037517
H   0.8851474732 -1.1676663242 -0.7525363581
H   2.4017789576 -0.6340589811  0.0148203066
7
Iter 0 Image 10  Energy = -153.9251694671
C   0.8151547293  0.8599861649 -0.0581793128
H   0.9477600153  1.3547779485 -1.0375963707
O   0.2507661577  1.3740020991  0.8907351887
C   1.3122322335 -0.5394742348  0.0713123692
H   0.9862393494 -0.8002723911  1.1437547493
H   0.8863226417 -1.1848416923 -0.7023401366
H   2.4027664432 -0.5738110543 -0.0137476671
7
Iter 0 Image 11  Energy = -153.9315568446
C   0.7840367852  0.8656586589 -0.0371164025
H   0.9809293880  1.3403901038 -1.0231241499
O   0.1875804579  1.4681235287  0.8223429327
C   1.3100769769 -0.5359012779  0.1153731248
H   1.0639489065 -0.9236344469  1.1059940899
H   0.8779311114 -1.1816924395 -0.6582837811
H   2.3967379442 -0.5425772870 -0.0312469938
7
Iter 1 Image 0  Energy = -153.9146221658
C   0.8260657415  0.5508603911 -0.1261794589
H   0.4554445983  1.2417513435 -0.8784317668
O   0.5680753083  1.0246514429  1.1187434847
C   1.4411098584 -0.5873603774 -0.4363613732
H   0.9099091373  0.3932317500  1.7666320721
H   1.5916834696 -0.8592929697 -1.4741885892
H   1.8089534565 -1.2734747403  0.3237244514
7
Iter 1 Image 1  Energy = -153.8857112557
C   0.9992046607  0.6787116777 -0.1303903062
H   0.5566248780  1.3035669222 -0.9028847687
O   0.5550349263  1.0150018099  1.1017078275
C   1.3867533379 -0.5910510322 -0.3623575337
H   0.7096741774  0.1670443488  1.6568528539
H   1.2791140668 -1.0102009086 -1.3569907783
H   2.1148355229 -1.0727059782  0.2880015255
7
Iter 1 Image 2  Energy = -153.8541876338
C   1.0481381308  0.7372847698 -0.1302867100
H   0.5948683939  1.3266036527 -0.9262031235
O   0.5436744324  1.0141157673  1.0854401948
C   1.3626787894 -0.5820090316 -0.2946023092
H   0.6736254134  0.0363406024  1.5581294906
H   1.1659411512 -1.0547492488 -1.2522373833
H   2.2123152589 -0.9872196719  0.2536986605
7
Iter 1 Image 3  Energy = -153.8190166382
C   1.0726573592  0.7815142764 -0.1260761735
H   0.6246514083  1.3402093343 -0.9486669818
O   0.5294532192  1.0209695225  1.0696624752
C   1.3455915616 -0.5728897135 -0.2329365672
H   0.6665143227 -0.0747235237  1.4704626686
H   1.0896264680 -1.0814157232 -1.1592395415
H   2.2727472310 -0.9232973330  0.2207329402
7
Iter 1 Image 4  Energy = -153.7882843965
C   1.0821554567  0.8172028429 -0.1179472394
H   0.6521352277  1.3477273522 -0.9703973463
O   0.5114761722  1.0370057681  1.0536827389
C   1.3330531742 -0.5650868161 -0.1772247689
H   0.6751762894 -0.1762224082  1.3939430407
H   1.0332095593 -1.0999162281 -1.0767865591
H   2.3140356905 -0.8703436709  0.1886689541
7
Iter 1 Image 5  Energy = -153.7801035621
C   1.0796445354  0.8462390609 -0.1063961574
H   0.6804788017  1.3508348115 -0.9913761419
O   0.4887440111  1.0634929377  1.0367955893
C   1.3239185489 -0.5588216762 -0.1269129826
H   0.6952420593 -0.2733834378  1.3282353449
H   0.9896611033 -1.1144005115 -1.0033499259
H   2.3435525103 -0.8235943444  0.1569430933
7
Iter 1 Image 6  Energy = -153.8013689281
C   1.0654576902  0.8692044387 -0.0926380589
H   0.7129964830  1.3506715567 -1.0118744304
O   0.4593886133  1.1001765013  1.0181275135
C   1.3179402726 -0.5534172238 -0.0820045003
H   0.7254719463 -0.3698308870  1.2738762759
H   0.9544853057 -1.1272125075 -0.9360751866
H   2.3655012590 -0.7792250384  0.1245272067
7
Iter 1 Image 7  Energy = -153.8318785968
C   1.0386260163  0.8850515498 -0.0780480103
H   0.7528964343  1.3486118880 -1.0312558625
O   0.4201991952  1.1479629998  0.9964176046
C   1.3143034523 -0.5484964660 -0.0410526474
H   0.7678854834 -0.4684120765  1.2302477024
H   0.9253195010 -1.1396339311 -0.8729348001
H   2.3820114876 -0.7347171241  0.0905648332
7
Iter 1 Image 8  Energy = -153.8680315595
C   0.9945401999  0.8918338558 -0.0641912718
H   0.8045475688  1.3466968450 -1.0471304864
O   0.3676986798  1.2083706553  0.9687085676
C   1.3126166994 -0.5445260738 -0.0024979905
H   0.8262891126 -0.5717379606  1.1972548850
H   0.9014910086 -1.1525339421 -0.8121091902
H   2.3940583006 -0.6877365399  0.0539043062
7
Iter 1 Image 9  Energy = -153.9023138537
C   0.9224817623  0.8847670107 -0.0549952157
H   0.8725907687  1.3486474717 -1.0532081888
O   0.3033000969  1.2818143413  0.9324255785
C   1.3127348545 -0.5417820184  0.0351766337
H   0.9032227344 -0.6809392197  1.1721887149
H   0.8852020824 -1.1675217812 -0.7528072947
H   2.4017092706 -0.6346189643  0.0151585921
7
Iter 1 Image 10  Energy = -153.9253216725
C   0.8150919781  0.8600813826 -0.0576132769
H   0.9475223421  1.3548824756 -1.0375660596
O   0.2511534911  1.3738832131  0.8902144104
C   1.3121069550 -0.5395984403  0.0720173768
H   0.9863393673 -0.8000612306  1.1428877778
H   0.8863264402 -1.1848037725 -0.7023415079
H   2.4027009963 -0.5740167878 -0.0136599007
7
Iter 1 Image 11  Energy = -153.9315568446
C   0.7840367852  0.8656586589 -0.0371164025
H   0.9809293880  1.3403901038 -1.0231241499
O   0.1875804579  1.4681235287  0.8223429327
C   1.3100769769 -0.5359012779  0.1153731248
H   1.0639489065 -0.9236344469  1.1059940899
H   0.8779311114 -1.1816924395 -0.6582837811
H   2.3967379442 -0.5425772870 -0.0312469938
7
Iter 2 Image 0  Energy = -153.9146221658
C   0.8260657415  0.5508603911 -0.1261794589
H   0.4554445983  1.2417513435 -0.8784317668
O   0.5680753083  1.0246514429  1.1187434847
C   1.4411098584 -0.5873603774 -0.4363613732
H   0.9099091373  0.3932317500  1.7666320721
H   1.5916834696 -0.8592929697 -1.4741885892
H   1.8089534565 -1.2734747403  0.3237244514
7
Iter 2 Image 1  Energy = -153.8886655575
C   0.9894999484  0.6730760508 -0.1299758715
H   0.5589094293  1.3042430967 -0.9033281156
O   0.5610305438  1.0116191399  1.1076713398
C   1.3921744056 -0.5882258651 -0.3643256925
H   0.7078006394  0.1715299721  1.6497208284
H   1.2786460796 -1.0100876632 -1.3547479339
H   2.1131805674 -1.0717878602  0.2889242650
7
Iter 2 Image 2  Energy = -153.8602835772
C   1.0364198945  0.7298034308 -0.1299976110
H   0.5984283534  1.3281811855 -0.9268423126
O   0.5502582024  1.0050709656  1.0943524987
C   1.3694943302 -0.5788073730 -0.2973658335
H   0.6712558797  0.0455680424  1.5456088129
H   1.1635070215 -1.0548060307 -1.2465460849
H   2.2118778961 -0.9846433761  0.2547293300
7
Iter 2 Image 3  Energy = -153.8259825734
C   1.0588008874  0.7727042269 -0.1257744284
H   0.6296937242  1.3424644158 -0.9499711395
O   0.5350680313  1.0113849648  1.0786241157
C   1.3526216101 -0.5699843782 -0.2352427571
H   0.6653240485 -0.0650691543  1.4565413635
H   1.0861354608 -1.0817614077 -1.1518059052
H   2.2735977991 -0.9193718119  0.2215675991
7
Iter 2 Image 4  Energy = -153.7939154616
C   1.0652094312  0.8066282276 -0.1158809545
H   0.6570637618  1.3502720161 -0.9707859668
O   0.5162085481  1.0353003623  1.0595821146
C   1.3388777561 -0.5641703454 -0.1778094011
H   0.6773601291 -0.1693602093  1.3812864066
H   1.0320903713 -1.0993333877 -1.0731107865
H   2.3144315276 -0.8689697980  0.1906574227
7
Iter 2 Image 5  Energy = -153.7875310977
C   1.0605550890  0.8352364421 -0.1013927703
H   0.6822112476  1.3538758179 -0.9879218253
O   0.4949125012  1.0748421599  1.0378991492
C   1.3268579118 -0.5625847522 -0.1242638013
H   0.7004769571 -0.2694499653  1.3169084477
H   0.9944186420 -1.1121780173 -1.0088724471
H   2.3418092266 -0.8293748538  0.1615820990
7
Iter 2 Image 6  Energy = -153.8104432242
C   1.0454576902  0.8603191873 -0.0878448023
H   0.7135469815  1.3542500653 -1.0066236134
O   0.4680977781  1.1143289262  1.0158381784
C   1.3205614744 -0.5587334629 -0.0781133931
H   0.7290710863 -0.3674854838  1.2654053011
H   0.9604327447 -1.1245484831 -0.9443249111
H   2.3640738310 -0.7877639023  0.1296020913
7
Iter 2 Image 7  Energy = -153.8402250978
C   1.0212858071  0.8768541338 -0.0756328426
H   0.7527471969  1.3527487025 -1.0261260603
O   0.4296692914  1.1591459969  0.9949170113
C   1.3163330881 -0.5532268678 -0.0340492850
H   0.7702741335 -0.4657067798  1.2182846853
H   0.9295509083 -1.1367350129 -0.8789141014
H   2.3813811669 -0.7427133324  0.0954594473
7
Iter 2 Image 8  Energy = -153.8746137538
C   0.9817476866  0.8846886025 -0.0636165203
H   0.8031598272  1.3506120505 -1.0430160606
O   0.3768453666  1.2169100185  0.9681722430
C   1.3139710305 -0.5478665872  0.0058114700
H   0.8278949243 -0.5696276054  1.1832042377
H   0.9041792316 -1.1495557209 -0.8154324799
H   2.3934435318 -0.6947939030  0.0588159303
7
Iter 2 Image 9  Energy = -153.9057657008
C   0.9157396988  0.8796309162 -0.0553466450
H   0.8707096587  1.3512730000 -1.0505358163
O   0.3096668315  1.2870430739  0.9322658688
C   1.3134289982 -0.5436195615  0.0428624367
H   0.9040057826 -0.6791705243  1.1597579274
H   0.8863350311 -1.1652922022 -0.7535338331
H   2.4013555973 -0.6394978386  0.0184688549
7
Iter 2 Image 10  Energy = -153.9260850155
C   0.8160222606  0.8587293859 -0.0568146382
H   0.9455608889  1.3556131094 -1.0366090986
O   0.2524900686  1.3756625351  0.8892190697
C   1.3116328323 -0.5405680674  0.0763497828
H   0.9871219008 -0.7991224875  1.1360723080
H   0.8865599445 -1.1840570376 -0.7016245618
H   2.4018536572 -0.5758905876 -0.0126540588
7
Iter 2 Image 11  Energy = -153.9315568446
C   0.7840367852  0.8656586589 -0.0371164025
H   0.9809293880  1.3403901038 -1.0231241499
O   0.1875804579  1.4681235287  0.8223429327
C   1.3100769769 -0.5359012779  0.1153731248
H   1.0639489065 -0.9236344469  1.1059940899
H   0.8779311114 -1.1816924395 -0.6582837811
H   2.3967379442 -0.5425772870 -0.0312469938
7
Iter 3 Image 0  Energy = -153.9146221658
C   0.8260657415  0.5508603911 -0.1261794589
H   0.4554445983  1.2417513435 -0.8784317668
O   0.5680753083  1.0246514429  1.1187434847
C   1.4411098584 -0.5873603774 -0.4363613732
H   0.9099091373  0.3932317500  1.7666320721
H   1.5916834696 -0.8592929697 -1.4741885892
H   1.8089534565 -1.2734747403  0.3237244514
7
Iter 3 Image 1  Energy = -153.8911365014
C   0.9778456886  0.6666036827 -0.1294612554
H   0.5604861302  1.3046564855 -0.9032933336
O   0.5674795599  1.0120186353  1.1114000237
C   1.3983769610 -0.5850577633 -0.3674689255
H   0.7070633123  0.1739280266  1.6455772295
H   1.2796160479 -1.0097274390 -1.3540899673
H   2.1103739247 -1.0720547394  0.2912750441
7
Iter 3 Image 2  Energy = -153.8652868162
C   1.0228290642  0.7215307597 -0.1299018529
H   0.6014858349  1.3300027906 -0.9269416584
O   0.5571997996  0.9992892580  1.1014320302
C   1.3768867996 -0.5753700072 -0.3015308190
H   0.6696945644  0.0528831179  1.5352267653
H   1.1614205509 -1.0552547128 -1.2420648939
H   2.2117249605 -0.9827143520  0.2577192331
7
Iter 3 Image 3  Energy = -153.8317181204
C   1.0434093495  0.7635825529 -0.1262032018
H   0.6352851461  1.3457220073 -0.9512242484
O   0.5402671197  1.0036318982  1.0871996924
C   1.3584369242 -0.5675111226 -0.2367166183
H   0.6651279710 -0.0571134404  1.4414121600
H   1.0814240808 -1.0834175353 -1.1440551932
H   2.2772909418 -0.9145274847  0.2235262704
7
Iter 3 Image 4  Energy = -153.7992004453
C   1.0460658354  0.7957670796 -0.1147614847
H   0.6620953567  1.3534244960 -0.9701597301
O   0.5207456759  1.0368097311  1.0665784366
C   1.3409729190 -0.5656996280 -0.1756916264
H   0.6822649279 -0.1628870432  1.3640203198
H   1.0321806978 -1.0982659525 -1.0702509902
H   2.3169161151 -0.8687818182  0.1942039212
7
Iter 3 Image 5  Energy = -153.7948855914
C   1.0405550890  0.8240383964 -0.0979492542
H   0.6827658982  1.3566903383 -0.9831589937
O   0.5020022514  1.0871251546  1.0417439455
C   1.3252373570 -0.5677153611 -0.1212777824
H   0.7077476673 -0.2630016331  1.3027322313
H   1.0030063800 -1.1082615204 -1.0172717901
H   2.3399269314 -0.8385085516  0.1691205165
7
Iter 3 Image 6  Energy = -153.8176793876
C   1.0272655032  0.8520751342 -0.0851365176
H   0.7131838592  1.3577175635 -1.0015999007
O   0.4766953478  1.1273077597  1.0169807773
C   1.3185243411 -0.5634167586 -0.0746022423
H   0.7339502126 -0.3643465730  1.2547036306
H   0.9689609675 -1.1208327377 -0.9534649238
H   2.3626613486 -0.7981375411  0.1370580463
7
Iter 3 Image 7  Energy = -153.8483195707
C   1.0050474120  0.8695303153 -0.0729104179
H   0.7518470692  1.3570429038 -1.0211427353
O   0.4387772457  1.1727633245  0.9946069040
C   1.3134262982 -0.5578229243 -0.0265889059
H   0.7750643380 -0.4654932781  1.2029975731
H   0.9362467103 -1.1330468588 -0.8854846981
H   2.3808325287 -0.7526066376  0.1024611635
7
Iter 3 Image 8  Energy = -153.8811243172
C   0.9680114619  0.8784761018 -0.0616517001
H   0.8017797067  1.3547919367 -1.0386179900
O   0.3862150604  1.2285910953  0.9677363641
C   1.3128463381 -0.5524475977  0.0117219512
H   0.8306135010 -0.5701750312  1.1675138740
H   0.9084754386 -1.1457619662 -0.8180421432
H   2.3933001173 -0.7031076849  0.0652784895
7
Iter 3 Image 9  Energy = -153.9094592799
C   0.9059187266  0.8758078159 -0.0525933958
H   0.8691236704  1.3541987994 -1.0475264292
O   0.3175664577  1.2945910983  0.9298729323
C   1.3134800484 -0.5466147704  0.0474514936
H   0.9055173710 -0.6801744422  1.1464597576
H   0.8884218558 -1.1622920521 -0.7526504155
H   2.4012134954 -0.6451495770  0.0229248444
7
Iter 3 Image 10  Energy = -153.9268620225
C   0.8140902149  0.8588422433 -0.0532807070
H   0.9436776688  1.3563723395 -1.0353170562
O   0.2557767827  1.3774903661  0.8856445464
C   1.3118949455 -0.5414810465  0.0781554493
H   0.9877060137 -0.7995755823  1.1298375084
H   0.8870766869 -1.1829277229 -0.7000176920
H   2.4010192358 -0.5783537426 -0.0110832533
7
Iter 3 Image 11  Energy = -153.9315568446
C   0.7840367852  0.8656586589 -0.0371164025
H   0.9809293880  1.3403901038 -1.0231241499
O   0.1875804579  1.4681235287  0.8223429327
C   1.3100769769 -0.5359012779  0.1153731248
H   1.0639489065 -0.9236344469  1.1059940899
H   0.8779311114 -1.1816924395 -0.6582837811
H   2.3967379442 -0.5425772870 -0.0312469938
7
Iter 4 Image 0  Energy = -153.9146221658
C   0.8260657415  0.5508603911 -0.1261794589
H   0.4554445983  1.2417513435 -0.8784317668
O   0.5680753083  1.0246514429  1.1187434847
C   1.4411098584 -0.5873603774 -0.4363613732
H   0.9099091373  0.3932317500  1.7666320721
H   1.5916834696 -0.8592929697 -1.4741885892
H   1.8089534565 -1.2734747403  0.3237244514
7
Iter 4 Image 1  Energy = -153.8935334717
C   0.9662779806  0.6603633508 -0.1300756987
H   0.5613007900  1.3048074011 -0.9033097504
O   0.5741786005  1.0117218768  1.1163886702
C   1.4046942048 -0.5822284724 -0.3706461959
H   0.7065643161  0.1776680040  1.6418776597
H   1.2814645664 -1.0092513514 -1.3544728400
H   2.1067611699 -1.0727139055  0.2941769678
7
Iter 4 Image 2  Energy = -153.8693538035
C   1.0092116617  0.7136220249 -0.1307928528
H   0.6037259343  1.3317964077 -0.9269143324
O   0.5637809506  0.9955151398  1.1080395841
C   1.3843757019 -0.5728230589 -0.3055853407
H   0.6689256550  0.0594398031  1.5270903301
H   1.1601489140 -1.0560441725 -1.2393992585
H   2.2110727400 -0.9811392748  0.2615006934
7
Iter 4 Image 3  Energy = -153.8358395062
C   1.0269744481  0.7555675634 -0.1260809230
H   0.6402670080  1.3492681363 -0.9520166120
O   0.5453453320  0.9997169944  1.0939178931
C   1.3627838225 -0.5680544933 -0.2361440774
H   0.6670100203 -0.0509702784  1.4259992838
H   1.0780645924 -1.0848233392 -1.1378559828
H   2.2807963022 -0.9103377019  0.2261192806
7
Iter 4 Image 4  Energy = -153.8040462844
C   1.0262937160  0.7850130394 -0.1105004168
H   0.6656489748  1.3569456697 -0.9688819747
O   0.5264335290  1.0415190452  1.0710534329
C   1.3405536619 -0.5691793902 -0.1703821087
H   0.6896196277 -0.1568937806  1.3440982985
H   1.0349681974 -1.0965022560 -1.0701328855
H   2.3177238292 -0.8705354784  0.1986845213
7
Iter 4 Image 5  Energy = -153.8017514889
C   1.0205550890  0.8139905772 -0.0929617789
H   0.6827495698  1.3595628127 -0.9790273867
O   0.5099980659  1.0972795241  1.0455508682
C   1.3236832567 -0.5732358641 -0.1173128140
H   0.7157342098 -0.2554768447  1.2864501271
H   1.0123980652 -1.1042159482 -1.0259278043
H   2.3361233179 -0.8475374441  0.1771676703
7
Iter 4 Image 6  Energy = -153.8247587666
C   1.0084859823  0.8461903563 -0.0806987072
H   0.7128427779  1.3612135433 -0.9976230124
O   0.4858150841  1.1393486021  1.0176252867
C   1.3174936685 -0.5688028538 -0.0694653910
H   0.7400772221 -0.3627020799  1.2413478111
H   0.9777047176 -1.1171684176 -0.9620733581
H   2.3588221213 -0.8077123182  0.1448262494
7
Iter 4 Image 7  Energy = -153.8553420973
C   0.9903578033  0.8642115172 -0.0717661702
H   0.7502857366  1.3609840520 -1.0164819233
O   0.4480611579  1.1854502829  0.9962389931
C   1.3113247693 -0.5620643700 -0.0184001710
H   0.7803969812 -0.4662545730  1.1865043858
H   0.9438699858 -1.1292442754 -0.8930435192
H   2.3769451593 -0.7627157809  0.1108872912
7
Iter 4 Image 8  Energy = -153.8868519809
C   0.9562792616  0.8731143864 -0.0613407390
H   0.8002586597  1.3587483029 -1.0343796541
O   0.3944502357  1.2417381034  0.9691052513
C   1.3118385422 -0.5547700859  0.0187303136
H   0.8340018357 -0.5737397843  1.1514824550
H   0.9128603254 -1.1431399723 -0.8221318797
H   2.3915527685 -0.7115840853  0.0724731246
7
Iter 4 Image 9  Energy = -153.9121205849
C   0.8997628829  0.8703666971 -0.0561364469
H   0.8677235144  1.3568385789 -1.0437909089
O   0.3218614864  1.3059916223  0.9330539791
C   1.3135901546 -0.5476812422  0.0521997616
H   0.9073794933 -0.6839383432  1.1335492914
H   0.8901245615 -1.1604821770 -0.7526799411
H   2.4007995447 -0.6507282643  0.0277430630
7
Iter 4 Image 10  Energy = -153.9271584534
C   0.8155684898  0.8558701971 -0.0566761682
H   0.9417662061  1.3569670408 -1.0333221179
O   0.2555908392  1.3835261862  0.8880556203
C   1.3116638493 -0.5415419849  0.0804892637
H   0.9885719151 -0.8013679107  1.1235109846
H   0.8873745915 -1.1822138001 -0.6987567249
H   2.4007056586 -0.5808728715 -0.0093620642
7
Iter 4 Image 11  Energy = -153.9315568446
C   0.7840367852  0.8656586589 -0.0371164025
H   0.9809293880  1.3403901038 -1.0231241499
O   0.1875804579  1.4681235287  0.8223429327
C   1.3100769769 -0.5359012779  0.1153731248
H   1.0639489065 -0.9236344469  1.1059940899
H   0.8779311114 -1.1816924395 -0.6582837811
H   2.3967379442 -0.5425772870 -0.0312469938
7
Iter 5 Image 0  Energy = -153.9146221658
C   0.8260657415  0.5508603911 -0.1261794589
H   0.4554445983  1.2417513435 -0.8784317668
O   0.5680753083  1.0246514429  1.1187434847
C   1.4411098584 -0.5873603774 -0.4363613732
H   0.9099091373  0.3932317500  1.7666320721
H   1.5916834696 -0.8592929697 -1.4741885892
H   1.8089534565 -1.2734747403  0.3237244514
7
Iter 5 Image 1  Energy = -153.8952755330
C   0.9562209159  0.6548328065 -0.1297300741
H   0.5613280044  1.3049578611 -0.9035243445
O   0.5801894227  1.0128081860  1.1192200984
C   1.4100563370 -0.5797421862 -0.3739420692
H   0.7065658844  0.1798675833  1.6399757348
H   1.2836624880 -1.0088234553 -1.3552552802
H   2.1032185834 -1.0735338785  0.2971947491
7
Iter 5 Image 2  Energy = -153.8722318087
C   0.9970676362  0.7068716171 -0.1308651753
H   0.6050290084  1.3333892508 -0.9269436367
O   0.5696855279  0.9939510892  1.1124061623
C   1.3903144334 -0.5711389393 -0.3094608786
H   0.6689880591  0.0642072795  1.5210846320
H   1.1598138219 -1.0567957963 -1.2377839193
H   2.2103430582 -0.9801176195  0.2655016467
7
Iter 5 Image 3  Energy = -153.8386495993
C   1.0122518052  0.7473388136 -0.1250075333
H   0.6438694218  1.3525467209 -0.9523766092
O   0.5502425732  0.9989150120  1.0984371782
C   1.3638877603 -0.5688288225 -0.2339326569
H   0.6704902533 -0.0460670906  1.4117304568
H   1.0771006966 -1.0855413107 -1.1341838289
H   2.2833990221 -0.9079964430  0.2292718695
7
Iter 5 Image 4  Energy = -153.8083310686
C   1.0089782277  0.7750957046 -0.1072137477
H   0.6680713916  1.3596263908 -0.9664488190
O   0.5314050998  1.0480409068  1.0759450579
C   1.3379872702 -0.5734745814 -0.1645232349
H   0.6978790661 -0.1511988570  1.3240982985
H   1.0397539933 -1.0940693520 -1.0714841408
H   2.3171664920 -0.8736533662  0.2035654642
7
Iter 5 Image 5  Energy = -153.8071423298
C   1.0039541687  0.8052082384 -0.0902092231
H   0.6827268054  1.3618608532 -0.9751835294
O   0.5163138600  1.1059664981  1.0509124911
C   1.3207334512 -0.5779736148 -0.1137827327
H   0.7234624016 -0.2489020074  1.2703015518
H   1.0211689410 -1.1004795226 -1.0326833494
H   2.3328819414 -0.8553136372  0.1845836870
7
Iter 5 Image 6  Energy = -153.8299308196
C   0.9939267490  0.8408353597 -0.0800438071
H   0.7123839258  1.3641699194 -0.9941480598
O   0.4925296279  1.1502770561  1.0213897037
C   1.3144141480 -0.5727157191 -0.0645709812
H   0.7463598061 -0.3624259150  1.2278367789
H   0.9858842938 -1.1136277587 -0.9688847053
H   2.3557430248 -0.8161461164  0.1523599582
7
Iter 5 Image 7  Energy = -153.8609730376
C   0.9782548063  0.8598494909 -0.0702262582
H   0.7485426540  1.3645402352 -1.0129710106
O   0.4561170071  1.1970038500  0.9983302900
C   1.3081440088 -0.5659324200 -0.0126900918
H   0.7856171215 -0.4681674307  1.1711459421
H   0.9513544559 -1.1253018912 -0.8989127216
H   2.3732115333 -0.7716249829  0.1192627395
7
Iter 5 Image 8  Energy = -153.8914770821
C   0.9460058025  0.8704265299 -0.0602063650
H   0.7989571942  1.3620683258 -1.0310283123
O   0.4017573548  1.2538527527  0.9699003986
C   1.3104148719 -0.5578997260  0.0231044474
H   0.8374264095 -0.5790696614  1.1373400452
H   0.9175093268 -1.1401855179 -0.8246130368
H   2.3891706688 -0.7188258283  0.0794417050
7
Iter 5 Image 9  Energy = -153.9149378363
C   0.8905015290  0.8695688994 -0.0514932034
H   0.8668581419  1.3593588339 -1.0414055648
O   0.3288962275  1.3142047815  0.9292071384
C   1.3134516721 -0.5489516564  0.0550517224
H   0.9093954279 -0.6893608465  1.1226356010
H   0.8919230461 -1.1590838791 -0.7521583877
H   2.4002156036 -0.6553692618  0.0321015049
7
Iter 5 Image 10  Energy = -153.9278956361
C   0.8119316940  0.8578567946 -0.0512416836
H   0.9402858422  1.3577598987 -1.0323429212
O   0.2598041997  1.3853155332  0.8828423152
C   1.3118757846 -0.5419279527  0.0815713212
H   0.9892754374 -0.8037278337  1.1182964711
H   0.8877436680 -1.1817106792 -0.6975141616
H   2.4003249249 -0.5831989009 -0.0076725528
7
Iter 5 Image 11  Energy = -153.9315568446
C   0.7840367852  0.8656586589 -0.0371164025
H   0.9809293880  1.3403901038 -1.0231241499
O   0.1875804579  1.4681235287  0.8223429327
C   1.3100769769 -0.5359012779  0.1153731248
H   1.0639489065 -0.9236344469  1.1059940899
H   0.8779311114 -1.1816924395 -0.6582837811
H   2.3967379442 -0.5425772870 -0.0312469938
7
Iter 6 Image 0  Energy = -153.9146221658
C   0.8260657415  0.5508603911 -0.1261794589
H   0.4554445983  1.2417513435 -0.8784317668
O   0.5680753083  1.0246514429  1.1187434847
C   1.4411098584 -0.5873603774 -0.4363613732
H   0.9099091373  0.3932317500  1.7666320721
H   1.5916834696 -0.8592929697 -1.4741885892
H   1.8089534565 -1.2734747403  0.3237244514
7
Iter 6 Image 1  Energy = -153.8966863552
C   0.9474403005  0.6500528186 -0.1298945301
H   0.5610496271  1.3048552589 -0.9036140154
O   0.5856459035  1.0138881621  1.1217967005
C   1.4146884343 -0.5774821332 -0.3767033172
H   0.7067013733  0.1818126999  1.6386121153
H   1.2859352628 -1.0084952102 -1.3562693791
H   2.0997807374 -1.0742646752  0.3000112430
7
Iter 6 Image 2  Energy = -153.8744332120
C   0.9864211766  0.7004818554 -0.1313176921
H   0.6058135988  1.3346613819 -0.9268482561
O   0.5750110255  0.9935532981  1.1160300825
C   1.3947667246 -0.5694174466 -0.3122973775
H   0.6696516055  0.0680392159  1.5159916853
H   1.1601815057 -1.0575060321 -1.2369860024
H   2.2093959048 -0.9794453866  0.2693663960
7
Iter 6 Image 3  Energy = -153.8408953733
C   0.9986464715  0.7401887336 -0.1247958541
H   0.6466059738  1.3549535623 -0.9517542082
O   0.5549202837  0.9998244603  1.1029360283
C   1.3634181957 -0.5711387264 -0.2310144287
H   0.6750105826 -0.0410320306  1.3982099914
H   1.0784226317 -1.0852687688 -1.1323755782
H   2.2842173972 -0.9071603583  0.2327329337
7
Iter 6 Image 4  Energy = -153.8123299094
C   0.9935646921  0.7653841251 -0.1033917523
H   0.6697463320  1.3616612561 -0.9634769028
O   0.5360129832  1.0550595160  1.0805399596
C   1.3345964177 -0.5774347354 -0.1591641826
H   0.7062595974 -0.1455422596  1.3040982985
H   1.0453810066 -1.0914843601 -1.0731446990
H   2.3156805157 -0.8772767060  0.2084781655
7
Iter 6 Image 5  Energy = -153.8116365197
C   0.9889179631  0.7979647031 -0.0864539761
H   0.6829239776  1.3638777732 -0.9719366461
O   0.5221486471  1.1130906429  1.0549326061
C   1.3179672590 -0.5820350615 -0.1106729601
H   0.7306257954 -0.2435702073  1.2546072784
H   1.0288220815 -1.0973929570 -1.0374659545
H   2.3298358403 -0.8615680890  0.1909285562
7
Iter 6 Image 6  Energy = -153.8345572765
C   0.9804598153  0.8366279563 -0.0764630919
H   0.7117322729  1.3671119034 -0.9917427070
O   0.4996724874  1.1582497163  1.0228096461
C   1.3111883082 -0.5756773650 -0.0595919572
H   0.7524466378 -0.3622206567  1.2138358105
H   0.9931856219 -1.1104847046 -0.9742005078
H   2.3525564330 -0.8232400332  0.1592917069
7
Iter 6 Image 7  Energy = -153.8655877638
C   0.9673999923  0.8562521376 -0.0679846561
H   0.7467326180  1.3677445805 -1.0100673516
O   0.4639234051  1.2070897735  0.9998593675
C   1.3051746999 -0.5685510615 -0.0083945870
H   0.7901705721 -0.4706766149  1.1574867941
H   0.9581880605 -1.1219184512 -0.9042776850
H   2.3696522373 -0.7795735190  0.1273170205
7
Iter 6 Image 8  Energy = -153.8953811457
C   0.9369109467  0.8683369828 -0.0579106061
H   0.7976614565  1.3651587148 -1.0285719361
O   0.4087508668  1.2648500567  0.9699719029
C   1.3088108691 -0.5598853033  0.0264374070
H   0.8405442786 -0.5853133742  1.1245593785
H   0.9217758978 -1.1376227571 -0.8266542728
H   2.3867873099 -0.7251574433  0.0861070148
7
Iter 6 Image 9  Energy = -153.9167234461
C   0.8852626857  0.8674065367 -0.0524724164
H   0.8660638063  1.3613762433 -1.0388668013
O   0.3325624576  1.3241274799  0.9303152606
C   1.3132129152 -0.5497645979  0.0569445885
H   0.9110997286 -0.6956034346  1.1135149682
H   0.8936309681 -1.1578826758 -0.7516590393
H   2.3994090905 -0.6592926794  0.0361622556
7
Iter 6 Image 10  Energy = -153.9281803127
C   0.8122461939  0.8566692861 -0.0525502263
H   0.9388644408  1.3582829153 -1.0309724193
O   0.2602930923  1.3904529920  0.8836682147
C   1.3118604841 -0.5418833023  0.0824418949
H   0.9899575143 -0.8066720611  1.1138999132
H   0.8880356073 -1.1813019284 -0.6964565877
H   2.3999842207 -0.5851810418 -0.0060920014
7
Iter 6 Image 11  Energy = -153.9315568446
C   0.7840367852  0.8656586589 -0.0371164025
H   0.9809293880  1.3403901038 -1.0231241499
O   0.1875804579  1.4681235287  0.8223429327
C   1.3100769769 -0.5359012779  0.1153731248
H   1.0639489065 -0.9236344469  1.1059940899
H   0.8779311114 -1.1816924395 -0.6582837811
H   2.3967379442 -0.5425772870 -0.0312469938
7
Iter 7 Image 0  Energy = -153.9146221658
C   0.8260657415  0.5508603911 -0.1261794589
H   0.4554445983  1.2417513435 -0.8784317668
O   0.5680753083  1.0246514429  1.1187434847
C   1.4411098584 -0.5873603774 -0.4363613732
H   0.9099091373  0.3932317500  1.7666320721
H   1.5916834696 -0.8592929697 -1.4741885892
H   1.8089534565 -1.2734747403  0.3237244514
7
Iter 7 Image 1  Energy = -153.8978760316
C   0.9398568115  0.6461059740 -0.1304881954
H   0.5603836770  1.3044898637 -0.9036627318
O   0.5907695805  1.0144118900  1.1245067693
C   1.4185997118 -0.5756417067 -0.3790457086
H   0.7069059938  0.1840521470  1.6373522048
H   1.2883792275 -1.0082157905 -1.3573612839
H   2.0963466335 -1.0748354367  0.3026377603
7
Iter 7 Image 2  Energy = -153.8761704855
C   0.9765522643  0.6958970360 -0.1322466570
H   0.6061358236  1.3353233012 -0.9264340913
O   0.5801195172  0.9939074917  1.1192406200
C   1.3981813153 -0.5693494227 -0.3142984333
H   0.6710384463  0.0714704162  1.5113414760
H   1.1616265586 -1.0578641834 -1.2367106464
H   2.2075876136 -0.9790177571  0.2730465755
7
Iter 7 Image 3  Energy = -153.8431180331
C   0.9860719937  0.7328350297 -0.1235214785
H   0.6480285844  1.3566505868 -0.9503703047
O   0.5600903185  1.0016734814  1.1067669990
C   1.3613727925 -0.5741484475 -0.2284051868
H   0.6804699799 -0.0345215376  1.3852052147
H   1.0824515881 -1.0840284838 -1.1326943436
H   2.2827562792 -0.9080937645  0.2369579909
7
Iter 7 Image 4  Energy = -153.8158873232
C   0.9792613030  0.7569870554 -0.0978961806
H   0.6709384614  1.3627517525 -0.9597391674
O   0.5407170263  1.0623997196  1.0835521055
C   1.3316957794 -0.5812270177 -0.1548380458
H   0.7142888335 -0.1405277583  1.2840982985
H   1.0512274880 -1.0891736102 -1.0743065033
H   2.3131126544 -0.8808433115  0.2130683906
7
Iter 7 Image 5  Energy = -153.8152957329
C   0.9755440916  0.7923929174 -0.0832597719
H   0.6834915603  1.3654349199 -0.9687670694
O   0.5270589728  1.1201515862  1.0583534898
C   1.3161579098 -0.5853528325 -0.1081524345
H   0.7369693624 -0.2406688623  1.2402579859
H   1.0353016788 -1.0952723521 -1.0405165847
H   2.3267179869 -0.8663185822  0.1960232993
7
Iter 7 Image 6  Energy = -153.8383853138
C   0.9693312803  0.8328712543 -0.0760397462
H   0.7110760723  1.3695432127 -0.9889430333
O   0.5051915204  1.1657415886  1.0271136596
C   1.3087967339 -0.5789789444 -0.0540760882
H   0.7585753064 -0.3622275686  1.1984521358
H   0.9997250029 -1.1075948503 -0.9782959402
H   2.3485456563 -0.8289878754  0.1657279133
7
Iter 7 Image 7  Energy = -153.8691830578
C   0.9581675412  0.8538605583 -0.0672814684
H   0.7450986511  1.3704078362 -1.0072980814
O   0.4707291337  1.2161107386  1.0024868247
C   1.3036944634 -0.5707419889 -0.0054542245
H   0.7938106082 -0.4740892077  1.1453628621
H   0.9640949430 -1.1191191730 -0.9086945098
H   2.3656462414 -0.7860619280  0.1348174924
7
Iter 7 Image 8  Energy = -153.8983802095
C   0.9304822414  0.8660048776 -0.0589855228
H   0.7963770984  1.3676922462 -1.0260526324
O   0.4139688361  1.2762966783  0.9728076829
C   1.3077618422 -0.5603130679  0.0292253405
H   0.8429718389 -0.5929218783  1.1132505111
H   0.9253231054 -1.1358235882 -0.8288507340
H   2.3843566568 -0.7305683928  0.0925442664
7
Iter 7 Image 9  Energy = -153.9183731062
C   0.8796473249  0.8669253172 -0.0505254319
H   0.8655000046  1.3632782366 -1.0370904898
O   0.3369967743  1.3325052892  0.9288654815
C   1.3129503461 -0.5496368388  0.0584418833
H   0.9125754427 -0.7029824176  1.1057949948
H   0.8950169885 -1.1573114821 -0.7513667211
H   2.3985547699 -0.6624112330  0.0398191083
7
Iter 7 Image 10  Energy = -153.9285522740
C   0.8106360712  0.8578728343 -0.0501520829
H   0.9376206827  1.3588475037 -1.0301176203
O   0.2626627764  1.3936021047  0.8812297801
C   1.3117156784 -0.5418421458  0.0832659944
H   0.9905780498 -0.8100467799  1.1100196814
H   0.8882889990 -1.1811188671 -0.6956936812
H   2.3997392993 -0.5869477911 -0.0046132846
7
Iter 7 Image 11  Energy = -153.9315568446
C   0.7840367852  0.8656586589 -0.0371164025
H   0.9809293880  1.3403901038 -1.0231241499
O   0.1875804579  1.4681235287  0.8223429327
C   1.3100769769 -0.5359012779  0.1153731248
H   1.0639489065 -0.9236344469  1.1059940899
H   0.8779311114 -1.1816924395 -0.6582837811
H   2.3967379442 -0.5425772870 -0.0312469938
7
Iter 8 Image 0  Energy = -153.9146221658
C   0.8260657415  0.5508603911 -0.1261794589
H   0.4554445983  1.2417513435 -0.8784317668
O   0.5680753083  1.0246514429  1.1187434847
C   1.4411098584 -0.5873603774 -0.4363613732
H   0.9099091373  0.3932317500  1.7666320721
H   1.5916834696 -0.8592929697 -1.4741885892
H   1.8089534565 -1.2734747403  0.3237244514
7
Iter 8 Image 1  Energy = -153.8988806790
C   0.9324327092  0.6419589859 -0.1300332749
H   0.5590822248  1.3041583782 -0.9039053830
O   0.5961107749  1.0164096032  1.1255431583
C   1.4220974807 -0.5737523005 -0.3817914352
H   0.7075480036  0.1850126134  1.6370771395
H   1.2913732023 -1.0079270729 -1.3585764675
H   2.0925972396 -1.0754932621  0.3056250790
7
Iter 8 Image 2  Energy = -153.8777871132
C   0.9672258098  0.6891823407 -0.1319371019
H   0.6056131128  1.3362515009 -0.9263737081
O   0.5858107267  0.9953929592  1.1214318242
C   1.3995015641 -0.5679508916 -0.3162709007
H   0.6733438182  0.0748642317  1.5065655291
H   1.1643504852 -1.0581233735 -1.2371440954
H   2.2053960223 -0.9792498781  0.2776673015
7
Iter 8 Image 3  Energy = -153.8453931736
C   0.9730533836  0.7249951977 -0.1220014795
H   0.6487271897  1.3576582633 -0.9478878198
O   0.5661980837  1.0043924446  1.1102245876
C   1.3586615429 -0.5770602378 -0.2258832255
H   0.6866675267 -0.0268987802  1.3719002782
H   1.0882345962 -1.0826074966 -1.1345461591
H   2.2796992099 -0.9101125364  0.2421327249
7
Iter 8 Image 4  Energy = -153.8186770174
C   0.9662157472  0.7494256629 -0.0962515275
H   0.6723003236  1.3629614143 -0.9546565953
O   0.5444042973  1.0723169912  1.0883880011
C   1.3280094131 -0.5842655648 -0.1502740088
H   0.7223835323 -0.1382979885  1.2640982985
H   1.0572443127 -1.0873427809 -1.0749344401
H   2.3106839170 -0.8844309069  0.2175691760
7
Iter 8 Image 5  Energy = -153.8185086779
C   0.9627445851  0.7876539161 -0.0805832678
H   0.6839775253  1.3667970827 -0.9652680292
O   0.5318233245  1.1285352000  1.0613156715
C   1.3134346564 -0.5875843275 -0.1064025259
H   0.7431632801 -0.2402035242  1.2269202546
H   1.0420149763 -1.0936842843 -1.0432240681
H   2.3240832194 -0.8711472685  0.2011808835
7
Iter 8 Image 6  Energy = -153.8423210083
C   0.9581646935  0.8281948463 -0.0713718121
H   0.7097582034  1.3722883080 -0.9862706606
O   0.5119529256  1.1718614476  1.0289949664
C   1.3040133154 -0.5804669690 -0.0492182411
H   0.7652285003 -0.3617195591  1.1808221242
H   1.0068372513 -1.1047453868 -0.9819945796
H   2.3452866779 -0.8350458758  0.1729771151
7
Iter 8 Image 7  Energy = -153.8727102978
C   0.9493554298  0.8512928093 -0.0650993833
H   0.7431024518  1.3733830170 -1.0048246923
O   0.4776779198  1.2252717977  1.0050623793
C   1.3008611689 -0.5728853135 -0.0034170034
H   0.7977877124 -0.4782589013  1.1316607852
H   0.9703485616 -1.1161288509 -0.9122628528
H   2.3621083318 -0.7923077279  0.1428196756
7
Iter 8 Image 8  Energy = -153.9016848235
C   0.9210361387  0.8675502824 -0.0527603643
H   0.7950380936  1.3703926055 -1.0242390343
O   0.4223560812  1.2857157857  0.9696075270
C   1.3066486079 -0.5621344773  0.0298420974
H   0.8450231824 -0.6020053401  1.1019366211
H   0.9293042909 -1.1335914340 -0.8297877157
H   2.3818352278 -0.7355605536  0.0993397776
7
Iter 8 Image 9  Energy = -153.9198167991
C   0.8749341693  0.8664734777 -0.0504435940
H   0.8650262904  1.3650336341 -1.0351134932
O   0.3406505789  1.3425355827  0.9290457166
C   1.3124640114 -0.5498022004  0.0591088168
H   0.9139334848 -0.7120958231  1.0983807487
H   0.8966045898 -1.1565860674 -0.7507065107
H   2.3976285329 -0.6651917290  0.0436671536
7
Iter 8 Image 10  Energy = -153.9288147489
C   0.8105175403  0.8577741813 -0.0503087048
H   0.9363381954  1.3593699647 -1.0291510224
O   0.2637165326  1.3987776516  0.8812133522
C   1.3116771887 -0.5416553349  0.0835450871
H   0.9911132973 -0.8144017436  1.1064758465
H   0.8886000547 -1.1808291289 -0.6948496879
H   2.3992787477 -0.5886687275 -0.0029860863
7
Iter 8 Image 11  Energy = -153.9315568446
C   0.7840367852  0.8656586589 -0.0371164025
H   0.9809293880  1.3403901038 -1.0231241499
O   0.1875804579  1.4681235287  0.8223429327
C   1.3100769769 -0.5359012779  0.1153731248
H   1.0639489065 -0.9236344469  1.1059940899
H   0.8779311114 -1.1816924395 -0.6582837811
H   2.3967379442 -0.5425772870 -0.0312469938
7
Iter 9 Image 0  Energy = -153.9146221658
C   0.8260657415  0.5508603911 -0.1261794589
H   0.4554445983  1.2417513435 -0.8784317668
O   0.5680753083  1.0246514429  1.1187434847
C   1.4411098584 -0.5873603774 -0.4363613732
H   0.9099091373  0.3932317500  1.7666320721
H   1.5916834696 -0.8592929697 -1.4741885892
H   1.8089534565 -1.2734747403  0.3237244514
7
Iter 9 Image 1  Energy = -153.9000119349
C   0.9243209939  0.6375842164 -0.1307880475
H   0.5575044174  1.3034117112 -0.9039471821
O   0.6023018572  1.0173752486  1.1281742751
C   1.4258258094 -0.5717200376 -0.3842403282
H   0.7082248872  0.1874547859  1.6360102042
H   1.2949838902 -1.0076424732 -1.3601506083
H   2.0880797768 -1.0760965001  0.3088805089
7
Iter 9 Image 2  Energy = -153.8794972719
C   0.9558647100  0.6839425599 -0.1328243385
H   0.6050245396  1.3364446187 -0.9255737251
O   0.5926221006  0.9968613535  1.1245269163
C   1.4016002930 -0.5686246480 -0.3178276033
H   0.6763587281  0.0793739834  1.5009919134
H   1.1682388794 -1.0581665362 -1.2380413930
H   2.2015322847 -0.9794644440  0.2826870940
7
Iter 9 Image 3  Energy = -153.8476282435
C   0.9591374036  0.7167162234 -0.1224957355
H   0.6490997935  1.3581291060 -0.9443310567
O   0.5729094976  1.0084964196  1.1153298136
C   1.3553952915 -0.5805330488 -0.2232185572
H   0.6937860481 -0.0188017467  1.3573975695
H   1.0955984767 -1.0808313553 -1.1369268732
H   2.2753150212 -0.9128087540  0.2481837502
7
Iter 9 Image 4  Energy = -153.8208799814
C   0.9516024977  0.7437098879 -0.0914630853
H   0.6735290485  1.3634119004 -0.9498001518
O   0.5495650415  1.0827710446  1.0902269960
C   1.3248253965 -0.5876642358 -0.1467572678
H   0.7304003270 -0.1377285630  1.2444076580
H   1.0637274466 -1.0859731292 -1.0750339797
H   2.3075917846 -0.8881600816  0.2223587430
7
Iter 9 Image 5  Energy = -153.8216101701
C   0.9484485625  0.7838840037 -0.0769577175
H   0.6842653679  1.3683355101 -0.9615438551
O   0.5377423977  1.1379463310  1.0630138902
C   1.3116069598 -0.5897826693 -0.1047378056
H   0.7494463884 -0.2412548971  1.2139353185
H   1.0493568831 -1.0924853210 -1.0464725709
H   2.3203750116 -0.8762761645  0.2067016602
7
Iter 9 Image 6  Energy = -153.8462687129
C   0.9458613342  0.8230142768 -0.0686761968
H   0.7081955869  1.3749172069 -0.9822435236
O   0.5190759345  1.1797777683  1.0332873768
C   1.3005320983 -0.5828370740 -0.0437456177
H   0.7724608433 -0.3611532264  1.1608221242
H   1.0147983879 -1.1017997277 -0.9865885023
H   2.3403173805 -0.8415524179  0.1810832602
7
Iter 9 Image 7  Energy = -153.8766017780
C   0.9386858114  0.8488644148 -0.0605518129
H   0.7408370065  1.3767335536 -1.0019620315
O   0.4864405996  1.2349211880  1.0062001035
C   1.2983538876 -0.5742363395 -0.0007537761
H   0.8021411138 -0.4837121816  1.1154460540
H   0.9768842019 -1.1133674256 -0.9162190855
H   2.3578989495 -0.7988363847  0.1517794681
7
Iter 9 Image 8  Energy = -153.9045399043
C   0.9151720587  0.8648806725 -0.0553041748
H   0.7933558040  1.3733025082 -1.0215462287
O   0.4279395608  1.2999515052  0.9748252109
C   1.3054175487 -0.5623085703  0.0315631303
H   0.8469461484 -0.6129806586  1.0889085416
H   0.9332900882 -1.1316514692 -0.8315284242
H   2.3791204092 -0.7408271246  0.1070208512
7
Iter 9 Image 9  Energy = -153.9213766128
C   0.8692188318  0.8666823538 -0.0488508618
H   0.8646156252  1.3670462377 -1.0332189940
O   0.3453643740  1.3534298511  0.9279454282
C   1.3119919996 -0.5496334484  0.0601676521
H   0.9153497941 -0.7232069366  1.0901624191
H   0.8981887103 -1.1560924562 -0.7501012281
H   2.3965123272 -0.6678587294  0.0478344347
7
Iter 9 Image 10  Energy = -153.9291261673
C   0.8100242262  0.8583857004 -0.0495931048
H   0.9348935542  1.3599629262 -1.0282108291
O   0.2654549646  1.4042630196  0.8803820020
C   1.3113619485 -0.5414606630  0.0843392768
H   0.9917542039 -0.8196740731  1.1023083356
H   0.8889163760 -1.1805906376 -0.6941178414
H   2.3988362838 -0.5905194057 -0.0011690516
7
Iter 9 Image 11  Energy = -153.9315568446
C   0.7840367852  0.8656586589 -0.0371164025
H   0.9809293880  1.3403901038 -1.0231241499
O   0.1875804579  1.4681235287  0.8223429327
C   1.3100769769 -0.5359012779  0.1153731248
H   1.0639489065 -0.9236344469  1.1059940899
H   0.8779311114 -1.1816924395 -0.6582837811
H   2.3967379442 -0.5425772870 -0.0312469938
7
Iter 10 Image 0  Energy = -153.9146221658
C   0.8260657415  0.5508603911 -0.1261794589
H   0.4554445983  1.2417513435 -0.8784317668
O   0.5680753083  1.0246514429  1.1187434847
C   1.4411098584 -0.5873603774 -0.4363613732
H   0.9099091373  0.3932317500  1.7666320721
H   1.5916834696 -0.8592929697 -1.4741885892
H   1.8089534565 -1.2734747403  0.3237244514
7
Iter 10 Image 1  Energy = -153.9011072191
C   0.9157206355  0.6332610668 -0.1315482516
H   0.5553363405  1.3023699053 -0.9039567975
O   0.6092490512  1.0185786824  1.1307059619
C   1.4295075129 -0.5699499414 -0.3868832891
H   0.7092353213  0.1901100589  1.6350195907
H   1.2994293768 -1.0072850666 -1.3619363713
H   2.0827633887 -1.0767177492  0.3125379811
7
Iter 10 Image 2  Energy = -153.8811509293
C   0.9440967747  0.6775605156 -0.1342210715
H   0.6037759101  1.3363913411 -0.9245635635
O   0.6003544045  0.9996432488  1.1276838665
C   1.4025277467 -0.5688674698 -0.3192807148
H   0.6803591508  0.0839255768  1.4952263315
H   1.1736176830 -1.0581371085 -1.2396195491
H   2.1965098660 -0.9801492233  0.2887135792
7
Iter 10 Image 3  Energy = -153.8494470344
C   0.9446465004  0.7089945991 -0.1207225539
H   0.6485471508  1.3587708936 -0.9409867467
O   0.5810901208  1.0132855034  1.1182316691
C   1.3515271309 -0.5840491248 -0.2212100565
H   0.7014535269 -0.0115334093  1.3427817405
H   1.1041639749 -1.0791670822 -1.1393043684
H   2.2698131257 -0.9159345492  0.2551492316
7
Iter 10 Image 4  Energy = -153.8232469028
C   0.9377831806  0.7350823985 -0.0888117383
H   0.6742874607  1.3635961095 -0.9436063197
O   0.5557721857  1.0885442309  1.0945291263
C   1.3220684412 -0.5900621450 -0.1461062193
H   0.7365343147 -0.1294671566  1.2260060803
H   1.0706942592 -1.0850399171 -1.0763081107
H   2.3041016983 -0.8922867003  0.2282360975
7
Iter 10 Image 5  Energy = -153.8237998890
C   0.9344369525  0.7788758649 -0.0758438951
H   0.6849207671  1.3699066973 -0.9581336156
O   0.5442288674  1.1437797225  1.0654279600
C   1.3108441536 -0.5901336391 -0.1035511507
H   0.7549634047 -0.2407111278  1.2018746944
H   1.0558763649 -1.0916180165 -1.0483014655
H   2.3159710565 -0.8797327002  0.2124663919
7
Iter 10 Image 6  Energy = -153.8497965575
C   0.9331564975  0.8175286985 -0.0661482285
H   0.7059294289  1.3773252270 -0.9771063243
O   0.5268311821  1.1892314019  1.0382711131
C   1.2976951913 -0.5853959673 -0.0399747973
H   0.7795617981 -0.3608563226  1.1408221242
H   1.0238554898 -1.0988468529 -0.9921158773
H   2.3342119819 -0.8486193853  0.1901909107
7
Iter 10 Image 7  Energy = -153.8799961668
C   0.9291123156  0.8463127737 -0.0619041660
H   0.7383994846  1.3796031957 -0.9973853816
O   0.4939253524  1.2477296771  1.0127093795
C   1.2969849084 -0.5763225502  0.0010084269
H   0.8063518031 -0.4911744060  1.0978651975
H   0.9837525009 -1.1105077731 -0.9200390735
H   2.3527151999 -0.8052740985  0.1616845344
7
Iter 10 Image 8  Energy = -153.9077704795
C   0.9058887941  0.8652886253 -0.0496363943
H   0.7914189783  1.3766753663 -1.0192208072
O   0.4375326643  1.3123303352  0.9732453056
C   1.3043563848 -0.5618537667  0.0329076464
H   0.8483834257 -0.6260377784  1.0745725009
H   0.9373221423 -1.1300991055 -0.8332120185
H   2.3763392237 -0.7459368216  0.1152826779
7
Iter 10 Image 9  Energy = -153.9228182828
C   0.8641615710  0.8665040668 -0.0483241930
H   0.8641336083  1.3691516224 -1.0311917568
O   0.3500087577  1.3661081380  0.9279859273
C   1.3113342627 -0.5489627456  0.0611163088
H   0.9164730760 -0.7363843113  1.0816400230
H   0.8998279917 -1.1557454493 -0.7496426384
H   2.3953023980 -0.6703044504  0.0523551910
7
Iter 10 Image 10  Energy = -153.9294760891
C   0.8086430235  0.8601543837 -0.0472026164
H   0.9333936050  1.3605938217 -1.0273870963
O   0.2682781117  1.4097527783  0.8780460691
C   1.3109268971 -0.5412686305  0.0851776682
H   0.9924076852 -0.8261423667  1.0978971817
H   0.8892711185 -1.1803336467 -0.6934167241
H   2.3983211211 -0.5923894696  0.0008243080
7
Iter 10 Image 11  Energy = -153.9315568446
C   0.7840367852  0.8656586589 -0.0371164025
H   0.9809293880  1.3403901038 -1.0231241499
O   0.1875804579  1.4681235287  0.8223429327
C   1.3100769769 -0.5359012779  0.1153731248
H   1.0639489065 -0.9236344469  1.1059940899
H   0.8779311114 -1.1816924395 -0.6582837811
H   2.3967379442 -0.5425772870 -0.0312469938
7
Iter 11 Image 0  Energy = -153.9146221658
C   0.8260657415  0.5508603911 -0.1261794589
H   0.4554445983  1.2417513435 -0.8784317668
O   0.5680753083  1.0246514429  1.1187434847
C   1.4411098584 -0.5873603774 -0.4363613732
H   0.9099091373  0.3932317500  1.7666320721
H   1.5916834696 -0.8592929697 -1.4741885892
H   1.8089534565 -1.2734747403  0.3237244514
7
Iter 11 Image 1  Energy = -153.9021975156
C   0.9061789672  0.6276435887 -0.1313577798
H   0.5520167144  1.3012193376 -0.9042171251
O   0.6176346327  1.0216392068  1.1318403748
C   1.4329433169 -0.5675756710 -0.3902543519
H   0.7109729224  0.1918737995  1.6348199863
H   1.3053568039 -1.0068650879 -1.3641329170
H   2.0761382652 -1.0775682120  0.3172406354
7
Iter 11 Image 2  Energy = -153.8828313765
C   0.9308789190  0.6693946093 -0.1340543595
H   0.6013055352  1.3365752665 -0.9240083053
O   0.6102422396  1.0037762260  1.1297134736
C   1.4020167046 -0.5685671918 -0.3213543909
H   0.6858197309  0.0886906244  1.4887384324
H   1.1811144582 -1.0581705047 -1.2417253443
H   2.1898639441 -0.9813321508  0.2966293801
7
Iter 11 Image 3  Energy = -153.8512793124
C   0.9292269203  0.6990821797 -0.1203070859
H   0.6475011990  1.3594079754 -0.9367356642
O   0.5908803448  1.0179375794  1.1222007097
C   1.3462612764 -0.5860432085 -0.2179867337
H   0.7102724841 -0.0027681865  1.3251529644
H   1.1138113758 -1.0779544869 -1.1419584623
H   2.2632879315 -0.9192950397  0.2635732048
7
Iter 11 Image 4  Energy = -153.8249696029
C   0.9235773722  0.7289742201 -0.0911087084
H   0.6753549906  1.3633293301 -0.9363048531
O   0.5627257788  1.0936022809  1.1008814970
C   1.3205691586 -0.5927068711 -0.1474073337
H   0.7413826962 -0.1211195184  1.2104396298
H   1.0778574034 -1.0855348247 -1.0772982806
H   2.2997741368 -0.8961778002  0.2347369710
7
Iter 11 Image 5  Energy = -153.8257489509
C   0.9199800928  0.7733835949 -0.0748114551
H   0.6848310484  1.3718228166 -0.9540714054
O   0.5515296010  1.1511103581  1.0686511075
C   1.3080936718 -0.5910076423 -0.1036569412
H   0.7614086400 -0.2402991418  1.1875237221
H   1.0636532917 -1.0908292841 -1.0499058363
H   2.3117452134 -0.8838138968  0.2202097373
7
Iter 11 Image 6  Energy = -153.8526986526
C   0.9189220759  0.8109145834 -0.0597249183
H   0.7027044137  1.3801199016 -0.9718468397
O   0.5374437681  1.1972818106  1.0401535566
C   1.2937338782 -0.5856253655 -0.0395103371
H   0.7861477214 -0.3601947625  1.1217281634
H   1.0343192776 -1.0959027943 -0.9981346900
H   2.3279704343 -0.8562265766  0.2012739844
7
Iter 11 Image 7  Energy = -153.8841311083
C   0.9155749017  0.8460146363 -0.0516780272
H   0.7346079370  1.3837030981 -0.9932892365
O   0.5063541387  1.2605225283  1.0111597619
C   1.2946880002 -0.5779125020  0.0003167322
H   0.8106119601 -0.5016999873  1.0778651975
H   0.9921819784 -1.1074925812 -0.9242239117
H   2.3472226530 -0.8127683846  0.1737884071
7
Iter 11 Image 8  Energy = -153.9107010042
C   0.8979066781  0.8652651538 -0.0506328166
H   0.7889331414  1.3799008627 -1.0149513966
O   0.4465565721  1.3299833473  0.9780125785
C   1.3038371104 -0.5627795672  0.0319887130
H   0.8487296521 -0.6429183167  1.0586221079
H   0.9423879543 -1.1277329770 -0.8344010777
H   2.3728905038 -0.7513516553  0.1253008110
7
Iter 11 Image 9  Energy = -153.9243960240
C   0.8571279955  0.8681756438 -0.0448474936
H   0.8636990610  1.3715384391 -1.0290396605
O   0.3568655724  1.3803107977  0.9255097962
C   1.3103893021 -0.5484497022  0.0615365479
H   0.9174073754 -0.7533816635  1.0720132440
H   0.9018211362 -1.1553019811 -0.7488082878
H   2.3939312264 -0.6725246627  0.0575747276
7
Iter 11 Image 10  Energy = -153.9297633514
C   0.8092107578  0.8602566073 -0.0480815937
H   0.9315976737  1.3611701918 -1.0262304488
O   0.2697814904  1.4188044306  0.8787532372
C   1.3104368410 -0.5408257993  0.0857373160
H   0.9930055831 -0.8347845347  1.0930985996
H   0.8897207952 -1.1798402397 -0.6926058054
H   2.3974884253 -0.5944137810  0.0032674870
7
Iter 11 Image 11  Energy = -153.9315568446
C   0.7840367852  0.8656586589 -0.0371164025
H   0.9809293880  1.3403901038 -1.0231241499
O   0.1875804579  1.4681235287  0.8223429327
C   1.3100769769 -0.5359012779  0.1153731248
H   1.0639489065 -0.9236344469  1.1059940899
H   0.8779311114 -1.1816924395 -0.6582837811
H   2.3967379442 -0.5425772870 -0.0312469938
7
Iter 12 Image 0  Energy = -153.9146221658
C   0.8260657415  0.5508603911 -0.1261794589
H   0.4554445983  1.2417513435 -0.8784317668
O   0.5680753083  1.0246514429  1.1187434847
C   1.4411098584 -0.5873603774 -0.4363613732
H   0.9099091373  0.3932317500  1.7666320721
H   1.5916834696 -0.8592929697 -1.4741885892
H   1.8089534565 -1.2734747403  0.3237244514
7
Iter 12 Image 1  Energy = -153.9033141636
C   0.8958966729  0.6223302432 -0.1327138632
H   0.5481796667  1.2993775145 -0.9041743498
O   0.6272133936  1.0230463317  1.1349538566
C   1.4365245798 -0.5655355447 -0.3930776405
H   0.7128800435  0.1958289101  1.6334671711
H   1.3122722234 -1.0064440239 -1.3667000512
H   2.0682750362 -1.0782364702  0.3221837014
7
Iter 12 Image 2  Energy = -153.8844707564
C   0.9159266419  0.6630098665 -0.1357832595
H   0.5984886445  1.3358629603 -0.9228187275
O   0.6216571232  1.0069512591  1.1331370749
C   1.4021469044 -0.5700082090 -0.3224766182
H   0.6921405402  0.0950641389  1.4810843568
H   1.1899266647 -1.0582797458 -1.2442068374
H   2.1809550074 -0.9822334024  0.3050029032
7
Iter 12 Image 3  Energy = -153.8527928866
C   0.9129947123  0.6915089829 -0.1230115568
H   0.6464288253  1.3592474638 -0.9312327529
O   0.6013835312  1.0224980301  1.1278439903
C   1.3421544866 -0.5898087623 -0.2152561654
H   0.7192830462  0.0060743179  1.3064545238
H   1.1237356509 -1.0769319727 -1.1433920557
H   2.2552612812 -0.9222212526  0.2725329540
7
Iter 12 Image 4  Energy = -153.8259448690
C   0.9097064134  0.7243450951 -0.0897506730
H   0.6761785067  1.3648535960 -0.9318430220
O   0.5711152999  1.0975420436  1.1032178457
C   1.3198440593 -0.5925612923 -0.1502838488
H   0.7450398654 -0.1164588947  1.1986690525
H   1.0841794253 -1.0881598750 -1.0772903929
H   2.2951779658 -0.8991938601  0.2412199666
7
Iter 12 Image 5  Energy = -153.8274054709
C   0.9045647376  0.7702779781 -0.0724448044
H   0.6838453860  1.3738733803 -0.9493600902
O   0.5605121629  1.1592737298  1.0702419904
C   1.3068194425 -0.5927336682 -0.1040719618
H   0.7674874755 -0.2406861731  1.1738413617
H   1.0720082659 -1.0912181597 -1.0531033047
H   2.3060040837 -0.8884202780  0.2288357366
7
Iter 12 Image 6  Energy = -153.8547401167
C   0.9047330536  0.8045078331 -0.0587572692
H   0.6993717596  1.3824865937 -0.9656627181
O   0.5477986164  1.2073785184  1.0458592784
C   1.2920693259 -0.5870588023 -0.0403779718
H   0.7919672448 -0.3604529675  1.1041704916
H   1.0446763988 -1.0935042873 -1.0042725146
H   2.3206251625 -0.8629900937  0.2129796244
7
Iter 12 Image 7  Energy = -153.8875255097
C   0.9041272043  0.8425490902 -0.0505886315
H   0.7300496861  1.3875459262 -0.9875620263
O   0.5177622239  1.2778214331  1.0176727623
C   1.2933221362 -0.5777409391 -0.0006655696
H   0.8138090842 -0.5143095345  1.0578651975
H   1.0009263108 -1.1049207628 -0.9299244019
H   2.3412449227 -0.8205784188  0.1871415974
7
Iter 12 Image 8  Energy = -153.9137046745
C   0.8879082544  0.8659510328 -0.0446694672
H   0.7856213244  1.3841728766 -1.0113348274
O   0.4593597667  1.3471430616  0.9779015274
C   1.3032717838 -0.5615771356  0.0315330957
H   0.8479857301 -0.6622946298  1.0410796854
H   0.9474793346 -1.1261354626 -0.8367540815
H   2.3696154141 -0.7568929062  0.1361829914
7
Iter 12 Image 9  Energy = -153.9257555956
C   0.8516591291  0.8685647780 -0.0447914177
H   0.8630077393  1.3738955951 -1.0264038823
O   0.3632504517  1.3975191299  0.9262075328
C   1.3094337241 -0.5476120383  0.0625951151
H   0.9177747107 -0.7726044718  1.0616239459
H   0.9038534011 -1.1549210174 -0.7485129529
H   2.3922625141 -0.6744751062  0.0632205434
7
Iter 12 Image 10  Energy = -153.9301549653
C   0.8075535506  0.8630505927 -0.0445301009
H   0.9297573592  1.3618218509 -1.0254525170
O   0.2738061868  1.4265258395  0.8754794229
C   1.3096282915 -0.5405572222  0.0870228121
H   0.9937177546 -0.8447404968  1.0875663548
H   0.8901658833 -1.1793694214 -0.6919690322
H   2.3966125417 -0.5963642639  0.0058218521
7
Iter 12 Image 11  Energy = -153.9315568446
C   0.7840367852  0.8656586589 -0.0371164025
H   0.9809293880  1.3403901038 -1.0231241499
O   0.1875804579  1.4681235287  0.8223429327
C   1.3100769769 -0.5359012779  0.1153731248
H   1.0639489065 -0.9236344469  1.1059940899
H   0.8779311114 -1.1816924395 -0.6582837811
H   2.3967379442 -0.5425772870 -0.0312469938
7
Iter 13 Image 0  Energy = -153.9146221658
C   0.8260657415  0.5508603911 -0.1261794589
H   0.4554445983  1.2417513435 -0.8784317668
O   0.5680753083  1.0246514429  1.1187434847
C   1.4411098584 -0.5873603774 -0.4363613732
H   0.9099091373  0.3932317500  1.7666320721
H   1.5916834696 -0.8592929697 -1.4741885892
H   1.8089534565 -1.2734747403  0.3237244514
7
Iter 13 Image 1  Energy = -153.9042054321
C   0.8865942250  0.6175682536 -0.1332573576
H   0.5436964066  1.2974570190 -0.9042517770
O   0.6367572503  1.0255554898  1.1363234230
C   1.4391170208 -0.5639963731 -0.3959327549
H   0.7152656253  0.1986234876  1.6328861471
H   1.3197143188 -1.0060227500 -1.3690296404
H   2.0600967653 -1.0788181673  0.3272007868
7
Iter 13 Image 2  Energy = -153.8857424723
C   0.9035139181  0.6548362152 -0.1378570546
H   0.5948508684  1.3352986055 -0.9219678325
O   0.6329098711  1.0116631642  1.1357868273
C   1.3999696518 -0.5689911053 -0.3237030564
H   0.6990021298  0.0995929070  1.4740452525
H   1.1991313249 -1.0587585690 -1.2464056406
H   2.1718637624 -0.9832743612  0.3140404099
7
Iter 13 Image 3  Energy = -153.8535600281
C   0.9003776496  0.6831894755 -0.1192743835
H   0.6444214189  1.3611690633 -0.9290650301
O   0.6122204586  1.0259726155  1.1272960172
C   1.3378548667 -0.5882485593 -0.2157903240
H   0.7265047821  0.0106412605  1.2923201522
H   1.1315675977 -1.0782305227 -1.1430622179
H   2.2482947589 -0.9241265247  0.2815147295
7
Iter 13 Image 4  Energy = -153.8265841121
C   0.8997590685  0.7198522410 -0.0905940268
H   0.6766309897  1.3683317175 -0.9304822283
O   0.5783716572  1.0995157152  1.1066442034
C   1.3193000166 -0.5891166104 -0.1534932087
H   0.7472547769 -0.1144227959  1.1917480119
H   1.0885836427 -1.0930170137 -1.0771869170
H   2.2913413826 -0.9007764369  0.2473030988
7
Iter 13 Image 5  Energy = -153.8282768191
C   0.8930596978  0.7669021262 -0.0731938467
H   0.6818703806  1.3763784778 -0.9454987909
O   0.5694795202  1.1659060383  1.0724868859
C   1.3055109222 -0.5911102925 -0.1049626237
H   0.7715511383 -0.2418011245  1.1649950269
H   1.0796474823 -1.0932550352 -1.0571959547
H   2.3001224064 -0.8926533812  0.2373082483
7
Iter 13 Image 6  Energy = -153.8561635607
C   0.8916236247  0.8034603743 -0.0540709210
H   0.6952158577  1.3847038321 -0.9603497718
O   0.5591701613  1.2156619004  1.0460873695
C   1.2909173993 -0.5893610535 -0.0432142358
H   0.7960851700 -0.3623113590  1.0920061224
H   1.0543111667 -1.0928705760 -1.0108873828
H   2.3139181796 -0.8689163193  0.2243677589
7
Iter 13 Image 7  Energy = -153.8900060242
C   0.8928165159  0.8434010469 -0.0481263922
H   0.7247992268  1.3903493963 -0.9813064987
O   0.5307887867  1.2919490120  1.0211756625
C   1.2938713761 -0.5790680946 -0.0044438646
H   0.8143490723 -0.5263340778  1.0420993252
H   1.0094848088 -1.1026300779 -0.9356534081
H   2.3351317733 -0.8273004131  0.2001941067
7
Iter 13 Image 8  Energy = -153.9159843161
C   0.8803987183  0.8659586864 -0.0422239509
H   0.7814700036  1.3879942946 -1.0069892097
O   0.4719692854  1.3651252188  0.9808297769
C   1.3027927741 -0.5598668249  0.0301155036
H   0.8451249649 -0.6822946298  1.0252922646
H   0.9526709695 -1.1246859340 -0.8400845757
H   2.3668148891 -0.7618639803  0.1469991205
7
Iter 13 Image 9  Energy = -153.9268770762
C   0.8451881583  0.8711564335 -0.0400655918
H   0.8620465685  1.3761464298 -1.0244242666
O   0.3720494047  1.4122286941  0.9231830332
C   1.3081266282 -0.5468764084  0.0631258600
H   0.9171181347 -0.7921070571  1.0520853916
H   0.9059810155 -1.1543684457 -0.7486413544
H   2.3907317636 -0.6758127757  0.0686758160
7
Iter 13 Image 10  Energy = -153.9304122018
C   0.8081425474  0.8639846503 -0.0445655309
H   0.9278928315  1.3621186268 -1.0245226214
O   0.2762211308  1.4362733844  0.8755714265
C   1.3086990181 -0.5401825306  0.0881286900
H   0.9940968336 -0.8552486251  1.0825565679
H   0.8906167751 -1.1785771942 -0.6915723390
H   2.3955724349 -0.5980014316  0.0083425997
7
Iter 13 Image 11  Energy = -153.9315568446
C   0.7840367852  0.8656586589 -0.0371164025
H   0.9809293880  1.3403901038 -1.0231241499
O   0.1875804579  1.4681235287  0.8223429327
C   1.3100769769 -0.5359012779  0.1153731248
H   1.0639489065 -0.9236344469  1.1059940899
H   0.8779311114 -1.1816924395 -0.6582837811
H   2.3967379442 -0.5425772870 -0.0312469938
7
Iter 14 Image 0  Energy = -153.9146221658
C   0.8260657415  0.5508603911 -0.1261794589
H   0.4554445983  1.2417513435 -0.8784317668
O   0.5680753083  1.0246514429  1.1187434847
C   1.4411098584 -0.5873603774 -0.4363613732
H   0.9099091373  0.3932317500  1.7666320721
H   1.5916834696 -0.8592929697 -1.4741885892
H   1.8089534565 -1.2734747403  0.3237244514
7
Iter 14 Image 1  Energy = -153.9049578887
C   0.8785424833  0.6125928521 -0.1341518112
H   0.5387404365  1.2954637188 -0.9043968957
O   0.6462109412  1.0279209660  1.1376157053
C   1.4406097572 -0.5621024223 -0.3982816072
H   0.7179325199  0.2015722392  1.6322709843
H   1.3274804159 -1.0057426942 -1.3713800089
H   2.0517250517 -1.0793376993  0.3322624663
7
Iter 14 Image 2  Energy = -153.8867444255
C   0.8909920571  0.6506317490 -0.1380381027
H   0.5908366836  1.3345852533 -0.9215430699
O   0.6446120753  1.0151631167  1.1366874719
C   1.3988141438 -0.5705963240 -0.3251903969
H   0.7060310552  0.1037229575  1.4670139581
H   1.2082531113 -1.0596028113 -1.2477564853
H   2.1617024011 -0.9835370942  0.3227655405
7
Iter 14 Image 3  Energy = -153.8541546938
C   0.8890708526  0.6810236244 -0.1245805642
H   0.6431179551  1.3618528238 -0.9262059674
O   0.6214675535  1.0285987097  1.1317779311
C   1.3370955372 -0.5882020336 -0.2149461628
H   0.7326637162  0.0127827089  1.2810018404
H   1.1374164204 -1.0811022178 -1.1424772657
H   2.2404094950 -0.9245868092  0.2893691350
7
Iter 14 Image 4  Energy = -153.8271797876
C   0.8904091649  0.7198066504 -0.0935889583
H   0.6772507428  1.3719000113 -0.9294666207
O   0.5851126336  1.0995579579  1.1108518384
C   1.3211511556 -0.5883009127 -0.1581835367
H   0.7485092538 -0.1130048356  1.1874060997
H   1.0918865165 -1.0985238791 -1.0761265091
H   2.2869220640 -0.9010681716  0.2530466224
7
Iter 14 Image 5  Energy = -153.8287891723
C   0.8833507331  0.7649080634 -0.0717873412
H   0.6795010812  1.3798897443 -0.9436163153
O   0.5786949774  1.1698590228  1.0729983958
C   1.3043207165 -0.5899713281 -0.1077556765
H   0.7745246375 -0.2427108720  1.1581502126
H   1.0863904971 -1.0959068157 -1.0594928155
H   2.2944588953 -0.8957009989  0.2454424966
7
Iter 14 Image 6  Energy = -153.8571679277
C   0.8829050606  0.7991803920 -0.0557002804
H   0.6904844132  1.3876762756 -0.9562689718
O   0.5690223935  1.2257917581  1.0506363238
C   1.2885480163 -0.5878236166 -0.0448297336
H   0.7992350425 -0.3665707891  1.0826594124
H   1.0631294158 -1.0937382636 -1.0176394307
H   2.3079172158 -0.8741489519  0.2350816353
7
Iter 14 Image 7  Energy = -153.8919270720
C   0.8825627660  0.8438487077 -0.0402269152
H   0.7183643088  1.3940135075 -0.9768926824
O   0.5454827573  1.3038011106  1.0204947441
C   1.2932304862 -0.5784782740 -0.0079974523
H   0.8136102564 -0.5377443025  1.0280130095
H   1.0178503915 -1.1014910187 -0.9423776616
H   2.3301405890 -0.8335829354  0.2129258835
7
Iter 14 Image 8  Energy = -153.9178296134
C   0.8730210209  0.8684040450 -0.0382796080
H   0.7765806098  1.3913628545 -1.0024023809
O   0.4863017608  1.3813588719  0.9821350599
C   1.3028587118 -0.5593310295  0.0277636838
H   0.8405250687 -0.7022946298  1.0108316446
H   0.9582091990 -1.1229524952 -0.8438556916
H   2.3637452306 -0.7661807905  0.1577462256
7
Iter 14 Image 9  Energy = -153.9277229689
C   0.8421317169  0.8712034245 -0.0411597711
H   0.8607139322  1.3778775185 -1.0220773225
O   0.3789606809  1.4294004431  0.9255712419
C   1.3066085574 -0.5460668652  0.0639582735
H   0.9156063502 -0.8118349531  1.0430607809
H   0.9081278851 -1.1535599830 -0.7494634277
H   2.3890925526 -0.6766527132  0.0740491189
7
Iter 14 Image 10  Energy = -153.9306733509
C   0.8069575767  0.8669418634 -0.0410252519
H   0.9262199278  1.3622877937 -1.0240531815
O   0.2805038218  1.4441024403  0.8725881777
C   1.3077471779 -0.5399662678  0.0892367921
H   0.9943129781 -0.8660609929  1.0778698939
H   0.8910487089 -1.1776489083 -0.6913835501
H   2.3944513855 -0.5992890446  0.0107059150
7
Iter 14 Image 11  Energy = -153.9315568446
C   0.7840367852  0.8656586589 -0.0371164025
H   0.9809293880  1.3403901038 -1.0231241499
O   0.1875804579  1.4681235287  0.8223429327
C   1.3100769769 -0.5359012779  0.1153731248
H   1.0639489065 -0.9236344469  1.1059940899
H   0.8779311114 -1.1816924395 -0.6582837811
H   2.3967379442 -0.5425772870 -0.0312469938
7
Iter 15 Image 0  Energy = -153.9146221658
C   0.8260657415  0.5508603911 -0.1261794589
H   0.4554445983  1.2417513435 -0.8784317668
O   0.5680753083  1.0246514429  1.1187434847
C   1.4411098584 -0.5873603774 -0.4363613732
H   0.9099091373  0.3932317500  1.7666320721
H   1.5916834696 -0.8592929697 -1.4741885892
H   1.8089534565 -1.2734747403  0.3237244514
7
Iter 15 Image 1  Energy = -153.9055957990
C   0.8710135490  0.6088932707 -0.1352903851
H   0.5334414981  1.2931722611 -0.9044351634
O   0.6556397654  1.0298273782  1.1387997323
C   1.4417838881 -0.5612223820 -0.4003196825
H   0.7208566543  0.2048474369  1.6316078632
H   1.3355443809 -1.0055107029 -1.3736128758
H   2.0429618623 -1.0796403039  0.3371893486
7
Iter 15 Image 2  Energy = -153.8875313579
C   0.8804374762  0.6460866883 -0.1397944059
H   0.5865309882  1.3338925156 -0.9212986636
O   0.6560121867  1.0182544188  1.1381012018
C   1.3966183395 -0.5703991129 -0.3256350703
H   0.7133097187  0.1072235945  1.4600946622
H   1.2170378511 -1.0612535692 -1.2491020632
H   2.1512949674 -0.9834376964  0.3315732657
7
Iter 15 Image 3  Energy = -153.8546322547
C   0.8804851901  0.6779789702 -0.1275834334
H   0.6416546936  1.3640948405 -0.9253318707
O   0.6299025867  1.0294433010  1.1353506433
C   1.3361621156 -0.5857843062 -0.2167626401
H   0.7376441284  0.0142654987  1.2717469084
H   1.1417811105 -1.0853945879 -1.1406490286
H   2.2336117032 -0.9242369111  0.2971683698
7
Iter 15 Image 4  Energy = -153.8277585447
C   0.8830806871  0.7184512373 -0.0944849044
H   0.6774294998  1.3767759761 -0.9299815009
O   0.5918718841  1.0977339006  1.1134096869
C   1.3221920268 -0.5847962815 -0.1629899368
H   0.7492376276 -0.1121702961  1.1842178226
H   1.0943627684 -1.1049825207 -1.0750268090
H   2.2830670346 -0.9006451951  0.2587945793
7
Iter 15 Image 5  Energy = -153.8291511502
C   0.8753007212  0.7647390609 -0.0727492479
H   0.6771988474  1.3835738054 -0.9421838923
O   0.5871689042  1.1733005165  1.0748153501
C   1.3040525171 -0.5896214981 -0.1108389985
H   0.7767000515 -0.2445034221  1.1529185909
H   1.0920552214 -1.0995370179 -1.0610268506
H   2.2887652660 -0.8975846289  0.2530040085
7
Iter 15 Image 6  Energy = -153.8580332194
C   0.8741519013  0.7986517612 -0.0524094382
H   0.6855255770  1.3909772100 -0.9535482377
O   0.5804473905  1.2322595956  1.0497355495
C   1.2871139736 -0.5874560021 -0.0475040845
H   0.8013883762 -0.3708082659  1.0752662333
H   1.0712780557 -1.0951694898 -1.0227159894
H   2.3013362754 -0.8780879999  0.2451149285
7
Iter 15 Image 7  Energy = -153.8935317353
C   0.8759671993  0.8417986826 -0.0408464969
H   0.7113426503  1.3972740320 -0.9722044164
O   0.5583781034  1.3180835098  1.0266544838
C   1.2925567960 -0.5772383090 -0.0110500396
H   0.8117402177 -0.5494453886  1.0155513604
H   1.0259570429 -1.1009654233 -0.9493712730
H   2.3252995415 -0.8391403077  0.2252053123
7
Iter 15 Image 8  Energy = -153.9193234529
C   0.8675973332  0.8698647972 -0.0353287097
H   0.7708728712  1.3947189893 -0.9981205408
O   0.5009347122  1.3975964527  0.9848568968
C   1.3024418761 -0.5582428622  0.0256688643
H   0.8346176747 -0.7222946298  0.9969161608
H   0.9638923007 -1.1213221081 -0.8484978479
H   2.3608848276 -0.7699538158  0.1684441144
7
Iter 15 Image 9  Energy = -153.9284539653
C   0.8374802249  0.8742414374 -0.0371067760
H   0.8591504229  1.3794043755 -1.0202955851
O   0.3885993969  1.4436136921  0.9236033144
C   1.3049736427 -0.5456534550  0.0647506724
H   0.9133302798 -0.8316760869  1.0344733833
H   0.9103867298 -1.1525512659 -0.7507943812
H   2.3873209785 -0.6770118284  0.0793082726
7
Iter 15 Image 10  Energy = -153.9308698358
C   0.8072766746  0.8685906565 -0.0398550277
H   0.9245680943  1.3621667796 -1.0235554840
O   0.2837609630  1.4532452130  0.8718908970
C   1.3065933430 -0.5396625097  0.0905382404
H   0.9943203707 -0.8771642762  1.0734375377
H   0.8914432250 -1.1765045563 -0.6915184088
H   2.3932789116 -0.6003044203  0.0130010424
7
Iter 15 Image 11  Energy = -153.9315568446
C   0.7840367852  0.8656586589 -0.0371164025
H   0.9809293880  1.3403901038 -1.0231241499
O   0.1875804579  1.4681235287  0.8223429327
C   1.3100769769 -0.5359012779  0.1153731248
H   1.0639489065 -0.9236344469  1.1059940899
H   0.8779311114 -1.1816924395 -0.6582837811
H   2.3967379442 -0.5425772870 -0.0312469938
7
Iter 16 Image 0  Energy = -153.9146221658
C   0.8260657415  0.5508603911 -0.1261794589
H   0.4554445983  1.2417513435 -0.8784317668
O   0.5680753083  1.0246514429  1.1187434847
C   1.4411098584 -0.5873603774 -0.4363613732
H   0.9099091373  0.3932317500  1.7666320721
H   1.5916834696 -0.8592929697 -1.4741885892
H   1.8089534565 -1.2734747403  0.3237244514
7
Iter 16 Image 1  Energy = -153.9061493514
C   0.8649321854  0.6058839231 -0.1364068501
H   0.5275041452  1.2907941813 -0.9045582975
O   0.6647982180  1.0319612092  1.1390854097
C   1.4418696023 -0.5607695623 -0.4020198309
H   0.7243099483  0.2077751688  1.6313793559
H   1.3439815639 -1.0054737220 -1.3757218482
H   2.0338459319 -1.0798042470  0.3421809049
7
Iter 16 Image 2  Energy = -153.8881369075
C   0.8725048690  0.6423314549 -0.1426765518
H   0.5818397618  1.3334932731 -0.9215144859
O   0.6667267739  1.0210472241  1.1395067382
C   1.3934494585 -0.5691249582 -0.3261569066
H   0.7208971611  0.1091877524  1.4537462954
H   1.2251082058 -1.0639528594 -1.2496034225
H   2.1407152938 -0.9826150649  0.3406372698
7
Iter 16 Image 3  Energy = -153.8552294008
C   0.8745123189  0.6758273209 -0.1258332534
H   0.6399982189  1.3683561612 -0.9267347203
O   0.6376969509  1.0270532439  1.1357993672
C   1.3364447410 -0.5819034537 -0.2221748801
H   0.7407768761  0.0154396762  1.2660624523
H   1.1441270145 -1.0918282697 -1.1379365105
H   2.2276854044 -0.9225778739  0.3047564899
7
Iter 16 Image 4  Energy = -153.8283686803
C   0.8782003608  0.7165117171 -0.0955769956
H   0.6771520312  1.3825268075 -0.9310046732
O   0.5981448720  1.0942231720  1.1158478533
C   1.3226595821 -0.5799760247 -0.1678891346
H   0.7494822728 -0.1115993716  1.1817772170
H   1.0959483121 -1.1121397218 -1.0737862343
H   2.2796540938 -0.8991797573  0.2645709027
7
Iter 16 Image 5  Energy = -153.8294764702
C   0.8698971965  0.7646619026 -0.0738232175
H   0.6749860044  1.3882132523 -0.9419689853
O   0.5949185542  1.1749564881  1.0763193832
C   1.3034154175 -0.5875196655 -0.1130143107
H   0.7780511757 -0.2471604310  1.1486441240
H   1.0960279432 -1.1048878849 -1.0620067140
H   2.2839452336 -0.8978968358  0.2597886803
7
Iter 16 Image 6  Energy = -153.8588041940
C   0.8683848006  0.8003470124 -0.0551840963
H   0.6807912799  1.3941132275 -0.9514032677
O   0.5903317739  1.2387530716  1.0527069701
C   1.2862685024 -0.5891615734 -0.0504521598
H   0.8026402127 -0.3762012127  1.0693881183
H   1.0780534153 -1.0974260021 -1.0252750044
H   2.2947715526 -0.8800577137  0.2541584123
7
Iter 16 Image 7  Energy = -153.8947273340
C   0.8698759938  0.8444508704 -0.0366074320
H   0.7035003128  1.4001318432 -0.9681039383
O   0.5734439348  1.3274668756  1.0266539715
C   1.2924654190 -0.5772504811 -0.0150318014
H   0.8080457487 -0.5602130439  1.0058558495
H   1.0340822130 -1.1008823873 -0.9554297499
H   2.3198279252 -0.8433368751  0.2366020513
7
Iter 16 Image 8  Energy = -153.9205609496
C   0.8639707638  0.8713873429 -0.0310522590
H   0.7639838368  1.3979964861 -0.9945161640
O   0.5170655654  1.4124972998  0.9870763786
C   1.3010691973 -0.5567891750  0.0240346174
H   0.8269844264 -0.7422291485  0.9835375283
H   0.9699835503 -1.1196398970 -0.8541906041
H   2.3581842484 -0.7728560884  0.1790494416
7
Iter 16 Image 9  Energy = -153.9290057720
C   0.8352364794  0.8761548396 -0.0355907586
H   0.8570564199  1.3803225404 -1.0186022312
O   0.3979873936  1.4586921074  0.9245332777
C   1.3027746533 -0.5454589069  0.0655781040
H   0.9099112260 -0.8516760869  1.0264283171
H   0.9129231778 -1.1509168821 -0.7529969101
H   2.3853523256 -0.6767507427  0.0845891072
7
Iter 16 Image 10  Energy = -153.9310298851
C   0.8073791826  0.8707039294 -0.0380312288
H   0.9230732185  1.3616441118 -1.0232917717
O   0.2876567533  1.4619608318  0.8708366362
C   1.3053193987 -0.5395034629  0.0918043050
H   0.9939841351 -0.8885614374  1.0694856693
H   0.8918368783 -1.1749685043 -0.6920474988
H   2.3919920198 -0.6009085777  0.0151826912
7
Iter 16 Image 11  Energy = -153.9315568446
C   0.7840367852  0.8656586589 -0.0371164025
H   0.9809293880  1.3403901038 -1.0231241499
O   0.1875804579  1.4681235287  0.8223429327
C   1.3100769769 -0.5359012779  0.1153731248
H   1.0639489065 -0.9236344469  1.1059940899
H   0.8779311114 -1.1816924395 -0.6582837811
H   2.3967379442 -0.5425772870 -0.0312469938
7
Iter 17 Image 0  Energy = -153.9146221658
C   0.8260657415  0.5508603911 -0.1261794589
H   0.4554445983  1.2417513435 -0.8784317668
O   0.5680753083  1.0246514429  1.1187434847
C   1.4411098584 -0.5873603774 -0.4363613732
H   0.9099091373  0.3932317500  1.7666320721
H   1.5916834696 -0.8592929697 -1.4741885892
H   1.8089534565 -1.2734747403  0.3237244514
7
Iter 17 Image 1  Energy = -153.9066479695
C   0.8605377686  0.6030516936 -0.1377682187
H   0.5209750569  1.2884676136 -0.9048603743
O   0.6735764647  1.0340596445  1.1389365401
C   1.4407102087 -0.5602891960 -0.4033862390
H   0.7283145933  0.2106744946  1.6313688105
H   1.3526726669 -1.0057298229 -1.3776755535
H   2.0244548333 -1.0798674812  0.3473238769
7
Iter 17 Image 2  Energy = -153.8886314191
C   0.8660061178  0.6418316359 -0.1438634985
H   0.5768835308  1.3337575600 -0.9225559643
O   0.6769738256  1.0223823933  1.1394010291
C   1.3910990367 -0.5694603707 -0.3277844824
H   0.7285510536  0.1101619396  1.4479457777
H   1.2321758751 -1.0677663911 -1.2487980041
H   2.1295520783 -0.9805399593  0.3495940885
7
Iter 17 Image 3  Energy = -153.8559881672
C   0.8703864981  0.6772794800 -0.1304350067
H   0.6387669819  1.3721222849 -0.9269863064
O   0.6441853132  1.0235152866  1.1389587250
C   1.3393396109 -0.5780459426 -0.2267559169
H   0.7424972065  0.0152288288  1.2639805689
H   1.1447113831 -1.1001863548 -1.1362907327
H   2.2213545289 -0.9195467710  0.3114676058
7
Iter 17 Image 4  Energy = -153.8290453141
C   0.8743128762  0.7176449019 -0.0996337100
H   0.6767262300  1.3878680376 -0.9309201312
O   0.6038219232  1.0897381632  1.1196719546
C   1.3247236046 -0.5780502615 -0.1733808078
H   0.7491827766 -0.1110911767  1.1800305071
H   1.0968554586 -1.1192962066 -1.0719621115
H   2.2756186532 -0.8964466311  0.2701332350
7
Iter 17 Image 5  Energy = -153.8298367072
C   0.8664575734  0.7650925518 -0.0738145572
H   0.6729515752  1.3936369857 -0.9424825005
O   0.6021085592  1.1749339845  1.0765926520
C   1.3025284431 -0.5850925238 -0.1154733462
H   0.7787690746 -0.2505376724  1.1445706859
H   1.0984838158 -1.1111426989 -1.0613891755
H   2.2799424793 -0.8965237871  0.2659352051
7
Iter 17 Image 6  Energy = -153.8597039723
C   0.8647193417  0.8012755594 -0.0528927373
H   0.6760895891  1.3988076325 -0.9515804343
O   0.6005602329  1.2419900755  1.0513192981
C   1.2840692064 -0.5876057126 -0.0522221471
H   0.8030453969 -0.3816081296  1.0642781513
H   1.0830352443 -1.1020214100 -1.0271672288
H   2.2897225170 -0.8804712068  0.2622040836
7
Iter 17 Image 7  Energy = -153.8957796364
C   0.8669757876  0.8458931256 -0.0371286450
H   0.6951680958  1.4029578868 -0.9648617278
O   0.5878986152  1.3366577132  1.0300524844
C   1.2920174224 -0.5772745646 -0.0183079398
H   0.8031172831 -0.5703420392  0.9975352199
H   1.0416423016 -1.1015252495 -0.9603514546
H   2.3144220383 -0.8460000623  0.2470010228
7
Iter 17 Image 8  Energy = -153.9216156358
C   0.8621802752  0.8737919169 -0.0283355576
H   0.7560827010  1.4004946161 -0.9907231026
O   0.5342911416  1.4265532479  0.9905076895
C   1.2998176656 -0.5563658697  0.0223010635
H   0.8174386618 -0.7620202052  0.9710567398
H   0.9766424538 -1.1174132584 -0.8603806384
H   2.3547886793 -0.7746736329  0.1895127449
7
Iter 17 Image 9  Energy = -153.9294635084
C   0.8334138201  0.8789896230 -0.0321549931
H   0.8545112280  1.3807141099 -1.0174176700
O   0.4090188288  1.4723426581  0.9244549268
C   1.3001237557 -0.5454585521  0.0667173121
H   0.9053931209 -0.8716760869  1.0186938853
H   0.9156904756 -1.1487248012 -0.7562079425
H   2.3830904448 -0.6758200844  0.0898533951
7
Iter 17 Image 10  Energy = -153.9311579157
C   0.8075151583  0.8729124634 -0.0359288494
H   0.9217482250  1.3606750805 -1.0232663520
O   0.2920044990  1.4704310425  0.8698323138
C   1.3038525382 -0.5394491389  0.0932179664
H   0.9933215040 -0.9001129373  1.0659043122
H   0.8922099460 -1.1730184122 -0.6930584972
H   2.3905897192 -0.6010712049  0.0172379142
7
Iter 17 Image 11  Energy = -153.9315568446
C   0.7840367852  0.8656586589 -0.0371164025
H   0.9809293880  1.3403901038 -1.0231241499
O   0.1875804579  1.4681235287  0.8223429327
C   1.3100769769 -0.5359012779  0.1153731248
H   1.0639489065 -0.9236344469  1.1059940899
H   0.8779311114 -1.1816924395 -0.6582837811
H   2.3967379442 -0.5425772870 -0.0312469938
7
Iter 18 Image 0  Energy = -153.9146221658
C   0.8260657415  0.5508603911 -0.1261794589
H   0.4554445983  1.2417513435 -0.8784317668
O   0.5680753083  1.0246514429  1.1187434847
C   1.4411098584 -0.5873603774 -0.4363613732
H   0.9099091373  0.3932317500  1.7666320721
H   1.5916834696 -0.8592929697 -1.4741885892
H   1.8089534565 -1.2734747403  0.3237244514
7
Iter 18 Image 1  Energy = -153.9071131621
C   0.8570720869  0.6021391888 -0.1393252180
H   0.5140052379  1.2859728903 -0.9051570347
O   0.6819386428  1.0356967289  1.1383653168
C   1.4391987230 -0.5613691869 -0.4046186545
H   0.7329851925  0.2138505026  1.6315479203
H   1.3615444804 -1.0062846511 -1.3793053587
H   2.0144972247 -1.0796385402  0.3524318768
7
Iter 18 Image 2  Energy = -153.8890708002
C   0.8628979871  0.6407679556 -0.1467194498
H   0.5719164505  1.3348964107 -0.9239134131
O   0.6861638059  1.0225228745  1.1395013801
C   1.3881667802 -0.5668132119 -0.3285826991
H   0.7361271927  0.1100391823  1.4432177732
H   1.2376206999 -1.0737302479 -1.2481429780
H   2.1183485976 -0.9773161638  0.3585783376
7
Iter 18 Image 3  Energy = -153.8568749196
C   0.8695607734  0.6777695211 -0.1347979148
H   0.6371775569  1.3774718213 -0.9278547801
O   0.6495557575  1.0188517813  1.1419075758
C   1.3419838017 -0.5732540851 -0.2339650529
H   0.7427736892  0.0143998338  1.2646161601
H   1.1441942575 -1.1094155537 -1.1341044336
H   2.2159956847 -0.9154564981  0.3181373741
7
Iter 18 Image 4  Energy = -153.8297759885
C   0.8728947877  0.7161495049 -0.1011232597
H   0.6754746939  1.3943021813 -0.9313419588
O   0.6096768390  1.0835222733  1.1216150556
C   1.3253224445 -0.5738083645 -0.1785072506
H   0.7485166912 -0.1101392298  1.1776978334
H   1.0972239631 -1.1267625870 -1.0703320395
H   2.2721321001 -0.8928969378  0.2759305576
7
Iter 18 Image 5  Energy = -153.8303085966
C   0.8646471469  0.7681195324 -0.0774384083
H   0.6713997177  1.3987545584 -0.9420297984
O   0.6079504731  1.1749086912  1.0787676624
C   1.3028861399 -0.5852241770 -0.1184265834
H   0.7788484113 -0.2552159477  1.1406495560
H   1.0993872613 -1.1178117091 -1.0588901129
H   2.2761223661 -0.8931641074  0.2713066426
7
Iter 18 Image 6  Energy = -153.8607767531
C   0.8634505740  0.8026083843 -0.0552164910
H   0.6723436021  1.4035379485 -0.9516703667
O   0.6091648824  1.2452720273  1.0526453563
C   1.2824677386 -0.5863571087 -0.0537432226
H   0.8026050953 -0.3882195663  1.0596364927
H   1.0857770341 -1.1079962452 -1.0266416411
H   2.2854325906 -0.8784786219  0.2689288517
7
Iter 18 Image 7  Energy = -153.8967319616
C   0.8666058878  0.8463243978 -0.0358581409
H   0.6865522064  1.4065424447 -0.9636414171
O   0.6026516237  1.3432067383  1.0316098394
C   1.2900377797 -0.5755707128 -0.0202717283
H   0.7972874841 -0.5794240598  0.9900647688
H   1.0480459286 -1.1038040202 -0.9641932680
H   2.3100606249 -0.8469079695  0.2562289172
7
Iter 18 Image 8  Energy = -153.9225509567
C   0.8619661399  0.8770806855 -0.0249108079
H   0.7471257862  1.4024049549 -0.9873697168
O   0.5532828710  1.4387484782  0.9935459736
C   1.2980337547 -0.5565508269  0.0206480954
H   0.8060275433 -0.7813832298  0.9591365671
H   0.9838638064 -1.1146841637 -0.8669071553
H   2.3509416680 -0.7752490878  0.1997959857
7
Iter 18 Image 9  Energy = -153.9298396107
C   0.8326660650  0.8819354370 -0.0286460444
H   0.8515313519  1.3802625295 -1.0165230303
O   0.4212079588  1.4854446988  0.9250387472
C   1.2970674693 -0.5458331700  0.0680285572
H   0.8996342465 -0.8916760869  1.0113346238
H   0.9187637084 -1.1457060111 -0.7604213441
H   2.3803708727 -0.6740605329  0.0951274123
7
Iter 18 Image 10  Energy = -153.9312656247
C   0.8084511387  0.8742865669 -0.0349288041
H   0.9206230268  1.3591177040 -1.0233959162
O   0.2961629985  1.4794231296  0.8702172385
C   1.3021433669 -0.5394419518  0.0947760078
H   0.9922780016 -0.9117627255  1.0627410756
H   0.8925608788 -1.1705447145 -0.6946404169
H   2.3890221809 -0.6007111135  0.0191696294
7
Iter 18 Image 11  Energy = -153.9315568446
C   0.7840367852  0.8656586589 -0.0371164025
H   0.9809293880  1.3403901038 -1.0231241499
O   0.1875804579  1.4681235287  0.8223429327
C   1.3100769769 -0.5359012779  0.1153731248
H   1.0639489065 -0.9236344469  1.1059940899
H   0.8779311114 -1.1816924395 -0.6582837811
H   2.3967379442 -0.5425772870 -0.0312469938
7
Iter 19 Image 0  Energy = -153.9146221658
C   0.8260657415  0.5508603911 -0.1261794589
H   0.4554445983  1.2417513435 -0.8784317668
O   0.5680753083  1.0246514429  1.1187434847
C   1.4411098584 -0.5873603774 -0.4363613732
H   0.9099091373  0.3932317500  1.7666320721
H   1.5916834696 -0.8592929697 -1.4741885892
H   1.8089534565 -1.2734747403  0.3237244514
7
Iter 19 Image 1  Energy = -153.9075593341
C   0.8555395563  0.6005475742 -0.1411361554
H   0.5065829999  1.2838309846 -0.9057334546
O   0.6896194170  1.0377309566  1.1371447818
C   1.4363382855 -0.5615534379 -0.4054652148
H   0.7384187179  0.2166926431  1.6322268196
H   1.3704012559 -1.0074567960 -1.3809656303
H   2.0043413485 -1.0794250075  0.3578677136
7
Iter 19 Image 2  Energy = -153.8895106729
C   0.8611885067  0.6428790894 -0.1501629456
H   0.5672192401  1.3365956445 -0.9251039289
O   0.6943396068  1.0218746271  1.1391904742
C   1.3864682334 -0.5658876209 -0.3312242283
H   0.7434001412  0.1085996769  1.4399782996
H   1.2416294580 -1.0808910952 -1.2462751928
H   2.1069963265 -0.9728035261  0.3675364726
7
Iter 19 Image 3  Energy = -153.8578312015
C   0.8700462907  0.6794924428 -0.1360195415
H   0.6351218710  1.3840078893 -0.9290056069
O   0.6548282250  1.0124205604  1.1421685831
C   1.3456583176 -0.5697742516 -0.2423142230
H   0.7419679889  0.0137124693  1.2667794217
H   1.1430887650 -1.1191232189 -1.1321654513
H   2.2105300608 -0.9103690644  0.3244957487
7
Iter 19 Image 4  Energy = -153.8305242094
C   0.8723980569  0.7166429328 -0.1042505331
H   0.6738475532  1.4001150035 -0.9304494605
O   0.6152400026  1.0770516381  1.1241530062
C   1.3265836078 -0.5720501463 -0.1841397307
H   0.7474766858 -0.1091269487  1.1751105265
H   1.0972975161 -1.1337972646 -1.0682428592
H   2.2683980938 -0.8884683688  0.2817579887
7
Iter 19 Image 5  Energy = -153.8308399117
C   0.8649251083  0.7689458769 -0.0764396595
H   0.6696184742  1.4052296835 -0.9426032266
O   0.6138329785  1.1726082951  1.0777246206
C   1.3015606259 -0.5825522976 -0.1201967957
H   0.7784917267 -0.2597146506  1.1352978151
H   1.0990543812 -1.1254848763 -1.0561904248
H   2.2737582171 -0.8886651950  0.2763466204
7
Iter 19 Image 6  Energy = -153.8620353327
C   0.8629241050  0.8072273415 -0.0562391781
H   0.6696068271  1.4082187675 -0.9515990075
O   0.6171440116  1.2462087122  1.0517039395
C   1.2818274738 -0.5872241411 -0.0563048775
H   0.8013709720 -0.3951272500  1.0552532383
H   1.0865468419 -1.1147708626 -1.0233126941
H   2.2818212767 -0.8741657350  0.2744375530
7
Iter 19 Image 7  Energy = -153.8977167604
C   0.8676952222  0.8485087295 -0.0368048992
H   0.6786883130  1.4095733770 -0.9624818392
O   0.6167668011  1.3480143318  1.0333339467
C   1.2885591673 -0.5752039535 -0.0224693764
H   0.7906971641 -0.5878202838  0.9840097223
H   1.0530193989 -1.1071204830 -0.9657414595
H   2.3058154629 -0.8455848949  0.2640928881
7
Iter 19 Image 8  Energy = -153.9234065387
C   0.8637874004  0.8793718573 -0.0220954156
H   0.7373447283  1.4039013977 -0.9847000527
O   0.5732828710  1.4500711797  0.9976980542
C   1.2951485167 -0.5564794509  0.0195082768
H   0.7932509943 -0.8001036241  0.9473762296
H   0.9914174899 -1.1117301621 -0.8737355932
H   2.3470095597 -0.7746643878  0.2098874467
7
Iter 19 Image 9  Energy = -153.9301731185
C   0.8333888742  0.8841602042 -0.0264005966
H   0.8482320695  1.3788621854 -1.0157702819
O   0.4339152417  1.4987539858  0.9274796059
C   1.2934717605 -0.5465418150  0.0693046394
H   0.8927973695 -0.9115993784  1.0043222272
H   0.9221588588 -1.1417796768 -0.7654315837
H   2.3772774969 -0.6714886429  0.1004349185
7
Iter 19 Image 10  Energy = -153.9313495499
C   0.8084772823  0.8766327263 -0.0321024036
H   0.9197893815  1.3569989624 -1.0238127266
O   0.3015870775  1.4871218045  0.8693174412
C   1.3003187253 -0.5396676496  0.0962310226
H   0.9908735249 -0.9233260879  1.0600223007
H   0.8929228775 -1.1675540608 -0.6966928880
H   2.3872727256 -0.5998387985  0.0209760752
7
Iter 19 Image 11  Energy = -153.9315568446
C   0.7840367852  0.8656586589 -0.0371164025
H   0.9809293880  1.3403901038 -1.0231241499
O   0.1875804579  1.4681235287  0.8223429327
C   1.3100769769 -0.5359012779  0.1153731248
H   1.0639489065 -0.9236344469  1.1059940899
H   0.8779311114 -1.1816924395 -0.6582837811
H   2.3967379442 -0.5425772870 -0.0312469938
7
Iter 20 Image 0  Energy = -153.9146221658
C   0.8260657415  0.5508603911 -0.1261794589
H   0.4554445983  1.2417513435 -0.8784317668
O   0.5680753083  1.0246514429  1.1187434847
C   1.4411098584 -0.5873603774 -0.4363613732
H   0.9099091373  0.3932317500  1.7666320721
H   1.5916834696 -0.8592929697 -1.4741885892
H   1.8089534565 -1.2734747403  0.3237244514
7
Iter 20 Image 1  Energy = -153.9079527562
C   0.8546710030  0.6008389872 -0.1432204716
H   0.4995994700  1.2817939586 -0.9061765840
O   0.6961188296  1.0390516160  1.1358596319
C   1.4337545990 -0.5631402500 -0.4063965957
H   0.7442365623  0.2198458056  1.6330593041
H   1.3784889449 -1.0090140229 -1.3821519986
H   1.9943721667 -1.0790091923  0.3629655814
7
Iter 20 Image 2  Energy = -153.8899361694
C   0.8621905675  0.6446788162 -0.1529436667
H   0.5630036902  1.3396616556 -0.9265079532
O   0.7008745174  1.0200201581  1.1382038885
C   1.3853187710 -0.5640086528 -0.3348303917
H   0.7495394692  0.1066578252  1.4384649480
H   1.2437290145 -1.0892236226 -1.2442549739
H   2.0965854842 -0.9674193896  0.3758070992
7
Iter 20 Image 3  Energy = -153.8587632764
C   0.8719753995  0.6821828756 -0.1403496894
H   0.6331490746  1.3896943886 -0.9284816461
O   0.6591758975  1.0067032501  1.1432249278
C   1.3495737805 -0.5669457727 -0.2494472062
H   0.7403645035  0.0120671790  1.2703671178
H   1.1416739752 -1.1284441704 -1.1313802508
H   2.2053288847 -0.9048909080  0.3300056725
7
Iter 20 Image 4  Energy = -153.8312359229
C   0.8733532185  0.7165538812 -0.1074719900
H   0.6717333207  1.4052669274 -0.9288277498
O   0.6204660987  1.0707396024  1.1263882094
C   1.3274593038 -0.5701861352 -0.1886531810
H   0.7461862726 -0.1079257929  1.1719768775
H   1.0970280388 -1.1403287736 -1.0667686055
H   2.2650152582 -0.8837528621  0.2872953833
7
Iter 20 Image 5  Energy = -153.8313742886
C   0.8665262844  0.7709135552 -0.0793754620
H   0.6682606445  1.4106921725 -0.9416918355
O   0.6183034047  1.1708495335  1.0791003041
C   1.3013168185 -0.5814880367 -0.1217193935
H   0.7774609433 -0.2646860691  1.1300490412
H   1.0976081819 -1.1327956734 -1.0529669899
H   2.2717652337 -0.8831186401  0.2805432795
7
Iter 20 Image 6  Energy = -153.8633942226
C   0.8651365066  0.8086427951 -0.0579491529
H   0.6677911262  1.4137768789 -0.9522566127
O   0.6228578864  1.2464894701  1.0520164772
C   1.2802686897 -0.5857015267 -0.0572456320
H   0.7997033627 -0.4017731452  1.0502513775
H   1.0851430003 -1.1227047726 -1.0193078285
H   2.2803409297 -0.8683628628  0.2784303439
7
Iter 20 Image 7  Energy = -153.8986985348
C   0.8697344356  0.8523281113 -0.0384097108
H   0.6726639048  1.4120974047 -0.9615661428
O   0.6289810923  1.3502300373  1.0338408822
C   1.2878605301 -0.5759965431 -0.0245199005
H   0.7841442282 -0.5948778101  0.9794564846
H   1.0556766488 -1.1115548153 -0.9646572724
H   2.3021806798 -0.8418595494  0.2697946560
7
Iter 20 Image 8  Energy = -153.9241466577
C   0.8666297220  0.8818884543 -0.0189868637
H   0.7277412896  1.4045782061 -0.9825872053
O   0.5932828710  1.4587598023  1.0011411193
C   1.2920797796 -0.5564833354  0.0189792247
H   0.7800815938 -0.8167367853  0.9366544502
H   0.9985273825 -1.1088890501 -0.8801998935
H   2.3428989115 -0.7727504814  0.2189381227
7
Iter 20 Image 9  Energy = -153.9304331642
C   0.8342342705  0.8870388646 -0.0223362033
H   0.8449454918  1.3766222975 -1.0154726596
O   0.4474591133  1.5094272612  0.9287631410
C   1.2895908678 -0.5473848358  0.0707518370
H   0.8854550612 -0.9297684290  0.9979067498
H   0.9255441065 -1.1373296779 -0.7710568014
H   2.3740127572 -0.6682386181  0.1053828707
7
Iter 20 Image 10  Energy = -153.9314177462
C   0.8093709014  0.8776665049 -0.0309646480
H   0.9192589669  1.3543327578 -1.0242064290
O   0.3063471118  1.4948768599  0.8702225113
C   1.2983105978 -0.5399300337  0.0978046352
H   0.9892121176 -0.9338426969  1.0577425326
H   0.8932329013 -1.1642311792 -0.6992236217
H   2.3855089999 -0.5985053167  0.0225638484
7
Iter 20 Image 11  Energy = -153.9315568446
C   0.7840367852  0.8656586589 -0.0371164025
H   0.9809293880  1.3403901038 -1.0231241499
O   0.1875804579  1.4681235287  0.8223429327
C   1.3100769769 -0.5359012779  0.1153731248
H   1.0639489065 -0.9236344469  1.1059940899
H   0.8779311114 -1.1816924395 -0.6582837811
H   2.3967379442 -0.5425772870 -0.0312469938
7
Iter 21 Image 0  Energy = -153.9146221658
C   0.8260657415  0.5508603911 -0.1261794589
H   0.4554445983  1.2417513435 -0.8784317668
O   0.5680753083  1.0246514429  1.1187434847
C   1.4411098584 -0.5873603774 -0.4363613732
H   0.9099091373  0.3932317500  1.7666320721
H   1.5916834696 -0.8592929697 -1.4741885892
H   1.8089534565 -1.2734747403  0.3237244514
7
Iter 21 Image 1  Energy = -153.9083194364
C   0.8553301842  0.6002822253 -0.1450769369
H   0.4928017356  1.2804814321 -0.9069109547
O   0.7014099016  1.0408599789  1.1337003592
C   1.4305175511 -0.5638229679 -0.4073960060
H   0.7507871844  0.2225469781  1.6345830832
H   1.3858797245 -1.0113337896 -1.3831842453
H   1.9845152853 -1.0786469668  0.3682235714
7
Iter 21 Image 2  Energy = -153.8903770565
C   0.8649825971  0.6465247940 -0.1566363721
H   0.5595345228  1.3435406579 -0.9270280374
O   0.7061585737  1.0174622692  1.1368876321
C   1.3853031719 -0.5612059969 -0.3384640478
H   0.7544763838  0.1042363228  1.4389606025
H   1.2441409439 -1.0989705942 -1.2430391984
H   2.0866453253 -0.9612206666  0.3832583782
7
Iter 21 Image 3  Energy = -153.8596595652
C   0.8761783586  0.6818159606 -0.1440360876
H   0.6307505296  1.3955831448 -0.9274350483
O   0.6629910137  1.0022308976  1.1438912422
C   1.3514017860 -0.5629540204 -0.2574614996
H   0.7381197161  0.0100782913  1.2744052680
H   1.1406001866 -1.1368768932 -1.1309520208
H   2.2011999195 -0.8995105333  0.3355270773
7
Iter 21 Image 4  Energy = -153.8319387060
C   0.8754789371  0.7156492648 -0.1098448531
H   0.6689895936  1.4098871629 -0.9266824108
O   0.6256276610  1.0648591015  1.1281685345
C   1.3279260817 -0.5686249883 -0.1931664448
H   0.7445303178 -0.1062177985  1.1680932051
H   1.0966689668 -1.1462504591 -1.0655394515
H   2.2620199520 -0.8789354346  0.2929103785
7
Iter 21 Image 5  Energy = -153.8318330118
C   0.8686638348  0.7737517741 -0.0800702445
H   0.6668390097  1.4157583178 -0.9402248371
O   0.6228181955  1.1675485952  1.0786417455
C   1.3011626890 -0.5814799741 -0.1241670507
H   0.7757121102 -0.2688555605  1.1242260865
H   1.0955980511 -1.1394709943 -1.0489730038
H   2.2704476141 -0.8768853326  0.2845062548
7
Iter 21 Image 6  Energy = -153.8647848550
C   0.8674954858  0.8120661272 -0.0590984048
H   0.6671561845  1.4188108524 -0.9517589970
O   0.6276033662  1.2448915265  1.0510516103
C   1.2798744314 -0.5851686002 -0.0584219306
H   0.7973089132 -0.4082510042  1.0450655402
H   1.0820476651 -1.1308756379 -1.0141743867
H   2.2797554556 -0.8611064282  0.2812755278
7
Iter 21 Image 7  Energy = -153.8997601921
C   0.8740019596  0.8518185161 -0.0393101373
H   0.6684199564  1.4160773897 -0.9626917182
O   0.6385894960  1.3515578599  1.0344486168
C   1.2849649704 -0.5737352019 -0.0246684194
H   0.7785022261 -0.6010403683  0.9743985153
H   1.0555688034 -1.1182188592 -0.9618852408
H   2.3011941022 -0.8360924953  0.2736473877
7
Iter 21 Image 8  Energy = -153.9248290272
C   0.8701056145  0.8849165627 -0.0177113088
H   0.7186311170  1.4039993683 -0.9802724501
O   0.6132828710  1.4661202163  1.0054082926
C   1.2892788737 -0.5577412953  0.0176949060
H   0.7663273319 -0.8318842455  0.9270098616
H   1.0052833444 -1.1057853804 -0.8853932688
H   2.3383323894 -0.7692584160  0.2272029314
7
Iter 21 Image 9  Energy = -153.9306668070
C   0.8363512691  0.8881796968 -0.0202252927
H   0.8417033391  1.3732752181 -1.0152435095
O   0.4609119397  1.5202223823  0.9324684615
C   1.2854040674 -0.5482561508  0.0721020371
H   0.8774785720 -0.9467615263  0.9918907988
H   0.9290189725 -1.1320780769 -0.7772795507
H   2.3703735042 -0.6642146859  0.1102259921
7
Iter 21 Image 10  Energy = -153.9314649281
C   0.8094002265  0.8793067074 -0.0281733726
H   0.9190883830  1.3510931142 -1.0247922406
O   0.3121798740  1.5009880896  0.8700825404
C   1.2962527646 -0.5403701493  0.0990989580
H   0.9871967739 -0.9434757651  1.0559027587
H   0.8935436795 -1.1604814868 -0.7022100532
H   2.3835798974 -0.5966936110  0.0240302433
7
Iter 21 Image 11  Energy = -153.9315568446
C   0.7840367852  0.8656586589 -0.0371164025
H   0.9809293880  1.3403901038 -1.0231241499
O   0.1875804579  1.4681235287  0.8223429327
C   1.3100769769 -0.5359012779  0.1153731248
H   1.0639489065 -0.9236344469  1.1059940899
H   0.8779311114 -1.1816924395 -0.6582837811
H   2.3967379442 -0.5425772870 -0.0312469938
7
Iter 22 Image 0  Energy = -153.9146221658
C   0.8260657415  0.5508603911 -0.1261794589
H   0.4554445983  1.2417513435 -0.8784317668
O   0.5680753083  1.0246514429  1.1187434847
C   1.4411098584 -0.5873603774 -0.4363613732
H   0.9099091373  0.3932317500  1.7666320721
H   1.5916834696 -0.8592929697 -1.4741885892
H   1.8089534565 -1.2734747403  0.3237244514
7
Iter 22 Image 1  Energy = -153.9086467946
C   0.8564525200  0.6008875038 -0.1472322203
H   0.4863715954  1.2792529347 -0.9075067618
O   0.7058380191  1.0421269234  1.1315343770
C   1.4274784540 -0.5653098018 -0.4083266915
H   0.7576613566  0.2255732582  1.6362373859
H   1.3926981199 -1.0140054322 -1.3839881916
H   1.9747414936 -1.0781585098  0.3732209771
7
Iter 22 Image 2  Energy = -153.8907789383
C   0.8690151811  0.6494266243 -0.1603629008
H   0.5565634028  1.3479257709 -0.9272412129
O   0.7103518381  1.0142986074  1.1353369824
C   1.3860181422 -0.5590132564 -0.3432863799
H   0.7585637738  0.1013840291  1.4406714296
H   1.2433745544 -1.1091600445 -1.2413586650
H   2.0773546302 -0.9544949450  0.3901797074
7
Iter 22 Image 3  Energy = -153.8605835736
C   0.8804475694  0.6838385991 -0.1471525500
H   0.6282923597  1.4010435808 -0.9257728501
O   0.6665455086  0.9972639103  1.1437380748
C   1.3545497403 -0.5615112849 -0.2652998518
H   0.7352517462  0.0083199012  1.2790879713
H   1.1393878850 -1.1448446977 -1.1309309743
H   2.1967666964 -0.8937431556  0.3402691215
7
Iter 22 Image 4  Energy = -153.8329495266
C   0.8779847527  0.7160059613 -0.1127978375
H   0.6636641848  1.4133094131 -0.9245986254
O   0.6325916675  1.0598606998  1.1284152115
C   1.3288473778 -0.5683097281 -0.1980884350
H   0.7435944501 -0.1046814018  1.1680798977
H   1.0985490510 -1.1508431232 -1.0674301139
H   2.2560100244 -0.8749749739  0.3003588725
7
Iter 22 Image 5  Energy = -153.8321907621
C   0.8718207259  0.7763754616 -0.0812256529
H   0.6652852398  1.4208489099 -0.9385225703
O   0.6260876388  1.1649478778  1.0779073319
C   1.3008193484 -0.5813916862 -0.1266298541
H   0.7738494027 -0.2728814350  1.1212645843
H   1.0937857493 -1.1463938934 -1.0465664465
H   2.2695933933 -0.8711384239  0.2877115627
7
Iter 22 Image 6  Energy = -153.8662103192
C   0.8710707588  0.8152528529 -0.0611236716
H   0.6672035203  1.4238638104 -0.9512329683
O   0.6310524898  1.2427932988  1.0508373301
C   1.2796523365 -0.5848203948 -0.0596136997
H   0.7944723805 -0.4147501028  1.0398269856
H   1.0776611755 -1.1392189505 -1.0078929468
H   2.2801288407 -0.8527536807  0.2831379173
7
Iter 22 Image 7  Energy = -153.9007944782
C   0.8785608082  0.8532036300 -0.0410486386
H   0.6656732216  1.4195067160 -0.9636440498
O   0.6467662926  1.3510719650  1.0343343840
C   1.2830712521 -0.5728919363 -0.0249958125
H   0.7728462864 -0.6064028454  0.9705646279
H   1.0538249554 -1.1255165011 -0.9571851486
H   2.3004986925 -0.8286041855  0.2759136464
7
Iter 22 Image 8  Energy = -153.9254319201
C   0.8743455632  0.8875448783 -0.0156415311
H   0.7097003951  1.4030721282 -0.9786485204
O   0.6332828710  1.4716631978  1.0089222501
C   1.2858776675 -0.5586325212  0.0170110200
H   0.7524791087 -0.8454939317  0.9179356185
H   1.0116052863 -1.1029680953 -0.8903850987
H   2.3339506408 -0.7648188449  0.2347452347
7
Iter 22 Image 9  Energy = -153.9308584565
C   0.8384848900  0.8899300298 -0.0168487382
H   0.8384982066  1.3692474803 -1.0152640516
O   0.4750090506  1.5291328948  0.9353447402
C   1.2810534441 -0.5493553586  0.0734002949
H   0.8691192373 -0.9625218572  0.9863409945
H   0.9325088618 -1.1263874368 -0.7838798799
H   2.3665679691 -0.6596789001  0.1148455803
7
Iter 22 Image 10  Energy = -153.9315084234
C   0.8099901149  0.8800675215 -0.0264493031
H   0.9191363763  1.3474496420 -1.0253646267
O   0.3176260638  1.5070877290  0.8711419187
C   1.2940833096 -0.5408426108  0.1003985073
H   0.9849686290 -0.9523613214  1.0543939482
H   0.8938225134 -1.1564897100 -0.7055413591
H   2.3816145939 -0.5945443483  0.0253597549
7
Iter 22 Image 11  Energy = -153.9315568446
C   0.7840367852  0.8656586589 -0.0371164025
H   0.9809293880  1.3403901038 -1.0231241499
O   0.1875804579  1.4681235287  0.8223429327
C   1.3100769769 -0.5359012779  0.1153731248
H   1.0639489065 -0.9236344469  1.1059940899
H   0.8779311114 -1.1816924395 -0.6582837811
H   2.3967379442 -0.5425772870 -0.0312469938
7
Iter 23 Image 0  Energy = -153.9146221658
C   0.8260657415  0.5508603911 -0.1261794589
H   0.4554445983  1.2417513435 -0.8784317668
O   0.5680753083  1.0246514429  1.1187434847
C   1.4411098584 -0.5873603774 -0.4363613732
H   0.9099091373  0.3932317500  1.7666320721
H   1.5916834696 -0.8592929697 -1.4741885892
H   1.8089534565 -1.2734747403  0.3237244514
7
Iter 23 Image 1  Energy = -153.9089724962
C   0.8573608163  0.6014952032 -0.1502531982
H   0.4809186568  1.2784823478 -0.9076804700
O   0.7088799926  1.0431339322  1.1293302422
C   1.4252464493 -0.5667447101 -0.4097409105
H   0.7661321876  0.2298398863  1.6386260159
H   1.3986301601 -1.0179594778 -1.3848098868
H   1.9640732849 -1.0778803158  0.3784670885
7
Iter 23 Image 2  Energy = -153.8912222285
C   0.8734112988  0.6522675067 -0.1636064087
H   0.5547980859  1.3533110891 -0.9255499265
O   0.7137630224  1.0109353648  1.1333927462
C   1.3885738836 -0.5582501681 -0.3511515438
H   0.7604041580  0.0991863984  1.4443923691
H   1.2414515354 -1.1195667370 -1.2397051439
H   2.0688395280 -0.9475166716  0.3961668749
7
Iter 23 Image 3  Energy = -153.8617318711
C   0.8846740658  0.6851227257 -0.1505788548
H   0.6241055981  1.4047547588 -0.9229620865
O   0.6717277363  0.9947961477  1.1430229962
C   1.3572417736 -0.5603975839 -0.2709596574
H   0.7327406062  0.0064646535  1.2841256550
H   1.1404351521 -1.1513417653 -1.1343113431
H   2.1903165640 -0.8890320861  0.3456022367
7
Iter 23 Image 4  Energy = -153.8336163090
C   0.8832837386  0.7131055464 -0.1168406294
H   0.6581638965  1.4166691409 -0.9230476613
O   0.6382747258  1.0573284581  1.1302723137
C   1.3255811548 -0.5646240245 -0.2023702672
H   0.7429340687 -0.1049271724  1.1676588474
H   1.1006970715 -1.1555370013 -1.0692614295
H   2.2523068533 -0.8716480964  0.3075277706
7
Iter 23 Image 5  Energy = -153.8323088647
C   0.8758896461  0.7744404133 -0.0842651305
H   0.6615700357  1.4255629785 -0.9362302327
O   0.6297815877  1.1650048333  1.0800725626
C   1.2992306685 -0.5806827608 -0.1273908805
H   0.7729328424 -0.2755393541  1.1177611417
H   1.0948096359 -1.1512070322 -1.0479605850
H   2.2670270925 -0.8672122816  0.2919521080
7
Iter 23 Image 6  Energy = -153.8674644632
C   0.8753088449  0.8167220807 -0.0624951370
H   0.6672760956  1.4294996660 -0.9499442549
O   0.6329699931  1.2420008012  1.0509569051
C   1.2785991706 -0.5839299382 -0.0621876233
H   0.7913911819 -0.4218102650  1.0361639228
H   1.0738847517 -1.1468422397 -1.0031149643
H   2.2818114527 -0.8452732570  0.2845600965
7
Iter 23 Image 7  Energy = -153.9021426563
C   0.8813425015  0.8578769101 -0.0451572950
H   0.6677499887  1.4225619662 -0.9629282841
O   0.6507004985  1.3497778337  1.0346340409
C   1.2832165054 -0.5755006632 -0.0265646632
H   0.7686062706 -0.6122388374  0.9668329606
H   1.0483276918 -1.1341373296 -0.9484267563
H   2.3012980361 -0.8179730049  0.2755489927
7
Iter 23 Image 8  Energy = -153.9259985658
C   0.8790243079  0.8872206147 -0.0149887420
H   0.7022655954  1.4014854471 -0.9775136125
O   0.6532828710  1.4773948854  1.0136624588
C   1.2808600743 -0.5586823177  0.0170422027
H   0.7391576790 -0.8577766985  0.9082197275
H   1.0164665841 -1.1012392244 -0.8939840542
H   2.3301844158 -0.7580358974  0.2415010098
7
Iter 23 Image 9  Energy = -153.9310024078
C   0.8411802678  0.8902852268 -0.0149587308
H   0.8356517375  1.3632589253 -1.0148591232
O   0.4900256999  1.5380805613  0.9404797207
C   1.2760211398 -0.5509127907  0.0740567655
H   0.8600142422 -0.9772148319  0.9804550266
H   0.9362769483 -1.1191634709 -0.7910793988
H   2.3620716133 -0.6539667747  0.1198446753
7
Iter 23 Image 10  Energy = -153.9315390988
C   0.8101360422  0.8806427013 -0.0239792488
H   0.9196158122  1.3427573885 -1.0258011312
O   0.3242698596  1.5122445507  0.8722946171
C   1.2916463248 -0.5415600278  0.1012739360
H   0.9821217763 -0.9602096922  1.0529631141
H   0.8941456869 -1.1517659998 -0.7096214421
H   2.3793061050 -0.5917420242  0.0268089847
7
Iter 23 Image 11  Energy = -153.9315568446
C   0.7840367852  0.8656586589 -0.0371164025
H   0.9809293880  1.3403901038 -1.0231241499
O   0.1875804579  1.4681235287  0.8223429327
C   1.3100769769 -0.5359012779  0.1153731248
H   1.0639489065 -0.9236344469  1.1059940899
H   0.8779311114 -1.1816924395 -0.6582837811
H   2.3967379442 -0.5425772870 -0.0312469938
7
Iter 24 Image 0  Energy = -153.9146221658
C   0.8260657415  0.5508603911 -0.1261794589
H   0.4554445983  1.2417513435 -0.8784317668
O   0.5680753083  1.0246514429  1.1187434847
C   1.4411098584 -0.5873603774 -0.4363613732
H   0.9099091373  0.3932317500  1.7666320721
H   1.5916834696 -0.8592929697 -1.4741885892
H   1.8089534565 -1.2734747403  0.3237244514
7
Iter 24 Image 1  Energy = -153.9092687974
C   0.8595515854  0.6025549856 -0.1529748089
H   0.4758757249  1.2783038578 -0.9079940115
O   0.7104443727  1.0440876075  1.1262797876
C   1.4228102925 -0.5684815700 -0.4112963225
H   0.7753693159  0.2341213234  1.6417444805
H   1.4037069241 -1.0226121260 -1.3853613732
H   1.9534833186 -1.0776072240  0.3835411361
7
Iter 24 Image 2  Energy = -153.8916026343
C   0.8804313611  0.6542660838 -0.1676456497
H   0.5535511581  1.3594808034 -0.9231977033
O   0.7157044811  1.0073257462  1.1311414806
C   1.3915216710 -0.5556003083 -0.3580868434
H   0.7609586726  0.0963246320  1.4501869520
H   1.2380767201 -1.1312070306 -1.2394573653
H   2.0609974409 -0.9402231482  0.4009981032
7
Iter 24 Image 3  Energy = -153.8629420794
C   0.8905849670  0.6863570897 -0.1528119901
H   0.6193402651  1.4080528449 -0.9198099799
O   0.6762958751  0.9925770838  1.1417044001
C   1.3579627696 -0.5607172801 -0.2781414045
H   0.7298972814  0.0051911859  1.2897754086
H   1.1424283361 -1.1562539868 -1.1376317426
H   2.1847319930 -0.8848400882  0.3508542595
7
Iter 24 Image 4  Energy = -153.8345543733
C   0.8865989313  0.7167903862 -0.1185448185
H   0.6515943008  1.4182587305 -0.9203703073
O   0.6450250819  1.0542017797  1.1293466235
C   1.3267434178 -0.5683248172 -0.2071522465
H   0.7420138049 -0.1037454475  1.1686393082
H   1.1038059059 -1.1585664106 -1.0721988442
H   2.2454600680 -0.8682473808  0.3142192203
7
Iter 24 Image 5  Energy = -153.8323841963
C   0.8801360026  0.7761804705 -0.0845367241
H   0.6574126843  1.4288736309 -0.9333155483
O   0.6339556975  1.1626785807  1.0787351119
C   1.2977551726 -0.5817604828 -0.1291771269
H   0.7714409034 -0.2774877848  1.1155418203
H   1.0961232392 -1.1548883512 -1.0492394459
H   2.2644178220 -0.8632292836  0.2959309231
7
Iter 24 Image 6  Energy = -153.8687079929
C   0.8804863677  0.8188618740 -0.0646483406
H   0.6677864868  1.4345175182 -0.9481280782
O   0.6337106238  1.2398996229  1.0515160719
C   1.2787144138 -0.5838285037 -0.0628254854
H   0.7882855425 -0.4281915066  1.0316517673
H   1.0692588369 -1.1541700441 -0.9982836639
H   2.2829992167 -0.8367221159  0.2846566787
7
Iter 24 Image 7  Energy = -153.9033910707
C   0.8863315512  0.8599294093 -0.0469078558
H   0.6714962609  1.4267749838 -0.9640682313
O   0.6518349625  1.3462240285  1.0331643785
C   1.2821892922 -0.5750051879 -0.0268017563
H   0.7650266750 -0.6173590085  0.9641390552
H   1.0403933645 -1.1447254157 -0.9385580742
H   2.3039693741 -0.8054719092  0.2729714642
7
Iter 24 Image 8  Energy = -153.9265369955
C   0.8839064417  0.8894523871 -0.0119266224
H   0.6957857949  1.3988082306 -0.9768455728
O   0.6732828710  1.4793056356  1.0153466936
C   1.2764993245 -0.5593965774  0.0166825237
H   0.7255153714 -0.8685940450  0.9002159460
H   1.0203254912 -1.0999704937 -0.8964596131
H   2.3259262277 -0.7492383253  0.2469256520
7
Iter 24 Image 9  Energy = -153.9311718912
C   0.8435366245  0.8921543576 -0.0094785838
H   0.8330048158  1.3562658375 -1.0151039330
O   0.5064217425  1.5434851321  0.9431273227
C   1.2707745452 -0.5522651606  0.0746953133
H   0.8503366571 -0.9903982533  0.9753104684
H   0.9399111835 -1.1115599787 -0.7991807197
H   2.3572560680 -0.6473150964  0.1245690595
7
Iter 24 Image 10  Energy = -153.9315811397
C   0.8110474101  0.8800068640 -0.0229311296
H   0.9204527442  1.3374071707 -1.0262224075
O   0.3305230341  1.5173649271  0.8751804630
C   1.2889725151 -0.5422468511  0.1021727107
H   0.9789055003 -0.9670302007  1.0520051621
H   0.8943888983 -1.1467543366 -0.7143711258
H   2.3769515101 -0.5883806811  0.0281051460
7
Iter 24 Image 11  Energy = -153.9315568446
C   0.7840367852  0.8656586589 -0.0371164025
H   0.9809293880  1.3403901038 -1.0231241499
O   0.1875804579  1.4681235287  0.8223429327
C   1.3100769769 -0.5359012779  0.1153731248
H   1.0639489065 -0.9236344469  1.1059940899
H   0.8779311114 -1.1816924395 -0.6582837811
H   2.3967379442 -0.5425772870 -0.0312469938
7
Iter 25 Image 0  Energy = -153.9146221658
C   0.8260657415  0.5508603911 -0.1261794589
H   0.4554445983  1.2417513435 -0.8784317668
O   0.5680753083  1.0246514429  1.1187434847
C   1.4411098584 -0.5873603774 -0.4363613732
H   0.9099091373  0.3932317500  1.7666320721
H   1.5916834696 -0.8592929697 -1.4741885892
H   1.8089534565 -1.2734747403  0.3237244514
7
Iter 25 Image 1  Energy = -153.9095611569
C   0.8620470314  0.6035749097 -0.1554258576
H   0.4725168118  1.2794144026 -0.9081526249
O   0.7092384927  1.0451776398  1.1219145163
C   1.4214013288 -0.5704378593 -0.4138343291
H   0.7869310554  0.2395991632  1.6466452789
H   1.4069723375 -1.0290945953 -1.3858110557
H   1.9421344626 -1.0778668250  0.3886029713
7
Iter 25 Image 2  Energy = -153.8919914496
C   0.8883189563  0.6566770888 -0.1708599252
H   0.5537090093  1.3664424449 -0.9183041464
O   0.7161599290  1.0037412464  1.1282915923
C   1.3964624561 -0.5547245721 -0.3673723370
H   0.7582105682  0.0944165147  1.4591307580
H   1.2336360893 -1.1423604262 -1.2407779505
H   2.0547444824 -0.9338255124  0.4038309818
7
Iter 25 Image 3  Energy = -153.8644019363
C   0.8950140813  0.6900083259 -0.1532457011
H   0.6129515561  1.4083341450 -0.9153097193
O   0.6820738087  0.9913814979  1.1395382768
C   1.3576602110 -0.5661423159 -0.2831982207
H   0.7280740820  0.0070584472  1.2943783872
H   1.1481221728 -1.1575808831 -1.1437307532
H   2.1773455717 -0.8826923682  0.3555066763
7
Iter 25 Image 4  Energy = -153.8353809733
C   0.8913243270  0.7163728628 -0.1201171967
H   0.6421640029  1.4182737172 -0.9173630028
O   0.6530939202  1.0545758125  1.1271464156
C   1.3250707763 -0.5686841237 -0.2064708283
H   0.7428114932 -0.1029858816  1.1707178516
H   1.1106649507 -1.1595593028 -1.0813498839
H   2.2361120440 -0.8676262637  0.3213755807
7
Iter 25 Image 5  Energy = -153.8322229949
C   0.8839178243  0.7803159052 -0.0858810645
H   0.6501860904  1.4286760959 -0.9288732216
O   0.6397594634  1.1624499487  1.0775302491
C   1.2947888923 -0.5857499510 -0.1321871608
H   0.7704933930 -0.2783384307  1.1166923884
H   1.1025992540 -1.1540610130 -1.0548150072
H   2.2594966270 -0.8629257875  0.3014728463
7
Iter 25 Image 6  Energy = -153.8698648697
C   0.8851824517  0.8215119809 -0.0638531597
H   0.6670708002  1.4379417041 -0.9450635099
O   0.6344184443  1.2373425993  1.0506226528
C   1.2775276203 -0.5849299687 -0.0622615026
H   0.7863903899 -0.4337432579  1.0257040455
H   1.0675186286 -1.1576341553 -0.9961134584
H   2.2831331626 -0.8301220849  0.2849039083
7
Iter 25 Image 7  Energy = -153.9047060982
C   0.8914731568  0.8601492194 -0.0480402901
H   0.6805296547  1.4324058872 -0.9656352420
O   0.6457129129  1.3415435035  1.0316183983
C   1.2811485921 -0.5734759805 -0.0258962729
H   0.7647706501 -0.6227229325  0.9620526642
H   1.0287174710 -1.1570820357 -0.9265154308
H   2.3088890326 -0.7904507358  0.2663551268
7
Iter 25 Image 8  Energy = -153.9270057152
C   0.8885464762  0.8904930074 -0.0121504232
H   0.6931691115  1.3944014233 -0.9765687848
O   0.6912875284  1.4805750593  1.0185169461
C   1.2721728601 -0.5606271508  0.0161057160
H   0.7133037260 -0.8776189819  0.8939111149
H   1.0210915843 -1.1005654535 -0.8957968885
H   2.3216702309 -0.7362910844  0.2499213450
7
Iter 25 Image 9  Energy = -153.9312751054
C   0.8467929299  0.8910667038 -0.0059812475
H   0.8311660816  1.3467946604 -1.0152566846
O   0.5234801304  1.5485681243  0.9491612843
C   1.2647712199 -0.5532314575  0.0748738214
H   0.8399530781 -1.0012615667  0.9702738323
H   0.9434471403 -1.1026181781 -0.8087048765
H   2.3516310440 -0.6389514596  0.1295727863
7
Iter 25 Image 10  Energy = -153.9316001576
C   0.8109631324  0.8795826743 -0.0200475148
H   0.9219872403  1.3307438496 -1.0266100143
O   0.3387113388  1.5201816798  0.8776331679
C   1.2859727486 -0.5431881842  0.1024036285
H   0.9747458384 -0.9717920332  1.0513847350
H   0.8946136164 -1.1410871561 -0.7203441937
H   2.3742477056 -0.5840739472  0.0295189933
7
Iter 25 Image 11  Energy = -153.9315568446
C   0.7840367852  0.8656586589 -0.0371164025
H   0.9809293880  1.3403901038 -1.0231241499
O   0.1875804579  1.4681235287  0.8223429327
C   1.3100769769 -0.5359012779  0.1153731248
H   1.0639489065 -0.9236344469  1.1059940899
H   0.8779311114 -1.1816924395 -0.6582837811
H   2.3967379442 -0.5425772870 -0.0312469938
7
Iter 26 Image 0  Energy = -153.9146221658
C   0.8260657415  0.5508603911 -0.1261794589
H   0.4554445983  1.2417513435 -0.8784317668
O   0.5680753083  1.0246514429  1.1187434847
C   1.4411098584 -0.5873603774 -0.4363613732
H   0.9099091373  0.3932317500  1.7666320721
H   1.5916834696 -0.8592929697 -1.4741885892
H   1.8089534565 -1.2734747403  0.3237244514
7
Iter 26 Image 1  Energy = -153.9098194606
C   0.8636951438  0.6030713634 -0.1584390955
H   0.4721728282  1.2815280115 -0.9078061781
O   0.7055934236  1.0452954545  1.1188024661
C   1.4214178494 -0.5710897352 -0.4163591736
H   0.7985814239  0.2469328091  1.6518728658
H   1.4076411527 -1.0362914357 -1.3866755520
H   1.9321396822 -1.0790796450  0.3925435842
7
Iter 26 Image 2  Energy = -153.8924190586
C   0.8941112805  0.6573295925 -0.1726595935
H   0.5548900876  1.3719360775 -0.9116537850
O   0.7158889922  1.0013583141  1.1264645088
C   1.4015675800 -0.5554108087 -0.3759106866
H   0.7529600061  0.0956030527  1.4684533761
H   1.2308163198 -1.1491607858 -1.2447035077
H   2.0510072029 -0.9312886353  0.4039486615
7
Iter 26 Image 3  Energy = -153.8658495536
C   0.8995113095  0.6835329487 -0.1541744997
H   0.6051491642  1.4062640390 -0.9112622706
O   0.6880762242  0.9954102461  1.1389194879
C   1.3511895128 -0.5650424664 -0.2808162630
H   0.7293742973  0.0109003115  1.2965504779
H   1.1580482817 -1.1553950916 -1.1550565523
H   2.1698926973 -0.8853031474  0.3597785477
7
Iter 26 Image 4  Energy = -153.8359433060
C   0.8932086221  0.7187613595 -0.1208005240
H   0.6320143126  1.4148554028 -0.9139921623
O   0.6608409328  1.0604255876  1.1250373194
C   1.3195927955 -0.5751275638 -0.2088869385
H   0.7454745698 -0.1030232574  1.1746033650
H   1.1228850564 -1.1537376208 -1.0907338949
H   2.2272252405 -0.8717871175  0.3287117943
7
Iter 26 Image 5  Energy = -153.8319979588
C   0.8869456089  0.7793449443 -0.0858918670
H   0.6395537469  1.4260726617 -0.9262296776
O   0.6475517927  1.1670629713  1.0770145299
C   1.2893646491 -0.5868938466 -0.1324568191
H   0.7710458767 -0.2784377951  1.1203784811
H   1.1151253893 -1.1485575442 -1.0668285203
H   2.2516545096 -0.8682246284  0.3079529148
7
Iter 26 Image 6  Energy = -153.8708802070
C   0.8880312637  0.8236016654 -0.0656330985
H   0.6637389595  1.4375442182 -0.9411513718
O   0.6357140612  1.2400677149  1.0537047545
C   1.2746177484 -0.5874098214 -0.0620856990
H   0.7864620803 -0.4403642820  1.0200688930
H   1.0716964166 -1.1540840752 -0.9982064446
H   2.2809809975 -0.8289886504  0.2872419896
7
Iter 26 Image 7  Energy = -153.9059552733
C   0.8932306235  0.8614313480 -0.0498241488
H   0.6926707727  1.4369414685 -0.9653577875
O   0.6337424731  1.3386726852  1.0315862250
C   1.2810697429 -0.5741785953 -0.0251769006
H   0.7687761581 -0.6288888974  0.9604015399
H   1.0183029222 -1.1655489742 -0.9157723651
H   2.3134487740 -0.7780621018  0.2580823653
7
Iter 26 Image 8  Energy = -153.9273857264
C   0.8909505868  0.8900876206 -0.0117128584
H   0.6962394488  1.3901922107 -0.9778130509
O   0.7025933133  1.4809275337  1.0195547181
C   1.2676151219 -0.5608025463  0.0161502439
H   0.7068705941 -0.8840403673  0.8902488289
H   1.0176779192 -1.1040754561 -0.8921242583
H   2.3192945309 -0.7219221668  0.2496354202
7
Iter 26 Image 9  Energy = -153.9313172619
C   0.8488063233  0.8897141497 -0.0026397183
H   0.8309273761  1.3369183757 -1.0150543858
O   0.5382259003  1.5510153967  0.9547155226
C   1.2593721616 -0.5542108025  0.0739980797
H   0.8314609035 -1.0081208625  0.9660893568
H   0.9461184190 -1.0943277984 -0.8172129556
H   2.3463305266 -0.6306216412  0.1340430031
7
Iter 26 Image 10  Energy = -153.9316042975
C   0.8120070116  0.8770349913 -0.0198921708
H   0.9237250077  1.3242261642 -1.0264448939
O   0.3454223258  1.5228000237  0.8827708983
C   1.2830996556 -0.5440139295  0.1019666011
H   0.9704795643 -0.9737464448  1.0508461496
H   0.8947817363 -1.1361171443 -0.7262863682
H   2.3717263280 -0.5798167875  0.0309785634
7
Iter 26 Image 11  Energy = -153.9315568446
C   0.7840367852  0.8656586589 -0.0371164025
H   0.9809293880  1.3403901038 -1.0231241499
O   0.1875804579  1.4681235287  0.8223429327
C   1.3100769769 -0.5359012779  0.1153731248
H   1.0639489065 -0.9236344469  1.1059940899
H   0.8779311114 -1.1816924395 -0.6582837811
H   2.3967379442 -0.5425772870 -0.0312469938
7
Iter 27 Image 0  Energy = -153.9146221658
C   0.8260657415  0.5508603911 -0.1261794589
H   0.4554445983  1.2417513435 -0.8784317668
O   0.5680753083  1.0246514429  1.1187434847
C   1.4411098584 -0.5873603774 -0.4363613732
H   0.9099091373  0.3932317500  1.7666320721
H   1.5916834696 -0.8592929697 -1.4741885892
H   1.8089534565 -1.2734747403  0.3237244514
7
Iter 27 Image 1  Energy = -153.9100118204
C   0.8630865703  0.6018404727 -0.1602552484
H   0.4759090404  1.2845841670 -0.9069604959
O   0.6995829910  1.0449344730  1.1165133758
C   1.4239099622 -0.5715007112 -0.4191956107
H   0.8083334609  0.2546758717  1.6572898095
H   1.4048902347 -1.0427535352 -1.3875755175
H   1.9255292321 -1.0814139220  0.3941226221
7
Iter 27 Image 2  Energy = -153.8930558566
C   0.8961415123  0.6530812556 -0.1722930370
H   0.5563785170  1.3740257105 -0.9042327972
O   0.7153237297  1.0027506255  1.1263161559
C   1.4043899230 -0.5560992455 -0.3802330424
H   0.7461521012  0.1004563639  1.4765916948
H   1.2322762031 -1.1482435572 -1.2529584282
H   2.0505794599 -0.9356043134  0.4007484221
7
Iter 27 Image 3  Energy = -153.8671809076
C   0.8960707889  0.6813095643 -0.1520242438
H   0.5971148819  1.3985244242 -0.9074477280
O   0.6946674920  1.0041761396  1.1383425367
C   1.3420580515 -0.5730652454 -0.2757509595
H   0.7355170083  0.0182477353  1.2944134094
H   1.1741528670 -1.1446018001 -1.1667571588
H   2.1616604148 -0.8942240029  0.3631630526
7
Iter 27 Image 4  Energy = -153.8358304934
C   0.8916576196  0.7195480913 -0.1185513097
H   0.6220144453  1.4085544156 -0.9122328998
O   0.6678615298  1.0715049191  1.1220490395
C   1.3108771099 -0.5807239278 -0.2068561901
H   0.7504884386 -0.1041944634  1.1798325098
H   1.1401851030 -1.1422557993 -1.1038915354
H   2.2181573096 -0.8820664902  0.3335893965
7
Iter 27 Image 5  Energy = -153.8317081309
C   0.8861993265  0.7780376230 -0.0832613315
H   0.6261814127  1.4188281475 -0.9257746024
O   0.6580174620  1.1762553782  1.0752896311
C   1.2826068198 -0.5886394939 -0.1310144942
H   0.7734465004 -0.2775308313  1.1277289418
H   1.1346791106 -1.1360830202 -1.0838307874
H   2.2401109705 -0.8805010372  0.3148016772
7
Iter 27 Image 6  Energy = -153.8716200177
C   0.8868766377  0.8243970214 -0.0621824331
H   0.6559624777  1.4325876862 -0.9385401614
O   0.6402623954  1.2479076303  1.0552004321
C   1.2706375981 -0.5890734181 -0.0609237366
H   0.7890550820 -0.4473783132  1.0157083923
H   1.0842069011 -1.1419078469 -1.0078290376
H   2.2742404860 -0.8361660482  0.2925056280
7
Iter 27 Image 7  Energy = -153.9072283946
C   0.8899428185  0.8630858487 -0.0467912344
H   0.7051806854  1.4396159773 -0.9637386336
O   0.6178029428  1.3390343425  1.0303327233
C   1.2814278610 -0.5748411996 -0.0246211363
H   0.7774236654 -0.6372679484  0.9591538449
H   1.0129199129 -1.1664674536 -0.9104917888
H   2.3165435909 -0.7727926667  0.2500951408
7
Iter 27 Image 8  Energy = -153.9276651065
C   0.8893154997  0.8889179559 -0.0111048459
H   0.7070486428  1.3870746245 -0.9805764313
O   0.7020572583  1.4807162257  1.0177011767
C   1.2646316973 -0.5600770288  0.0165395686
H   0.7097122369 -0.8870109706  0.8914798480
H   1.0090111472 -1.1109887855 -0.8848743157
H   2.3194650344 -0.7082651801  0.2447740526
7
Iter 27 Image 9  Energy = -153.9313175713
C   0.8482297742  0.8887370646  0.0012810673
H   0.8330022745  1.3287867542 -1.0146627702
O   0.5474615203  1.5494238146  0.9574052828
C   1.2558180648 -0.5545803602  0.0721641177
H   0.8272422398 -1.0091790129  0.9636872838
H   0.9469571114 -1.0889459634 -0.8229718841
H   2.3425306164 -0.6238754845  0.1370357907
7
Iter 27 Image 10  Energy = -153.9315961984
C   0.8118801084  0.8755827266 -0.0183158638
H   0.9253915624  1.3194401648 -1.0259560394
O   0.3513083698  1.5217592222  0.8859606454
C   1.2810111669 -0.5447659859  0.1006656195
H   0.9668614875 -0.9718525209  1.0503239871
H   0.8948641666 -1.1332694294 -0.7310489431
H   2.3699247773 -0.5765273143  0.0323093508
7
Iter 27 Image 11  Energy = -153.9315568446
C   0.7840367852  0.8656586589 -0.0371164025
H   0.9809293880  1.3403901038 -1.0231241499
O   0.1875804579  1.4681235287  0.8223429327
C   1.3100769769 -0.5359012779  0.1153731248
H   1.0639489065 -0.9236344469  1.1059940899
H   0.8779311114 -1.1816924395 -0.6582837811
H   2.3967379442 -0.5425772870 -0.0312469938
7
Iter 28 Image 0  Energy = -153.9146221658
C   0.8260657415  0.5508603911 -0.1261794589
H   0.4554445983  1.2417513435 -0.8784317668
O   0.5680753083  1.0246514429  1.1187434847
C   1.4411098584 -0.5873603774 -0.4363613732
H   0.9099091373  0.3932317500  1.7666320721
H   1.5916834696 -0.8592929697 -1.4741885892
H   1.8089534565 -1.2734747403  0.3237244514
7
Iter 28 Image 1  Energy = -153.9101501209
C   0.8612954295  0.5997869269 -0.1606048793
H   0.4799417645  1.2872858822 -0.9063772574
O   0.6950156360  1.0451891661  1.1144350727
C   1.4262999915 -0.5716673949 -0.4217531412
H   0.8155369956  0.2610340391  1.6619778617
H   1.4022921998 -1.0471375758 -1.3884090304
H   1.9208594616 -1.0841242398  0.3946703250
7
Iter 28 Image 2  Energy = -153.8938543514
C   0.8929733174  0.6509706160 -0.1698972752
H   0.5561055071  1.3727270964 -0.8989106500
O   0.7169951816  1.0061468337  1.1266142783
C   1.4053939056 -0.5605685072 -0.3828221339
H   0.7422837146  0.1064816203  1.4819478546
H   1.2385912160 -1.1422284502 -1.2613212335
H   2.0488985929 -0.9431623414  0.3983281210
7
Iter 28 Image 3  Energy = -153.8679892040
C   0.8908347467  0.6761560369 -0.1477693594
H   0.5898863635  1.3916343537 -0.9063146232
O   0.7009557349  1.0131453138  1.1373044346
C   1.3311666622 -0.5774002147 -0.2697839429
H   0.7432864300  0.0245223279  1.2911147277
H   1.1905190192 -1.1328295432 -1.1769116218
H   2.1545925750 -0.9048614827  0.3662992929
7
Iter 28 Image 4  Energy = -153.8354496235
C   0.8873615979  0.7201360273 -0.1163269694
H   0.6126329603  1.4021719576 -0.9126133761
O   0.6753712086  1.0821393005  1.1204568291
C   1.3043768360 -0.5844749148 -0.2011958763
H   0.7558152184 -0.1055938193  1.1854370869
H   1.1584287929 -1.1302725695 -1.1185787898
H   2.2072549725 -0.8937392579  0.3367601521
7
Iter 28 Image 5  Energy = -153.8314767728
C   0.8824034861  0.7786471506 -0.0812054155
H   0.6141058934  1.4105284009 -0.9264581556
O   0.6689420575  1.1866039976  1.0738830575
C   1.2761614051 -0.5925666444 -0.1289463389
H   0.7766983474 -0.2769007402  1.1343548793
H   1.1546791106 -1.1221654392 -1.0984385028
H   2.2282513227 -0.8937799410  0.3207495037
7
Iter 28 Image 6  Energy = -153.8723562120
C   0.8838947367  0.8240494223 -0.0572885618
H   0.6460085426  1.4266408223 -0.9383594237
O   0.6481894651  1.2594363117  1.0563410812
C   1.2676122317 -0.5889449274 -0.0590883861
H   0.7911597972 -0.4560591779  1.0125427767
H   1.0989581665 -1.1287514181 -1.0197549181
H   2.2654186848 -0.8460043687  0.2995465681
7
Iter 28 Image 7  Energy = -153.9087398380
C   0.8849893018  0.8640583223 -0.0431282469
H   0.7119782089  1.4402056536 -0.9619638319
O   0.6073531631  1.3453133099  1.0303800621
C   1.2821831501 -0.5734695345 -0.0235640274
H   0.7841856165 -0.6505175941  0.9567330837
H   1.0137117792 -1.1618383305 -0.9108003290
H   2.3168402830 -0.7733849715  0.2462822209
7
Iter 28 Image 8  Energy = -153.9279361350
C   0.8854238320  0.8880381787 -0.0111123632
H   0.7188350085  1.3859943089 -0.9831812170
O   0.6969299337  1.4828991053  1.0157203036
C   1.2631205363 -0.5597777637  0.0174408565
H   0.7161384169 -0.8907607942  0.8939441730
H   1.0005688149 -1.1175134255 -0.8783542936
H   2.3202249766 -0.6985127542  0.2394815955
7
Iter 28 Image 9  Energy = -153.9312890754
C   0.8475200320  0.8860915210  0.0013529997
H   0.8352467019  1.3239124133 -1.0140075874
O   0.5524427101  1.5506853568  0.9614218814
C   1.2534747945 -0.5544544991  0.0714277752
H   0.8254607700 -1.0103535532  0.9612659855
H   0.9469829090 -1.0861637179 -0.8269087588
H   2.3401136819 -0.6193507111  0.1393865826
7
Iter 28 Image 10  Energy = -153.9315394394
C   0.8129278697  0.8735684843 -0.0189305395
H   0.9262238520  1.3167230670 -1.0252725113
O   0.3548796514  1.5221655053  0.8899302837
C   1.2794625966 -0.5452052998  0.0997736421
H   0.9641548265 -0.9703424438  1.0491444682
H   0.8949568985 -1.1319636340 -0.7343657597
H   2.3686359493 -0.5745788259  0.0336591523
7
Iter 28 Image 11  Energy = -153.9315568446
C   0.7840367852  0.8656586589 -0.0371164025
H   0.9809293880  1.3403901038 -1.0231241499
O   0.1875804579  1.4681235287  0.8223429327
C   1.3100769769 -0.5359012779  0.1153731248
H   1.0639489065 -0.9236344469  1.1059940899
H   0.8779311114 -1.1816924395 -0.6582837811
H   2.3967379442 -0.5425772870 -0.0312469938
7
Iter 29 Image 0  Energy = -153.9146221658
C   0.8260657415  0.5508603911 -0.1261794589
H   0.4554445983  1.2417513435 -0.8784317668
O   0.5680753083  1.0246514429  1.1187434847
C   1.4411098584 -0.5873603774 -0.4363613732
H   0.9099091373  0.3932317500  1.7666320721
H   1.5916834696 -0.8592929697 -1.4741885892
H   1.8089534565 -1.2734747403  0.3237244514
7
Iter 29 Image 1  Energy = -153.9102737706
C   0.8591798841  0.5973848292 -0.1611076397
H   0.4838471859  1.2893519083 -0.9058044373
O   0.6916773268  1.0452118485  1.1133208459
C   1.4279640833 -0.5717646524 -0.4234971980
H   0.8214868770  0.2676064207  1.6658863589
H   1.4003083772 -1.0502178461 -1.3894399468
H   1.9167777325 -1.0872057086  0.3945809866
7
Iter 29 Image 2  Energy = -153.8948728958
C   0.8895856445  0.6447048207 -0.1675078493
H   0.5537584446  1.3700692578 -0.8958181896
O   0.7201742145  1.0105714487  1.1278354484
C   1.4028265588 -0.5612134557 -0.3823750962
H   0.7409090591  0.1135658623  1.4862660896
H   1.2484070083 -1.1342284074 -1.2714516087
H   2.0455804999 -0.9531026299  0.3969901558
7
Iter 29 Image 3  Energy = -153.8686543506
C   0.8837046228  0.6740834352 -0.1457083254
H   0.5832180715  1.3842588641 -0.9062235890
O   0.7072256181  1.0210907980  1.1377687271
C   1.3227187225 -0.5821072864 -0.2626804290
H   0.7514517085  0.0294561806  1.2889829961
H   1.2068962177 -1.1205614287 -1.1864585720
H   2.1460266006 -0.9158537987  0.3682581157
7
Iter 29 Image 4  Energy = -153.8348446366
C   0.8831500768  0.7198465228 -0.1135623167
H   0.6030824008  1.3957575785 -0.9147976219
O   0.6832291788  1.0928499219  1.1198762464
C   1.2956085499 -0.5876111623 -0.1989793941
H   0.7607812327 -0.1078817527  1.1915340024
H   1.1777896766 -1.1160592390 -1.1304346063
H   2.1976004994 -0.9065351501  0.3403027850
7
Iter 29 Image 5  Energy = -153.8312297015
C   0.8781961248  0.7779103302 -0.0791166327
H   0.6023376638  1.4022936751 -0.9287308524
O   0.6804620254  1.1972933129  1.0726645013
C   1.2687455070 -0.5954578230 -0.1251564110
H   0.7804208436 -0.2767636030  1.1395205359
H   1.1746791106 -1.1076864157 -1.1113474397
H   2.2164003645 -0.9072226631  0.3261053054
7
Iter 29 Image 6  Energy = -153.8730108210
C   0.8798281227  0.8261352621 -0.0537753162
H   0.6347501488  1.4187936102 -0.9385338861
O   0.6587066237  1.2735191340  1.0577184257
C   1.2649704361 -0.5903702350 -0.0590640019
H   0.7919933913 -0.4663607272  1.0108440402
H   1.1150754180 -1.1144298947 -1.0311330041
H   2.2559175298 -0.8569205218  0.3078829078
7
Iter 29 Image 7  Energy = -153.9105102736
C   0.8796843599  0.8653394884 -0.0380268721
H   0.7145994758  1.4393896077 -0.9607025451
O   0.6015875015  1.3554434143  1.0302251844
C   1.2828371345 -0.5708153471 -0.0220037191
H   0.7883801652 -0.6684242033  0.9533256332
H   1.0180688561 -1.1539508486 -0.9139521989
H   2.3160840419 -0.7766153099  0.2450734756
7
Iter 29 Image 8  Energy = -153.9282177356
C   0.8808868025  0.8873124353 -0.0118475902
H   0.7307142667  1.3861173765 -0.9854700536
O   0.6895289864  1.4868422043  1.0139035880
C   1.2619474541 -0.5597286297  0.0185808422
H   0.7240293227 -0.8959573662  0.8972263496
H   0.9928203389 -1.1231987295 -0.8724705955
H   2.3213143476 -0.6910204210  0.2340165114
7
Iter 29 Image 9  Energy = -153.9312803876
C   0.8454598835  0.8862909478  0.0046903674
H   0.8374252087  1.3209155725 -1.0135473007
O   0.5570083001  1.5507784060  0.9613804314
C   1.2516671428 -0.5547605069  0.0708717900
H   0.8245337463 -1.0126426188  0.9588131703
H   0.9468320987 -1.0844246942 -0.8297195489
H   2.3383152174 -0.6157902989  0.1414499631
7
Iter 29 Image 10  Energy = -153.9315648944
C   0.8123021154  0.8745930391 -0.0157379719
H   0.9266060870  1.3153023255 -1.0249251501
O   0.3595948516  1.5205728599  0.8898941793
C   1.2782924221 -0.5458038733  0.0988621849
H   0.9617790555 -0.9695428357  1.0476236130
H   0.8951463444 -1.1313857488 -0.7368293669
H   2.3675207714 -0.5733689209  0.0350512336
7
Iter 29 Image 11  Energy = -153.9315568446
C   0.7840367852  0.8656586589 -0.0371164025
H   0.9809293880  1.3403901038 -1.0231241499
O   0.1875804579  1.4681235287  0.8223429327
C   1.3100769769 -0.5359012779  0.1153731248
H   1.0639489065 -0.9236344469  1.1059940899
H   0.8779311114 -1.1816924395 -0.6582837811
H   2.3967379442 -0.5425772870 -0.0312469938
7
Iter 30 Image 0  Energy = -153.9146221658
C   0.8260657415  0.5508603911 -0.1261794589
H   0.4554445983  1.2417513435 -0.8784317668
O   0.5680753083  1.0246514429  1.1187434847
C   1.4411098584 -0.5873603774 -0.4363613732
H   0.9099091373  0.3932317500  1.7666320721
H   1.5916834696 -0.8592929697 -1.4741885892
H   1.8089534565 -1.2734747403  0.3237244514
7
Iter 30 Image 1  Energy = -153.9103923972
C   0.8567414174  0.5958502412 -0.1613465829
H   0.4867520807  1.2902108790 -0.9053304310
O   0.6903065903  1.0455733811  1.1126937271
C   1.4287072723 -0.5727569080 -0.4245491314
H   0.8256527659  0.2730997384  1.6688270447
H   1.3996627949 -1.0513051896 -1.3903829169
H   1.9134185368 -1.0903053374  0.3940272748
7
Iter 30 Image 2  Energy = -153.8959140067
C   0.8837938229  0.6419898125 -0.1657113674
H   0.5500197838  1.3651297206 -0.8946141264
O   0.7247604259  1.0150590791  1.1294901061
C   1.3996537921 -0.5642468391 -0.3803894818
H   0.7425701725  0.1202687968  1.4892443860
H   1.2606557411 -1.1245707031 -1.2805191794
H   2.0397876943 -0.9632629515  0.3964385999
7
Iter 30 Image 3  Energy = -153.8692507654
C   0.8773710169  0.6734348688 -0.1434476055
H   0.5774414197  1.3783166685 -0.9081598375
O   0.7123987227  1.0272798440  1.1390574732
C   1.3158335178 -0.5863164969 -0.2617884244
H   0.7581660499  0.0318950961  1.2893185182
H   1.2212325665 -1.1083048860 -1.1914106088
H   2.1387983001 -0.9259383513  0.3703694465
7
Iter 30 Image 4  Energy = -153.8341423381
C   0.8790703241  0.7196878347 -0.1112225580
H   0.5949936172  1.3899045544 -0.9179035540
O   0.6909302867  1.1006335323  1.1197544262
C   1.2881034620 -0.5889653297 -0.1964206812
H   0.7646208378 -0.1101151899  1.1960511835
H   1.1945163751 -1.1030844149 -1.1390954051
H   2.1890067358 -0.9176942608  0.3427756962
7
Iter 30 Image 5  Energy = -153.8311340060
C   0.8740910276  0.7767037323 -0.0763671845
H   0.5925050381  1.3953086448 -0.9321779804
O   0.6913029024  1.2062617645  1.0709999054
C   1.2618214597 -0.5974952328 -0.1205654510
H   0.7840578890 -0.2772915602  1.1416058639
H   1.1914760172 -1.0946340241 -1.1198512324
H   2.2059873147 -0.9184864765  0.3302950509
7
Iter 30 Image 6  Energy = -153.8736078102
C   0.8762746030  0.8272690586 -0.0486306123
H   0.6231865671  1.4113693468 -0.9402792529
O   0.6710406746  1.2873039288  1.0566960883
C   1.2621617029 -0.5899556425 -0.0590870605
H   0.7912877871 -0.4764532756  1.0102012991
H   1.1300881105 -1.1019601993 -1.0411016099
H   2.2472022604 -0.8672065999  0.3161403194
7
Iter 30 Image 7  Energy = -153.9122376699
C   0.8749657859  0.8681193152 -0.0330092277
H   0.7125252080  1.4367423728 -0.9596477390
O   0.6019067561  1.3678625185  1.0301079003
C   1.2830980835 -0.5688246072 -0.0207508260
H   0.7887389551 -0.6884242033  0.9491353312
H   1.0253882488 -1.1437101471 -0.9187205778
H   2.3146185308 -0.7813984985  0.2468241299
7
Iter 30 Image 8  Energy = -153.9284782933
C   0.8762510659  0.8882093510 -0.0096957481
H   0.7403924015  1.3874822434 -0.9872711960
O   0.6821904181  1.4906589712  1.0095749958
C   1.2608261700 -0.5595634332  0.0200210418
H   0.7317270493 -0.9026709896  0.9003348577
H   0.9873900456 -1.1268326426 -0.8684419041
H   2.3224643669 -0.6869166232  0.2294169970
7
Iter 30 Image 9  Energy = -153.9312795684
C   0.8442822675  0.8854133332  0.0045853855
H   0.8389836404  1.3199782899 -1.0127119800
O   0.5594492861  1.5538252243  0.9629099569
C   1.2504713891 -0.5551008419  0.0707049273
H   0.8241876205 -1.0165360702  0.9564820303
H   0.9467037820 -1.0835872162 -0.8311710044
H   2.3371636119 -0.6136259094  0.1431395562
7
Iter 30 Image 10  Energy = -153.9315269578
C   0.8140509372  0.8732358583 -0.0172480304
H   0.9262122812  1.3151197826 -1.0242900955
O   0.3617459825  1.5226068383  0.8931975754
C   1.2773436488 -0.5459689453  0.0983289588
H   0.9597947680 -0.9702399719  1.0458134026
H   0.8954339988 -1.1312989133 -0.7383684500
H   2.3666600305 -0.5730878065  0.0365053526
7
Iter 30 Image 11  Energy = -153.9315568446
C   0.7840367852  0.8656586589 -0.0371164025
H   0.9809293880  1.3403901038 -1.0231241499
O   0.1875804579  1.4681235287  0.8223429327
C   1.3100769769 -0.5359012779  0.1153731248
H   1.0639489065 -0.9236344469  1.1059940899
H   0.8779311114 -1.1816924395 -0.6582837811
H   2.3967379442 -0.5425772870 -0.0312469938
7
Iter 31 Image 0  Energy = -153.9146221658
C   0.8260657415  0.5508603911 -0.1261794589
H   0.4554445983  1.2417513435 -0.8784317668
O   0.5680753083  1.0246514429  1.1187434847
C   1.4411098584 -0.5873603774 -0.4363613732
H   0.9099091373  0.3932317500  1.7666320721
H   1.5916834696 -0.8592929697 -1.4741885892
H   1.8089534565 -1.2734747403  0.3237244514
7
Iter 31 Image 1  Energy = -153.9105104450
C   0.8548585984  0.5940774750 -0.1606817747
H   0.4886063194  1.2902026662 -0.9053000869
O   0.6905149535  1.0468153053  1.1121362455
C   1.4280100895 -0.5735341076 -0.4247407129
H   0.8276249344  0.2765721427  1.6708926589
H   1.4000621203 -1.0502629359 -1.3913192481
H   1.9115644406 -1.0935037423  0.3929519166
7
Iter 31 Image 2  Energy = -153.8968811318
C   0.8777754833  0.6393915539 -0.1630945155
H   0.5448653455  1.3589693533 -0.8962221752
O   0.7297145540  1.0202858701  1.1310240741
C   1.3941077249 -0.5670148692 -0.3778002078
H   0.7469639557  0.1255753199  1.4906709945
H   1.2745219558 -1.1131528969 -1.2875988048
H   2.0332924246 -0.9736874076  0.3969595625
7
Iter 31 Image 3  Energy = -153.8696788335
C   0.8728353104  0.6723202545 -0.1406155712
H   0.5729245659  1.3741029072 -0.9120563858
O   0.7162856913  1.0302788082  1.1398112472
C   1.3110737561 -0.5858221109 -0.2607317816
H   0.7628635446  0.0321756764  1.2915781889
H   1.2323437520 -1.0981789461 -1.1950649882
H   2.1329150084 -0.9345098608  0.3710182957
7
Iter 31 Image 4  Energy = -153.8334525201
C   0.8747470408  0.7204892204 -0.1096668283
H   0.5884445836  1.3844697178 -0.9216696494
O   0.6983203472  1.1055481358  1.1196029685
C   1.2843774896 -0.5896419972 -0.1918281584
H   0.7675359014 -0.1117297628  1.1995231414
H   1.2076939991 -1.0922012306 -1.1458199857
H   2.1801222931 -0.9265673325  0.3437976124
7
Iter 31 Image 5  Energy = -153.8312562244
C   0.8698875932  0.7772511198 -0.0754330929
H   0.5855283605  1.3887720440 -0.9357185389
O   0.7002584954  1.2136786501  1.0699797266
C   1.2564410236 -0.6001022615 -0.1158217534
H   0.7874688634 -0.2785791376  1.1417143857
H   1.2041041934 -1.0833033050 -1.1237076390
H   2.1975531187 -0.9273502179  0.3329258436
7
Iter 31 Image 6  Energy = -153.8740016633
C   0.8738158176  0.8266556538 -0.0464545083
H   0.6121030506  1.4040083467 -0.9430507179
O   0.6837392572  1.3011665676  1.0568035843
C   1.2602861729 -0.5884760668 -0.0578362396
H   0.7893323708 -0.4852258708  1.0104668185
H   1.1431434663 -1.0914166038 -1.0493241126
H   2.2388215933 -0.8763453861  0.3233343228
7
Iter 31 Image 7  Energy = -153.9137065309
C   0.8716235721  0.8707361382 -0.0288047001
H   0.7057644944  1.4322325075 -0.9590066909
O   0.6077905987  1.3818638541  1.0307313495
C   1.2832819792 -0.5667741119 -0.0189322096
H   0.7854527464 -0.7084242033  0.9444760043
H   1.0353178146 -1.1315570645 -0.9257177351
H   2.3120103995 -0.7877104267  0.2511930093
7
Iter 31 Image 8  Energy = -153.9287455866
C   0.8726753333  0.8874975679 -0.0113207850
H   0.7478076583  1.3895797719 -0.9880891386
O   0.6732725787  1.4969639565  1.0085320444
C   1.2603230546 -0.5591987931  0.0221392641
H   0.7393944159 -0.9098961043  0.9036009759
H   0.9842297965 -1.1280868832 -0.8663125029
H   2.3235386817 -0.6864926371  0.2253891815
7
Iter 31 Image 9  Energy = -153.9312899598
C   0.8424968161  0.8866026371  0.0062897379
H   0.8401039271  1.3213356918 -1.0120736368
O   0.5602679207  1.5557842504  0.9610163207
C   1.2501074861 -0.5553961378  0.0711804492
H   0.8249715041 -1.0207525426  0.9546410248
H   0.9463686380 -1.0840964732 -0.8311062911
H   2.3369253083 -0.6131106117  0.1439912722
7
Iter 31 Image 10  Energy = -153.9315642444
C   0.8136003834  0.8755204236 -0.0145218815
H   0.9253521592  1.3165175831 -1.0240828950
O   0.3646854480  1.5220086687  0.8915111769
C   1.2770031721 -0.5462518000  0.0980106798
H   0.9585505692 -0.9715344539  1.0439841309
H   0.8957626396 -1.1320557551 -0.7386621629
H   2.3662872758 -0.5738378240  0.0376996623
7
Iter 31 Image 11  Energy = -153.9315568446
C   0.7840367852  0.8656586589 -0.0371164025
H   0.9809293880  1.3403901038 -1.0231241499
O   0.1875804579  1.4681235287  0.8223429327
C   1.3100769769 -0.5359012779  0.1153731248
H   1.0639489065 -0.9236344469  1.1059940899
H   0.8779311114 -1.1816924395 -0.6582837811
H   2.3967379442 -0.5425772870 -0.0312469938
7
Iter 32 Image 0  Energy = -153.9146221658
C   0.8260657415  0.5508603911 -0.1261794589
H   0.4554445983  1.2417513435 -0.8784317668
O   0.5680753083  1.0246514429  1.1187434847
C   1.4411098584 -0.5873603774 -0.4363613732
H   0.9099091373  0.3932317500  1.7666320721
H   1.5916834696 -0.8592929697 -1.4741885892
H   1.8089534565 -1.2734747403  0.3237244514
7
Iter 32 Image 1  Energy = -153.9106428571
C   0.8533662174  0.5926503767 -0.1597342797
H   0.4892218572  1.2888904399 -0.9056069082
O   0.6926783572  1.0483681428  1.1124870939
C   1.4258109136 -0.5745340248 -0.4237787588
H   0.8273720773  0.2787827434  1.6716720376
H   1.4018690434 -1.0468689205 -1.3924324001
H   1.9109229919 -1.0969219509  0.3913322208
7
Iter 32 Image 2  Energy = -153.8977232857
C   0.8721779202  0.6360662518 -0.1604697962
H   0.5381508631  1.3514893609 -0.9008114629
O   0.7349749240  1.0251103299  1.1328823809
C   1.3858633813 -0.5676303710 -0.3726761209
H   0.7545484816  0.1300254390  1.4901134882
H   1.2898868567 -1.1006095936 -1.2934785778
H   2.0256390400 -0.9840845036  0.3983790145
7
Iter 32 Image 3  Energy = -153.8700997353
C   0.8685733108  0.6751848676 -0.1400707791
H   0.5699645423  1.3703652696 -0.9165569469
O   0.7192698378  1.0298357510  1.1413883250
C   1.3111986013 -0.5843864339 -0.2586083221
H   0.7653547261  0.0304434071  1.2956845551
H   1.2399726814 -1.0901867592 -1.1977933517
H   2.1269079639 -0.9408893755  0.3698955759
7
Iter 32 Image 4  Energy = -153.8329065800
C   0.8722147379  0.7197378819 -0.1090342855
H   0.5835424687  1.3799844953 -0.9264968093
O   0.7043671617  1.1092479968  1.1206595391
C   1.2804424799 -0.5888406853 -0.1901677662
H   0.7694558193 -0.1135754610  1.2014427935
H   1.2168909109 -1.0827293859 -1.1472678768
H   2.1743280854 -0.9334580275  0.3448034631
7
Iter 32 Image 5  Energy = -153.8317508608
C   0.8665796662  0.7778343047 -0.0743328178
H   0.5812518226  1.3834799447 -0.9401433965
O   0.7073673871  1.2188661118  1.0684254046
C   1.2517232473 -0.6012748321 -0.1101115406
H   0.7906594047 -0.2806657750  1.1389995940
H   1.2119203373 -1.0744107914 -1.1230645844
H   2.1917397687 -0.9334620301  0.3341662336
7
Iter 32 Image 6  Energy = -153.8743720689
C   0.8714158946  0.8290539389 -0.0437843294
H   0.6017874215  1.3959151126 -0.9463707626
O   0.6977650828  1.3129591828  1.0535813342
C   1.2593267694 -0.5885620560 -0.0573727859
H   0.7857634546 -0.4925392324  1.0123944587
H   1.1539401732 -1.0825069678 -1.0540863215
H   2.2312429359 -0.8839532813  0.3295775001
7
Iter 32 Image 7  Energy = -153.9149427648
C   0.8701363907  0.8725470915 -0.0241812056
H   0.6931914690  1.4257096215 -0.9593365450
O   0.6209033104  1.3974425577  1.0313493622
C   1.2829323918 -0.5640228859 -0.0161944297
H   0.7776999043 -0.7284242033  0.9388563993
H   1.0482933959 -1.1173652816 -0.9353523902
H   2.3080847830 -0.7955202612  0.2587978775
7
Iter 32 Image 8  Energy = -153.9289855494
C   0.8690706217  0.8897653703 -0.0091785411
H   0.7524493141  1.3923051028 -0.9882811524
O   0.6645137707  1.5019628716  1.0041274419
C   1.2604625418 -0.5593783687  0.0243517882
H   0.7464262931 -0.9181645093  0.9068580458
H   0.9838816231 -1.1263399496 -0.8660731531
H   2.3244373582 -0.6897836426  0.2221346055
7
Iter 32 Image 9  Energy = -153.9313189102
C   0.8416614000  0.8868528646  0.0051231915
H   0.8406334483  1.3248712320 -1.0113318301
O   0.5583866487  1.5597961366  0.9600270188
C   1.2504291622 -0.5554611287  0.0723690479
H   0.8266699549 -1.0257564278  0.9532620253
H   0.9459128270 -1.0857332097 -0.8295681650
H   2.3375481635 -0.6142026500  0.1440575981
7
Iter 32 Image 10  Energy = -153.9315816293
C   0.8148694978  0.8760603165 -0.0155199637
H   0.9237737127  1.3193398307 -1.0237328215
O   0.3652550330  1.5241005051  0.8921619163
C   1.2770594034 -0.5461115794  0.0980459237
H   0.9578078035 -0.9739529098  1.0420833733
H   0.8961606833 -1.1334100751 -0.7379217221
H   2.3663155119 -0.5756592456  0.0388220060
7
Iter 32 Image 11  Energy = -153.9315568446
C   0.7840367852  0.8656586589 -0.0371164025
H   0.9809293880  1.3403901038 -1.0231241499
O   0.1875804579  1.4681235287  0.8223429327
C   1.3100769769 -0.5359012779  0.1153731248
H   1.0639489065 -0.9236344469  1.1059940899
H   0.8779311114 -1.1816924395 -0.6582837811
H   2.3967379442 -0.5425772870 -0.0312469938
7
Iter 33 Image 0  Energy = -153.9146221658
C   0.8260657415  0.5508603911 -0.1261794589
H   0.4554445983  1.2417513435 -0.8784317668
O   0.5680753083  1.0246514429  1.1187434847
C   1.4411098584 -0.5873603774 -0.4363613732
H   0.9099091373  0.3932317500  1.7666320721
H   1.5916834696 -0.8592929697 -1.4741885892
H   1.8089534565 -1.2734747403  0.3237244514
7
Iter 33 Image 1  Energy = -153.9107660189
C   0.8520649534  0.5932577477 -0.1586470812
H   0.4880845691  1.2859711133 -0.9061311846
O   0.6968359459  1.0500939507  1.1136128878
C   1.4227929086 -0.5768345902 -0.4219653579
H   0.8249248552  0.2790673815  1.6709956870
H   1.4052362347 -1.0412828075 -1.3934477941
H   1.9113019936 -1.0999059756  0.3895218506
7
Iter 33 Image 2  Energy = -153.8982043393
C   0.8658515638  0.6390467465 -0.1593570653
H   0.5318092517  1.3428930056 -0.9065438798
O   0.7393577305  1.0276979387  1.1344952842
C   1.3794282760 -0.5708730818 -0.3662766000
H   0.7643279231  0.1320630058  1.4876071056
H   1.3031336010 -1.0893376991 -1.2958660834
H   2.0173331600 -0.9911230243  0.3998801793
7
Iter 33 Image 3  Energy = -153.8704238046
C   0.8681233135  0.6770402332 -0.1399045500
H   0.5685892111  1.3689352798 -0.9214457789
O   0.7201284009  1.0282904097  1.1444762841
C   1.3119803434 -0.5824049817 -0.2643558525
H   0.7648285723  0.0269061604  1.2996754490
H   1.2423905748 -1.0843618853 -1.1947356302
H   2.1252012644 -0.9440384568  0.3702291584
7
Iter 33 Image 4  Energy = -153.8327276634
C   0.8715096116  0.7199063017 -0.1087092190
H   0.5821978957  1.3772015628 -0.9308116454
O   0.7078021330  1.1085592797  1.1208939848
C   1.2789453785 -0.5868442664 -0.1892454242
H   0.7697188937 -0.1140381980  1.2009160802
H   1.2185022937 -1.0786641098 -1.1440883322
H   2.1725654474 -0.9357536904  0.3449835520
7
Iter 33 Image 5  Energy = -153.8327274712
C   0.8658270175  0.7776097534 -0.0741175209
H   0.5810600096  1.3811083560 -0.9446317709
O   0.7102567302  1.2210635768  1.0675747707
C   1.2486308725 -0.6004270533 -0.1045303508
H   0.7930836060 -0.2835801215  1.1333604482
H   1.2119473682 -1.0707318471 -1.1175529853
H   2.1904360035 -0.9346756982  0.3338362687
7
Iter 33 Image 6  Energy = -153.8747391171
C   0.8716967840  0.8293330428 -0.0445563121
H   0.5946215069  1.3897537371 -0.9504494959
O   0.7093201921  1.3213753510  1.0510088246
C   1.2573038920 -0.5872526529 -0.0555766320
H   0.7816609712 -0.4963931921  1.0144686983
H   1.1590563961 -1.0784236900 -1.0542724090
H   2.2275819703 -0.8880258222  0.3333163458
7
Iter 33 Image 7  Energy = -153.9157142426
C   0.8713419125  0.8744809817 -0.0206102722
H   0.6759297999  1.4172999480 -0.9603317763
O   0.6409033104  1.4114002487  1.0317569742
C   1.2815769912 -0.5627735636 -0.0141971164
H   0.7657721972 -0.7436760844  0.9330513526
H   1.0623800312 -1.1033295755 -0.9449550928
H   2.3033374332 -0.8030353449  0.2692250326
7
Iter 33 Image 8  Energy = -153.9291739034
C   0.8678148856  0.8909320633 -0.0095067154
H   0.7523062485  1.3946518496 -0.9873509528
O   0.6575339074  1.5082618197  1.0031121413
C   1.2610345261 -0.5593826399  0.0265262463
H   0.7504254039 -0.9265935825  0.9087928643
H   0.9871888927 -1.1210090189 -0.8685206978
H   2.3249376623 -0.6964936292  0.2208861426
7
Iter 33 Image 9  Energy = -153.9313201034
C   0.8406627406  0.8895267921  0.0061430877
H   0.8404195416  1.3298313167 -1.0109705825
O   0.5555118668  1.5623155441  0.9558140384
C   1.2514586243 -0.5557132309  0.0735422475
H   0.8287654738 -1.0309644331  0.9527513924
H   0.9456020402 -1.0879735463 -0.8266038517
H   2.3388213210 -0.6166556216  0.1432625646
7
Iter 33 Image 10  Energy = -153.9315941810
C   0.8151981421  0.8780339798 -0.0151967142
H   0.9218821485  1.3231073867 -1.0237010277
O   0.3654377398  1.5256018753  0.8906196594
C   1.2776219730 -0.5458922295  0.0982581130
H   0.9577473033 -0.9771993663  1.0405704658
H   0.8965803734 -1.1350147146 -0.7362085834
H   2.3667739598 -0.5782700866  0.0395968134
7
Iter 33 Image 11  Energy = -153.9315568446
C   0.7840367852  0.8656586589 -0.0371164025
H   0.9809293880  1.3403901038 -1.0231241499
O   0.1875804579  1.4681235287  0.8223429327
C   1.3100769769 -0.5359012779  0.1153731248
H   1.0639489065 -0.9236344469  1.1059940899
H   0.8779311114 -1.1816924395 -0.6582837811
H   2.3967379442 -0.5425772870 -0.0312469938
7
Iter 34 Image 0  Energy = -153.9146221658
C   0.8260657415  0.5508603911 -0.1261794589
H   0.4554445983  1.2417513435 -0.8784317668
O   0.5680753083  1.0246514429  1.1187434847
C   1.4411098584 -0.5873603774 -0.4363613732
H   0.9099091373  0.3932317500  1.7666320721
H   1.5916834696 -0.8592929697 -1.4741885892
H   1.8089534565 -1.2734747403  0.3237244514
7
Iter 34 Image 1  Energy = -153.9108468464
C   0.8524725296  0.5928157357 -0.1574616815
H   0.4856916941  1.2831894667 -0.9070949199
O   0.7011714481  1.0521226872  1.1145874288
C   1.4189430445 -0.5773478596 -0.4197447082
H   0.8216965711  0.2773327192  1.6695840805
H   1.4088266374 -1.0358175278 -1.3942994708
H   1.9124395391 -1.1019283948  0.3883682757
7
Iter 34 Image 2  Energy = -153.8983345571
C   0.8644958499  0.6378481333 -0.1586238481
H   0.5268081958  1.3378404151 -0.9128704295
O   0.7412716003  1.0294907841  1.1354428962
C   1.3724647894 -0.5687897286 -0.3624255422
H   0.7729189805  0.1308405234  1.4845664163
H   1.3108968182 -1.0824701211 -1.2947770143
H   2.0123853065 -0.9943931391  0.4026264770
7
Iter 34 Image 3  Energy = -153.8706721208
C   0.8697102448  0.6789357628 -0.1397331322
H   0.5690131525  1.3694115255 -0.9249390590
O   0.7199897054  1.0238057752  1.1453360679
C   1.3155788324 -0.5781896358 -0.2656978568
H   0.7622514513  0.0240866965  1.3026064384
H   1.2397373038 -1.0846319425 -1.1932266202
H   2.1249609871 -0.9430513769  0.3695932314
7
Iter 34 Image 4  Energy = -153.8329441300
C   0.8723986760  0.7206084444 -0.1102583983
H   0.5837937357  1.3766322434 -0.9336809141
O   0.7082194611  1.1051042492  1.1216584393
C   1.2810519342 -0.5846850691 -0.1874463656
H   0.7686984033 -0.1134140387  1.1993398160
H   1.2139243939 -1.0802783015 -1.1397056405
H   2.1731550303 -0.9336006019  0.3440320011
7
Iter 34 Image 5  Energy = -153.8338191789
C   0.8665577256  0.7786319182 -0.0745695039
H   0.5843643219  1.3813291551 -0.9475107112
O   0.7090269282  1.2200241324  1.0669719580
C   1.2486261098 -0.5997025052 -0.1005626512
H   0.7943620433 -0.2861443150  1.1275205366
H   1.2059053651 -1.0721262350 -1.1101283670
H   2.1923990872 -0.9316451631  0.3322175766
7
Iter 34 Image 6  Energy = -153.8751286331
C   0.8734378330  0.8291935632 -0.0454173552
H   0.5921660042  1.3870408711 -0.9543248662
O   0.7158319671  1.3241405193  1.0477680777
C   1.2566549178 -0.5860320680 -0.0533721584
H   0.7782161185 -0.4968512723  1.0162464407
H   1.1578089071 -1.0794193008 -1.0507028003
H   2.2271259298 -0.8877054604  0.3337416083
7
Iter 34 Image 7  Energy = -153.9160103679
C   0.8742548680  0.8759264814 -0.0204142528
H   0.6598882631  1.4093543830 -0.9612602836
O   0.6609033104  1.4207936316  1.0327360186
C   1.2804174677 -0.5630004498 -0.0128656038
H   0.7537524762 -0.7510735287  0.9286817311
H   1.0731606059 -1.0935594751 -0.9518451404
H   2.2988647009 -0.8080744375  0.2789066467
7
Iter 34 Image 8  Energy = -153.9292674813
C   0.8680323107  0.8926626786 -0.0075544972
H   0.7484324146  1.3960692218 -0.9863254823
O   0.6549617506  1.5118697391  1.0015664092
C   1.2615722419 -0.5591541247  0.0284528133
H   0.7508307978 -0.9328529043  0.9087647696
H   0.9923326689 -1.1145076897 -0.8725685190
H   2.3250793470 -0.7037200759  0.2216035294
7
Iter 34 Image 9  Energy = -153.9313335937
C   0.8410332333  0.8903290434  0.0041628865
H   0.8397190637  1.3342700248 -1.0107004983
O   0.5517216247  1.5656957525  0.9543288993
C   1.2525966133 -0.5557498079  0.0749622339
H   0.8305792531 -1.0348300899  0.9528433100
H   0.9453996861 -1.0899938312 -0.8236996337
H   2.3401921381 -0.6193542641  0.1420417067
7
Iter 34 Image 10  Energy = -153.9315896046
C   0.8153240858  0.8797906274 -0.0151479361
H   0.9202759727  1.3264141035 -1.0238126575
O   0.3648551052  1.5269483542  0.8889611932
C   1.2783042826 -0.5456767521  0.0987631972
H   0.9581936009 -0.9801210810  1.0396528838
H   0.8968808709 -1.1362919101 -0.7343863166
H   2.3674077169 -0.5806964919  0.0399083772
7
Iter 34 Image 11  Energy = -153.9315568446
C   0.7840367852  0.8656586589 -0.0371164025
H   0.9809293880  1.3403901038 -1.0231241499
O   0.1875804579  1.4681235287  0.8223429327
C   1.3100769769 -0.5359012779  0.1153731248
H   1.0639489065 -0.9236344469  1.1059940899
H   0.8779311114 -1.1816924395 -0.6582837811
H   2.3967379442 -0.5425772870 -0.0312469938
7
Iter 35 Image 0  Energy = -153.9146221658
C   0.8260657415  0.5508603911 -0.1261794589
H   0.4554445983  1.2417513435 -0.8784317668
O   0.5680753083  1.0246514429  1.1187434847
C   1.4411098584 -0.5873603774 -0.4363613732
H   0.9099091373  0.3932317500  1.7666320721
H   1.5916834696 -0.8592929697 -1.4741885892
H   1.8089534565 -1.2734747403  0.3237244514
7
Iter 35 Image 1  Energy = -153.9108514868
C   0.8529444093  0.5929018660 -0.1561208759
H   0.4830763711  1.2801756973 -0.9080554495
O   0.7058068158  1.0538199872  1.1160462181
C   1.4153512015 -0.5777776195 -0.4172570375
H   0.8168861040  0.2742597370  1.6672136092
H   1.4122044719 -1.0298001701 -1.3948509715
H   1.9149720960 -1.1032126620  0.3869635042
7
Iter 35 Image 2  Energy = -153.8981532324
C   0.8632953425  0.6377236377 -0.1582005598
H   0.5227562412  1.3332425785 -0.9194110515
O   0.7423076586  1.0304416929  1.1363066982
C   1.3664284759 -0.5667946147 -0.3582664136
H   0.7811234152  0.1286601904  1.4803611511
H   1.3163469598 -1.0769455880 -1.2919701155
H   2.0089834815 -0.9959610564  0.4051192626
7
Iter 35 Image 3  Energy = -153.8706870029
C   0.8717799155  0.6812783978 -0.1400534780
H   0.5710814171  1.3708860769 -0.9281683309
O   0.7184390184  1.0185443261  1.1462422671
C   1.3205000223 -0.5739498294 -0.2676535467
H   0.7587181473  0.0208268676  1.3049037832
H   1.2340233290 -1.0869243235 -1.1897695487
H   2.1266998182 -0.9402946626  0.3684379077
7
Iter 35 Image 4  Energy = -153.8333115199
C   0.8738762753  0.7209887347 -0.1119286275
H   0.5878519469  1.3773940552 -0.9361505638
O   0.7063106854  1.0999093448  1.1228893785
C   1.2843654356 -0.5818955051 -0.1863788848
H   0.7666539570 -0.1122977017  1.1962804850
H   1.2054710500 -1.0844073338 -1.1326913333
H   2.1767122599 -0.9293246239  0.3419184246
7
Iter 35 Image 5  Energy = -153.8350084320
C   0.8678558472  0.7793666005 -0.0753771049
H   0.5901276095  1.3830313396 -0.9499249232
O   0.7053342685  1.2171403108  1.0671207504
C   1.2505794454 -0.5980085291 -0.0978345581
H   0.7945728798 -0.2887578812  1.1209992430
H   1.1959043327 -1.0763039033 -1.1006113210
H   2.1968671707 -0.9261009364  0.3295667377
7
Iter 35 Image 6  Energy = -153.8753673626
C   0.8753520133  0.8286872448 -0.0469794419
H   0.5921676912  1.3857148672 -0.9580175261
O   0.7196793523  1.3243225789  1.0447011175
C   1.2566395697 -0.5848050221 -0.0513904936
H   0.7751965561 -0.4950126116  1.0185038366
H   1.1537177684 -1.0826688508 -1.0454680066
H   2.2284886848 -0.8858712755  0.3325893876
7
Iter 35 Image 7  Energy = -153.9159568514
C   0.8774797961  0.8768970869 -0.0207954094
H   0.6440194522  1.4017577934 -0.9622778478
O   0.6809033104  1.4278442381  1.0335187382
C   1.2792956043 -0.5636607309 -0.0119795753
H   0.7420243092 -0.7540775915  0.9253667025
H   1.0830567863 -1.0852006355 -0.9584397917
H   2.2944624435 -0.8131935507  0.2885463088
7
Iter 35 Image 8  Energy = -153.9292565406
C   0.8687182727  0.8941749986 -0.0058776307
H   0.7429469494  1.3975151341 -0.9850058124
O   0.6527042728  1.5145358239  1.0005608791
C   1.2626517978 -0.5588905662  0.0300318647
H   0.7505683262 -0.9370195764  0.9085133274
H   0.9983392818 -1.1074554050 -0.8773472512
H   2.3253126353 -0.7124935824  0.2230636398
7
Iter 35 Image 9  Energy = -153.9313097399
C   0.8413170590  0.8914261768  0.0020955324
H   0.8388739905  1.3394689798 -1.0105928846
O   0.5463677263  1.5680219905  0.9520785838
C   1.2543883219 -0.5556739596  0.0763292238
H   0.8331645686 -1.0370794623  0.9537285984
H   0.9449707426 -1.0927825002 -0.8198841227
H   2.3421592082 -0.6230143903  0.1401839822
7
Iter 35 Image 10  Energy = -153.9315723008
C   0.8153512419  0.8814752823 -0.0154731306
H   0.9186622607  1.3301343172 -1.0239808507
O   0.3630758796  1.5279888545  0.8869480531
C   1.2793550049 -0.5453362989  0.0993558375
H   0.9593203249 -0.9825188789  1.0391342209
H   0.8971016109 -1.1379535285 -0.7318849431
H   2.3683753063 -0.5834228911  0.0398395722
7
Iter 35 Image 11  Energy = -153.9315568446
C   0.7840367852  0.8656586589 -0.0371164025
H   0.9809293880  1.3403901038 -1.0231241499
O   0.1875804579  1.4681235287  0.8223429327
C   1.3100769769 -0.5359012779  0.1153731248
H   1.0639489065 -0.9236344469  1.1059940899
H   0.8779311114 -1.1816924395 -0.6582837811
H   2.3967379442 -0.5425772870 -0.0312469938
7
Iter 36 Image 0  Energy = -153.9146221658
C   0.8260657415  0.5508603911 -0.1261794589
H   0.4554445983  1.2417513435 -0.8784317668
O   0.5680753083  1.0246514429  1.1187434847
C   1.4411098584 -0.5873603774 -0.4363613732
H   0.9099091373  0.3932317500  1.7666320721
H   1.5916834696 -0.8592929697 -1.4741885892
H   1.8089534565 -1.2734747403  0.3237244514
7
Iter 36 Image 1  Energy = -153.9108886677
C   0.8539769169  0.5940505051 -0.1554389856
H   0.4794423966  1.2772330516 -0.9090736249
O   0.7101330131  1.0554601853  1.1165764395
C   1.4117114464 -0.5792653190 -0.4155852266
H   0.8151588743  0.2725372552  1.6656826935
H   1.4163955327 -1.0252606560 -1.3951986709
H   1.9144232923 -1.1043881991  0.3869763573
7
Iter 36 Image 2  Energy = -153.8981951376
C   0.8638085742  0.6412048397 -0.1588287873
H   0.5196692139  1.3308046090 -0.9236699423
O   0.7425838612  1.0284674267  1.1361511714
C   1.3649232643 -0.5665986345 -0.3573949564
H   0.7877571176  0.1266147858  1.4793240740
H   1.3185663241 -1.0758390415 -1.2895390409
H   2.0039332445 -0.9942871824  0.4078964716
7
Iter 36 Image 3  Energy = -153.8711092710
C   0.8759305560  0.6834155205 -0.1425438324
H   0.5721069768  1.3722706319 -0.9290783028
O   0.7179751656  1.0131486803  1.1470627534
C   1.3257760112 -0.5700840827 -0.2690351851
H   0.7543248062  0.0191674468  1.3082049780
H   1.2280442885 -1.0917831756 -1.1893431084
H   2.1270838454 -0.9357681129  0.3686717121
7
Iter 36 Image 4  Energy = -153.8337613078
C   0.8775507950  0.7205876750 -0.1137168401
H   0.5908012896  1.3789210981 -0.9377847041
O   0.7048152158  1.0961822782  1.1229890531
C   1.2871297186 -0.5799755043 -0.1867954168
H   0.7648186343 -0.1108175010  1.1943126020
H   1.1961417989 -1.0910708971 -1.1268942222
H   2.1799841311 -0.9234601425  0.3418283377
7
Iter 36 Image 5  Energy = -153.8361409819
C   0.8707731450  0.7818940106 -0.0759698963
H   0.5937384684  1.3848925667 -0.9514886792
O   0.7030219299  1.2149105806  1.0652204151
C   1.2510667066 -0.5976075725 -0.0938474249
H   0.7948109042 -0.2913431697  1.1164537457
H   1.1872963332 -1.0815676141 -1.0945367553
H   2.2005340386 -0.9208118022  0.3281073776
7
Iter 36 Image 6  Energy = -153.8762063774
C   0.8787558320  0.8301543686 -0.0497969225
H   0.5944126963  1.3859764823 -0.9607999447
O   0.7212298755  1.3230845362  1.0423750550
C   1.2572673067 -0.5851437915 -0.0492158779
H   0.7724316093 -0.4947983598  1.0188210793
H   1.1459609187 -1.0884602071 -1.0377827330
H   2.2311833411 -0.8804460193  0.3303381481
7
Iter 36 Image 7  Energy = -153.9162053967
C   0.8827830329  0.8774111584 -0.0203512666
H   0.6303712345  1.3952059840 -0.9640807941
O   0.7009033104  1.4322245316  1.0317610377
C   1.2775814913 -0.5633817024 -0.0103255250
H   0.7297529177 -0.7560482330  0.9212044387
H   1.0886025888 -1.0815953294 -0.9606590824
H   2.2912471306 -0.8134497740  0.2963903020
7
Iter 36 Image 8  Energy = -153.9293295619
C   0.8711815589  0.8955724788 -0.0050835140
H   0.7357019149  1.3966594411 -0.9835600533
O   0.6566497474  1.5179150316  1.0017825072
C   1.2628242170 -0.5592538908  0.0313019537
H   0.7454898865 -0.9435877740  0.9057500151
H   1.0050931791 -1.0995069787 -0.8821532221
H   2.3243010436 -0.7174315009  0.2259013288
7
Iter 36 Image 9  Energy = -153.9312806258
C   0.8423209553  0.8927681803  0.0019803116
H   0.8376745048  1.3416550804 -1.0107469051
O   0.5456688089  1.5704564217  0.9507058447
C   1.2545674158 -0.5558896620  0.0777678414
H   0.8329785130 -1.0413022531  0.9535389509
H   0.9454163461 -1.0930078213 -0.8187000621
H   2.3426150742 -0.6243131029  0.1393929348
7
Iter 36 Image 10  Energy = -153.9315629071
C   0.8156496976  0.8823288751 -0.0158395229
H   0.9175997431  1.3317802166 -1.0242208505
O   0.3630839687  1.5300674993  0.8864246811
C   1.2796087963 -0.5452470828  0.1000351540
H   0.9593351485 -0.9857876574  1.0386362258
H   0.8973471572 -1.1378753224 -0.7311553149
H   2.3686171143 -0.5848996659  0.0400583957
7
Iter 36 Image 11  Energy = -153.9315568446
C   0.7840367852  0.8656586589 -0.0371164025
H   0.9809293880  1.3403901038 -1.0231241499
O   0.1875804579  1.4681235287  0.8223429327
C   1.3100769769 -0.5359012779  0.1153731248
H   1.0639489065 -0.9236344469  1.1059940899
H   0.8779311114 -1.1816924395 -0.6582837811
H   2.3967379442 -0.5425772870 -0.0312469938
7
Iter 37 Image 0  Energy = -153.9146221658
C   0.8260657415  0.5508603911 -0.1261794589
H   0.4554445983  1.2417513435 -0.8784317668
O   0.5680753083  1.0246514429  1.1187434847
C   1.4411098584 -0.5873603774 -0.4363613732
H   0.9099091373  0.3932317500  1.7666320721
H   1.5916834696 -0.8592929697 -1.4741885892
H   1.8089534565 -1.2734747403  0.3237244514
7
Iter 37 Image 1  Energy = -153.9108990372
C   0.8556979110  0.5949708030 -0.1552597959
H   0.4751962624  1.2741852081 -0.9101927893
O   0.7144706656  1.0567375081  1.1173388313
C   1.4078417559 -0.5801980801 -0.4136108310
H   0.8140958797  0.2710811454  1.6638090140
H   1.4208650337 -1.0210586941 -1.3956347137
H   1.9130739702 -1.1053510853  0.3874892575
7
Iter 37 Image 2  Energy = -153.8981542603
C   0.8671780754  0.6421992882 -0.1605309791
H   0.5173199458  1.3302144106 -0.9272458424
O   0.7415971721  1.0259904513  1.1357014111
C   1.3641141002 -0.5628291031 -0.3576812204
H   0.7933728693  0.1235332587  1.4797636560
H   1.3179818730 -1.0779987169 -1.2874223677
H   1.9996775865 -0.9907428193  0.4113543436
7
Iter 37 Image 3  Energy = -153.8716092340
C   0.8817801863  0.6844695439 -0.1434032248
H   0.5733595612  1.3747900246 -0.9298007876
O   0.7169703676  1.0082495744  1.1468241373
C   1.3312286724 -0.5679554275 -0.2756149985
H   0.7490295181  0.0185230543  1.3121563890
H   1.2199577869 -1.0981286134 -1.1864915803
H   2.1289155263 -0.9295811847  0.3702690185
7
Iter 37 Image 4  Energy = -153.8343460722
C   0.8818078745  0.7211434384 -0.1161405640
H   0.5947633378  1.3807614250 -0.9386761317
O   0.7026031712  1.0920769302  1.1223209083
C   1.2907006015 -0.5795489453 -0.1880035943
H   0.7628845249 -0.1079158708  1.1920331358
H   1.1838467189 -1.1004261013 -1.1197402843
H   2.1846353183 -0.9157238466  0.3421452459
7
Iter 37 Image 5  Energy = -153.8375378423
C   0.8754687834  0.7826816895 -0.0787759167
H   0.5981621646  1.3877206026 -0.9527138337
O   0.6993686561  1.2149512418  1.0652010442
C   1.2518640482 -0.5969716584 -0.0916699427
H   0.7942656213 -0.2953696193  1.1120323885
H   1.1759970585 -1.0889840934 -1.0868935886
H   2.2061151630 -0.9136611557  0.3267585758
7
Iter 37 Image 6  Energy = -153.8772556231
C   0.8834101438  0.8312877596 -0.0529526654
H   0.5991740368  1.3879146730 -0.9636239391
O   0.7199808010  1.3201934708  1.0399599165
C   1.2573088830 -0.5850023038 -0.0463783963
H   0.7703142813 -0.4941978138  1.0184921868
H   1.1345687604 -1.0969744869 -1.0282163139
H   2.2364846096 -0.8728542214  0.3266579435
7
Iter 37 Image 7  Energy = -153.9164403976
C   0.8895152149  0.8769058197 -0.0255763333
H   0.6182395588  1.3882525414 -0.9655858681
O   0.7209033104  1.4367100544  1.0329190478
C   1.2764229415 -0.5642669920 -0.0089109155
H   0.7167641758 -0.7553997226  0.9174399346
H   1.0909567701 -1.0809455165 -0.9596910145
H   2.2884397280 -0.8108894969  0.3033442220
7
Iter 37 Image 8  Energy = -153.9293941090
C   0.8743800300  0.8971990265 -0.0024829862
H   0.7264495199  1.3944816126 -0.9822586661
O   0.6645231759  1.5203380070  1.0025970837
C   1.2625665073 -0.5594258147  0.0327738825
H   0.7375926242 -0.9502872371  0.9011405625
H   1.0128176217 -1.0905112940 -0.8878169495
H   2.3229120799 -0.7214275170  0.2299860863
7
Iter 37 Image 9  Energy = -153.9312332216
C   0.8439539040  0.8933197413  0.0012429731
H   0.8363533543  1.3426724600 -1.0109561999
O   0.5458271838  1.5731263015  0.9506429881
C   1.2543795042 -0.5561249702  0.0791242793
H   0.8319837783 -1.0453248440  0.9533504369
H   0.9461167283 -1.0922672431 -0.8181439358
H   2.3426271681 -0.6250345988  0.1386783732
7
Iter 37 Image 10  Energy = -153.9315378442
C   0.8155623033  0.8834113249 -0.0153864975
H   0.9167746877  1.3326858271 -1.0245517500
O   0.3638540454  1.5317216946  0.8855333920
C   1.2796673965 -0.5452806407  0.1007232728
H   0.9590985910 -0.9890173262  1.0383124705
H   0.8975894956 -1.1371315073 -0.7309453776
H   2.3686951017 -0.5860225036  0.0402532656
7
Iter 37 Image 11  Energy = -153.9315568446
C   0.7840367852  0.8656586589 -0.0371164025
H   0.9809293880  1.3403901038 -1.0231241499
O   0.1875804579  1.4681235287  0.8223429327
C   1.3100769769 -0.5359012779  0.1153731248
H   1.0639489065 -0.9236344469  1.1059940899
H   0.8779311114 -1.1816924395 -0.6582837811
H   2.3967379442 -0.5425772870 -0.0312469938
7
Iter 38 Image 0  Energy = -153.9146221658
C   0.8260657415  0.5508603911 -0.1261794589
H   0.4554445983  1.2417513435 -0.8784317668
O   0.5680753083  1.0246514429  1.1187434847
C   1.4411098584 -0.5873603774 -0.4363613732
H   0.9099091373  0.3932317500  1.7666320721
H   1.5916834696 -0.8592929697 -1.4741885892
H   1.8089534565 -1.2734747403  0.3237244514
7
Iter 38 Image 1  Energy = -153.9109079172
C   0.8578122681  0.5960895210 -0.1553508054
H   0.4706411199  1.2712495241 -0.9113145435
O   0.7182742993  1.0580815357  1.1174881422
C   1.4041874508 -0.5811785188 -0.4120627034
H   0.8147382297  0.2700969871  1.6624245456
H   1.4253956636 -1.0176515406 -1.3959849984
H   1.9101924504 -1.1063207312  0.3887393291
7
Iter 38 Image 2  Energy = -153.8982597038
C   0.8716758672  0.6446411138 -0.1625637617
H   0.5159319400  1.3310964338 -0.9291718488
O   0.7396050502  1.0225200956  1.1346991443
C   1.3663181984 -0.5601900093 -0.3613729876
H   0.7974115306  0.1205774826  1.4827087193
H   1.3148859286 -1.0828399002 -1.2854722202
H   1.9954131240 -0.9854384710  0.4151119590
7
Iter 38 Image 3  Energy = -153.8723432499
C   0.8886208436  0.6849083975 -0.1462310932
H   0.5745122886  1.3770220088 -0.9292253123
O   0.7163996032  1.0036986077  1.1458778540
C   1.3377454166 -0.5655252666 -0.2803793348
H   0.7434320963  0.0196614929  1.3177015748
H   1.2106398671 -1.1073213559 -1.1859941260
H   2.1298914595 -0.9220768479  0.3721892965
7
Iter 38 Image 4  Energy = -153.8349538492
C   0.8871277378  0.7206189055 -0.1196756072
H   0.5988565972  1.3826096269 -0.9391092721
O   0.7003188782  1.0887447142  1.1212666749
C   1.2937152438 -0.5791609739 -0.1886439633
H   0.7613940172 -0.1035059163  1.1894685578
H   1.1697779623 -1.1120183407 -1.1125266152
H   2.1900510683 -0.9069209710  0.3431588288
7
Iter 38 Image 5  Energy = -153.8390342644
C   0.8804505842  0.7847758566 -0.0787462178
H   0.6026891346  1.3906279373 -0.9536772362
O   0.6963599839  1.2139959727  1.0619737544
C   1.2535339320 -0.5971005317 -0.0896904658
H   0.7932525135 -0.2988332414  1.1071194463
H   1.1629763344 -1.0980692559 -1.0787764056
H   2.2119789770 -0.9050297158  0.3257357768
7
Iter 38 Image 6  Energy = -153.8785858418
C   0.8890418096  0.8325365133 -0.0570181734
H   0.6060585985  1.3909841087 -0.9661828505
O   0.7161396010  1.3171974976  1.0381711534
C   1.2575832306 -0.5854369670 -0.0436876671
H   0.7687882903 -0.4943593076  1.0177215441
H   1.1202417260 -1.1071832841 -1.0168622982
H   2.2433881901 -0.8633714259  0.3217969433
7
Iter 38 Image 7  Energy = -153.9169276692
C   0.8966828190  0.8787955919 -0.0266342360
H   0.6087267978  1.3817458411 -0.9679765380
O   0.7409033104  1.4376527507  1.0285555524
C   1.2749140282 -0.5654643497 -0.0072668422
H   0.7038124453 -0.7534832817  0.9135021616
H   1.0890258458 -1.0841400527 -0.9548819330
H   2.2871764350 -0.8047397287  0.3086408452
7
Iter 38 Image 8  Energy = -153.9294937243
C   0.8785735955  0.8978150746 -0.0005366697
H   0.7159202214  1.3903606974 -0.9810164585
O   0.6763809401  1.5233116594  1.0051278063
C   1.2616272672 -0.5595147384  0.0342774745
H   0.7267462917 -0.9576804871  0.8946702407
H   1.0209475172 -1.0807228466 -0.8937169852
H   2.3210457381 -0.7232026046  0.2351336044
7
Iter 38 Image 9  Energy = -153.9312042515
C   0.8457411190  0.8939609899  0.0016679763
H   0.8351312206  1.3417372997 -1.0112811248
O   0.5481540301  1.5750334726  0.9508791384
C   1.2534778578 -0.5565383219  0.0802417649
H   0.8297557595 -1.0493019704  0.9529279864
H   0.9471434647 -1.0900148585 -0.8187964873
H   2.3418381682 -0.6245097614  0.1382996546
7
Iter 38 Image 10  Energy = -153.9315362868
C   0.8159070068  0.8835280171 -0.0155663052
H   0.9163046656  1.3323443280 -1.0248181001
O   0.3652764504  1.5339259832  0.8860500093
C   1.2792917894 -0.5454216824  0.1013634436
H   0.9582335758 -0.9921352740  1.0380953190
H   0.8978247903 -1.1353942400 -0.7317564526
H   2.3684033373 -0.5864802582  0.0405708649
7
Iter 38 Image 11  Energy = -153.9315568446
C   0.7840367852  0.8656586589 -0.0371164025
H   0.9809293880  1.3403901038 -1.0231241499
O   0.1875804579  1.4681235287  0.8223429327
C   1.3100769769 -0.5359012779  0.1153731248
H   1.0639489065 -0.9236344469  1.1059940899
H   0.8779311114 -1.1816924395 -0.6582837811
H   2.3967379442 -0.5425772870 -0.0312469938
7
Iter 39 Image 0  Energy = -153.9146221658
C   0.8260657415  0.5508603911 -0.1261794589
H   0.4554445983  1.2417513435 -0.8784317668
O   0.5680753083  1.0246514429  1.1187434847
C   1.4411098584 -0.5873603774 -0.4363613732
H   0.9099091373  0.3932317500  1.7666320721
H   1.5916834696 -0.8592929697 -1.4741885892
H   1.8089534565 -1.2734747403  0.3237244514
7
Iter 39 Image 1  Energy = -153.9109399489
C   0.8594632092  0.5985926987 -0.1553239807
H   0.4661724865  1.2679745383 -0.9122700033
O   0.7214077632  1.0594088851  1.1171177603
C   1.4016867861 -0.5833245991 -0.4114229136
H   0.8169181046  0.2696514835  1.6615488484
H   1.4297404806 -1.0142163022 -1.3961239796
H   1.9058526592 -1.1077199756  0.3904132185
7
Iter 39 Image 2  Energy = -153.8985951654
C   0.8761902911  0.6497094280 -0.1647534433
H   0.5158245311  1.3327562044 -0.9290251125
O   0.7362246040  1.0174856762  1.1331972194
C   1.3734708675 -0.5599834097 -0.3675140164
H   0.7996472744  0.1192745812  1.4888904531
H   1.3090629495 -1.0904011990 -1.2850520070
H   1.9908211321 -0.9784745504  0.4181958994
7
Iter 39 Image 3  Energy = -153.8733651483
C   0.8954513368  0.6860350902 -0.1520046606
H   0.5761478482  1.3776492637 -0.9273516404
O   0.7163301443  1.0002541045  1.1437946145
C   1.3458849793 -0.5648991490 -0.2844234154
H   0.7379052431  0.0245088369  1.3260453347
H   1.1991988980 -1.1197051166 -1.1868316591
H   2.1303230690 -0.9134759167  0.3747101286
7
Iter 39 Image 4  Energy = -153.8356567534
C   0.8921559544  0.7204261014 -0.1225556952
H   0.6041977309  1.3836615990 -0.9398389003
O   0.6980497838  1.0861103144  1.1182613703
C   1.2977153127 -0.5821214474 -0.1900251378
H   0.7604914196 -0.0949831011  1.1856617866
H   1.1516220398 -1.1263050930 -1.1019782965
H   2.1970092115 -0.8964213231  0.3444133141
7
Iter 39 Image 5  Energy = -153.8409514971
C   0.8861039550  0.7871328776 -0.0828882210
H   0.6092360140  1.3925766932 -0.9539912327
O   0.6927531398  1.2144428505  1.0602786491
C   1.2565593551 -0.5963775439 -0.0857234999
H   0.7917633324 -0.3028829929  1.1001068897
H   1.1447539089 -1.1109973743 -1.0686533719
H   2.2200717061 -0.8935274520  0.3248093229
7
Iter 39 Image 6  Energy = -153.8802506581
C   0.8945771829  0.8351667906 -0.0592427176
H   0.6163861223  1.3946154888 -0.9690778797
O   0.7092937708  1.3135722332  1.0339591986
C   1.2597567458 -0.5871953695 -0.0406694328
H   0.7684816973 -0.4947385670  1.0164452619
H   1.1012087066 -1.1194148430 -1.0023768917
H   2.2515371414 -0.8516385465  0.3149010019
7
Iter 39 Image 7  Energy = -153.9175718156
C   0.9059558643  0.8770420445 -0.0344531242
H   0.6022013790  1.3744269958 -0.9713671886
O   0.7609033104  1.4422909824  1.0280124180
C   1.2728891030 -0.5659543725 -0.0039837563
H   0.6902446406 -0.7511188775  0.9090192881
H   1.0811958566 -1.0917497999 -0.9456236387
H   2.2878514875 -0.7945700791  0.3123349155
7
Iter 39 Image 8  Energy = -153.9296185377
C   0.8830045721  0.8985569818  0.0026767037
H   0.7035315841  1.3829572948 -0.9797192270
O   0.6932290635  1.5263830356  1.0077921505
C   1.2603613895 -0.5597965539  0.0356359392
H   0.7125390361 -0.9659584760  0.8857716631
H   1.0299442820 -1.0687806532 -0.9000544713
H   2.3186316658 -0.7229949013  0.2418362495
7
Iter 39 Image 9  Energy = -153.9312223313
C   0.8472286352  0.8947897281  0.0037728326
H   0.8344333665  1.3388707713 -1.0117773289
O   0.5518614264  1.5750042414  0.9506837456
C   1.2521327707 -0.5568705232  0.0811107032
H   0.8269486814 -1.0518235366  0.9527151093
H   0.9481388542 -1.0865161290 -0.8203945719
H   2.3404978873 -0.6230876940  0.1378284135
7
Iter 39 Image 10  Energy = -153.9315364177
C   0.8162139234  0.8833482365 -0.0153646904
H   0.9161463649  1.3309412680 -1.0250008955
O   0.3677524293  1.5355508220  0.8870945895
C   1.2786056421 -0.5456936248  0.1017969196
H   0.9566582601 -0.9944347089  1.0379750899
H   0.8980418650 -1.1327855882 -0.7336105325
H   2.3678231256 -0.5865595264  0.0410482965
7
Iter 39 Image 11  Energy = -153.9315568446
C   0.7840367852  0.8656586589 -0.0371164025
H   0.9809293880  1.3403901038 -1.0231241499
O   0.1875804579  1.4681235287  0.8223429327
C   1.3100769769 -0.5359012779  0.1153731248
H   1.0639489065 -0.9236344469  1.1059940899
H   0.8779311114 -1.1816924395 -0.6582837811
H   2.3967379442 -0.5425772870 -0.0312469938
7
Iter 40 Image 0  Energy = -153.9146221658
C   0.8260657415  0.5508603911 -0.1261794589
H   0.4554445983  1.2417513435 -0.8784317668
O   0.5680753083  1.0246514429  1.1187434847
C   1.4411098584 -0.5873603774 -0.4363613732
H   0.9099091373  0.3932317500  1.7666320721
H   1.5916834696 -0.8592929697 -1.4741885892
H   1.8089534565 -1.2734747403  0.3237244514
7
Iter 40 Image 1  Energy = -153.9109854360
C   0.8612683729  0.5994745094 -0.1560205149
H   0.4625932248  1.2656440351 -0.9129416043
O   0.7229850610  1.0598864842  1.1170414384
C   1.4003299338 -0.5836351050 -0.4110412455
H   0.8202604605  0.2704312122  1.6610861122
H   1.4328485330 -1.0124761291 -1.3966468699
H   1.9009559113 -1.1089583326  0.3924616184
7
Iter 40 Image 2  Energy = -153.8988119266
C   0.8826182275  0.6499790688 -0.1674810124
H   0.5172556230  1.3364955554 -0.9269402768
O   0.7319563259  1.0131119834  1.1315528706
C   1.3814653986 -0.5560278099 -0.3744354556
H   0.7988468952  0.1188632585  1.4967299743
H   1.3005657557 -1.1008791279 -1.2861963336
H   1.9885334233 -0.9711761961  0.4207091976
7
Iter 40 Image 3  Energy = -153.8744579206
C   0.9021003117  0.6839112997 -0.1561952732
H   0.5775604081  1.3783270046 -0.9258302210
O   0.7164830106  0.9998349019  1.1404229177
C   1.3518178180 -0.5659483656 -0.2923606922
H   0.7335854573  0.0318456514  1.3347765287
H   1.1880748077 -1.1319234012 -1.1853884921
H   2.1316196451 -0.9056799160  0.3785137575
7
Iter 40 Image 4  Energy = -153.8363523908
C   0.8970642578  0.7173770946 -0.1263883895
H   0.6096731026  1.3843765800 -0.9403194456
O   0.6959972749  1.0847409891  1.1158116944
C   1.3003194463 -0.5837570524 -0.1912470597
H   0.7601122067 -0.0846478469  1.1810121266
H   1.1330673464 -1.1413136112 -1.0910338225
H   2.2050077625 -0.8864091045  0.3461031659
7
Iter 40 Image 5  Energy = -153.8426547302
C   0.8913372853  0.7883140675 -0.0849112600
H   0.6160034183  1.3947171254 -0.9542810860
O   0.6894373408  1.2150216867  1.0576550752
C   1.2603217961 -0.5954197665 -0.0848740555
H   0.7894847939 -0.3058073002  1.0931731560
H   1.1253574305 -1.1251580444 -1.0574334411
H   2.2292993024 -0.8813006732  0.3246100133
7
Iter 40 Image 6  Energy = -153.8819164206
C   0.8994156160  0.8360334738 -0.0647626399
H   0.6285433075  1.3986198626 -0.9706544503
O   0.6994874272  1.3113298978  1.0334135740
C   1.2618531948 -0.5881611924 -0.0376181616
H   0.7698673049 -0.4953154148  1.0139429755
H   1.0812087066 -1.1320637785 -0.9882683772
H   2.2608657400 -0.8400756336  0.3078855161
7
Iter 40 Image 7  Energy = -153.9184214260
C   0.9130448338  0.8784415768 -0.0366320507
H   0.6019840446  1.3692775827 -0.9752923353
O   0.7757713649  1.4431011156  1.0213129257
C   1.2718519530 -0.5672731589 -0.0012652115
H   0.6802897322 -0.7479392002  0.9057865996
H   1.0680154864 -1.1033720311 -0.9324837284
H   2.2902841717 -0.7818688554  0.3125125990
7
Iter 40 Image 8  Energy = -153.9297473750
C   0.8870082101  0.8980828644  0.0050559369
H   0.6918047435  1.3740965094 -0.9785426463
O   0.7122508007  1.5294910414  1.0114906232
C   1.2588548008 -0.5599226247  0.0366301311
H   0.6976820982 -0.9727491865  0.8757638391
H   1.0375393196 -1.0581978073 -0.9055639548
H   2.3161016419 -0.7204340894  0.2491050720
7
Iter 40 Image 9  Energy = -153.9312236598
C   0.8489535260  0.8936422828  0.0042811335
H   0.8341516987  1.3344240686 -1.0121178734
O   0.5560025451  1.5749520670  0.9529992269
C   1.2505308893 -0.5569570043  0.0814490282
H   0.8237786362 -1.0523230680  0.9525636675
H   0.9490363875 -1.0823262795 -0.8229407475
H   2.3387879394 -0.6210451993  0.1377044615
7
Iter 40 Image 10  Energy = -153.9315427097
C   0.8167344555  0.8823535299 -0.0154062857
H   0.9164475274  1.3284669961 -1.0250522064
O   0.3704137364  1.5367293980  0.8890505183
C   1.2776823765 -0.5459965554  0.1019681957
H   0.9547902014 -0.9954359310  1.0380225946
H   0.8981530953 -1.1297349248 -0.7361767976
H   2.3670202133 -0.5860156311  0.0415327513
7
Iter 40 Image 11  Energy = -153.9315568446
C   0.7840367852  0.8656586589 -0.0371164025
H   0.9809293880  1.3403901038 -1.0231241499
O   0.1875804579  1.4681235287  0.8223429327
C   1.3100769769 -0.5359012779  0.1153731248
H   1.0639489065 -0.9236344469  1.1059940899
H   0.8779311114 -1.1816924395 -0.6582837811
H   2.3967379442 -0.5425772870 -0.0312469938
7
Iter 41 Image 0  Energy = -153.9146221658
C   0.8260657415  0.5508603911 -0.1261794589
H   0.4554445983  1.2417513435 -0.8784317668
O   0.5680753083  1.0246514429  1.1187434847
C   1.4411098584 -0.5873603774 -0.4363613732
H   0.9099091373  0.3932317500  1.7666320721
H   1.5916834696 -0.8592929697 -1.4741885892
H   1.8089534565 -1.2734747403  0.3237244514
7
Iter 41 Image 1  Energy = -153.9110977799
C   0.8620486613  0.5989719194 -0.1567339223
H   0.4610112146  1.2646411955 -0.9130309742
O   0.7221550338  1.0599776577  1.1164897355
C   1.4015717984 -0.5826406628 -0.4115853488
H   0.8247727707  0.2724092871  1.6622096724
H   1.4338619111 -1.0125903378 -1.3977517516
H   1.8958201166 -1.1104024359  0.3943415110
7
Iter 41 Image 2  Energy = -153.8990259478
C   0.8867770675  0.6503627317 -0.1693047012
H   0.5206070012  1.3405305033 -0.9221726203
O   0.7276443914  1.0110748605  1.1292786074
C   1.3918205761 -0.5557957402 -0.3848748974
H   0.7946271805  0.1206335761  1.5061644430
H   1.2908656118 -1.1110762044 -1.2869501468
H   1.9888997961 -0.9653629659  0.4217982228
7
Iter 41 Image 3  Energy = -153.8756177852
C   0.9058852632  0.6784732006 -0.1603138580
H   0.5786696149  1.3772384875 -0.9251102195
O   0.7181316655  1.0040636071  1.1354314876
C   1.3565687136 -0.5679302307 -0.2979454122
H   0.7321951065  0.0429299990  1.3439758210
H   1.1786011407 -1.1440332279 -1.1839064219
H   2.1311898853 -0.9003746334  0.3818069105
7
Iter 41 Image 4  Energy = -153.8370105176
C   0.8992423767  0.7140970506 -0.1317576165
H   0.6153713698  1.3829083871 -0.9405794928
O   0.6954188996  1.0849007547  1.1142675102
C   1.3031949873 -0.5861091697 -0.1916776840
H   0.7602295434 -0.0714771418  1.1751193474
H   1.1148561582 -1.1558625238 -1.0790060234
H   2.2129279992 -0.8780903366  0.3475720656
7
Iter 41 Image 5  Energy = -153.8439926598
C   0.8946999391  0.7878812359 -0.0828746985
H   0.6227358535  1.3963729791 -0.9556366725
O   0.6877555890  1.2151347030  1.0529469111
C   1.2650876059 -0.5940846604 -0.0870803020
H   0.7868225043 -0.3059390824  1.0853469568
H   1.1053574305 -1.1398847124 -1.0439386566
H   2.2387824055 -0.8691133325  0.3251746974
7
Iter 41 Image 6  Energy = -153.8835152852
C   0.9009815027  0.8379120116 -0.0636723557
H   0.6410208893  1.4018711831 -0.9718483406
O   0.6895976143  1.3086542422  1.0286762614
C   1.2637667330 -0.5880770776 -0.0370242899
H   0.7730887437 -0.4960585980  1.0099380412
H   1.0622336988 -1.1434976218 -0.9747262112
H   2.2705520579 -0.8304369107  0.3025952203
7
Iter 41 Image 7  Energy = -153.9193369169
C   0.9167611327  0.8791957989 -0.0402942052
H   0.6100507790  1.3664596002 -0.9795499272
O   0.7823244702  1.4461393761  1.0156801539
C   1.2716120527 -0.5689055508  0.0010813033
H   0.6763160457 -0.7464518546  0.9043778453
H   1.0496230972 -1.1177873799 -0.9159670041
H   2.2945539372 -0.7682828243  0.3086104877
7
Iter 41 Image 8  Energy = -153.9298943019
C   0.8891680088  0.8970711262  0.0084140845
H   0.6823959512  1.3640336870 -0.9777455714
O   0.7321799017  1.5325281472  1.0139072867
C   1.2570208954 -0.5596384870  0.0371933288
H   0.6843334939 -0.9779618118  0.8650687486
H   1.0423600335 -1.0503092715 -0.9095312193
H   2.3137833535 -0.7153566979  0.2566323296
7
Iter 41 Image 9  Energy = -153.9312625947
C   0.8491501165  0.8933486994  0.0072131135
H   0.8347273724  1.3288817728 -1.0124208619
O   0.5607332591  1.5717977633  0.9539240819
C   1.2490621917 -0.5570754655  0.0805458585
H   0.8210144547 -1.0496817968  0.9527147104
H   0.9494943689 -1.0781147393 -0.8259814761
H   2.3370598584 -0.6187893567  0.1379434608
7
Iter 41 Image 10  Energy = -153.9315560670
C   0.8168207020  0.8815628668 -0.0141987639
H   0.9172182646  1.3252744004 -1.0249588057
O   0.3736348402  1.5360321888  0.8905935399
C   1.2766837946 -0.5463775661  0.1014974993
H   0.9526802959 -0.9943478799  1.0381533368
H   0.8981171964 -1.1267376582 -0.7392278774
H   2.3660865089 -0.5850394703  0.0420798374
7
Iter 41 Image 11  Energy = -153.9315568446
C   0.7840367852  0.8656586589 -0.0371164025
H   0.9809293880  1.3403901038 -1.0231241499
O   0.1875804579  1.4681235287  0.8223429327
C   1.3100769769 -0.5359012779  0.1153731248
H   1.0639489065 -0.9236344469  1.1059940899
H   0.8779311114 -1.1816924395 -0.6582837811
H   2.3967379442 -0.5425772870 -0.0312469938
7
Iter 42 Image 0  Energy = -153.9146221658
C   0.8260657415  0.5508603911 -0.1261794589
H   0.4554445983  1.2417513435 -0.8784317668
O   0.5680753083  1.0246514429  1.1187434847
C   1.4411098584 -0.5873603774 -0.4363613732
H   0.9099091373  0.3932317500  1.7666320721
H   1.5916834696 -0.8592929697 -1.4741885892
H   1.8089534565 -1.2734747403  0.3237244514
7
Iter 42 Image 1  Energy = -153.9112587152
C   0.8608823934  0.5990627182 -0.1567457950
H   0.4617839070  1.2645203274 -0.9124804119
O   0.7193450964  1.0596308795  1.1155869062
C   1.4056306347 -0.5825307287 -0.4136798866
H   0.8293227105  0.2752635340  1.6645959101
H   1.4327591308 -1.0133811734 -1.3987042695
H   1.8915176443 -1.1121989846  0.3953664607
7
Iter 42 Image 2  Energy = -153.8992500458
C   0.8889626758  0.6477011984 -0.1706607202
H   0.5246639895  1.3437423896 -0.9164100787
O   0.7240958920  1.0106178914  1.1273504087
C   1.4023160737 -0.5553759144 -0.3921888302
H   0.7884016633  0.1260086514  1.5155784850
H   1.2820598527 -1.1199029294 -1.2900238147
H   1.9907414422 -0.9624244746  0.4202933668
7
Iter 42 Image 3  Energy = -153.8768055477
C   0.9050381785  0.6745533589 -0.1654428984
H   0.5798703407  1.3727780562 -0.9249985019
O   0.7211285036  1.0113922367  1.1302757505
C   1.3598950980 -0.5730451355 -0.3013598950
H   0.7339569208  0.0572978159  1.3523767230
H   1.1715302590 -1.1540127781 -1.1815585438
H   2.1298220176 -0.8985963457  0.3846454446
7
Iter 42 Image 4  Energy = -153.8374708891
C   0.8987352069  0.7104654061 -0.1340194314
H   0.6211657800  1.3801412823 -0.9422146449
O   0.6960354919  1.0856412848  1.1115826784
C   1.3065011924 -0.5887238031 -0.1915905200
H   0.7604910206 -0.0563672248  1.1679595611
H   1.0975225339 -1.1688877389 -1.0656784844
H   2.2207900486 -0.8719022135  0.3478987865
7
Iter 42 Image 5  Energy = -153.8449772369
C   0.8956758888  0.7876031658 -0.0877952508
H   0.6294071690  1.3950862052 -0.9564438291
O   0.6872830262  1.2176938946  1.0532437796
C   1.2710126282 -0.5930233233 -0.0876705846
H   0.7846030323 -0.3046781991  1.0770765903
H   1.0864521860 -1.1536255134 -1.0303469365
H   2.2468073637 -0.8586890886  0.3258742971
7
Iter 42 Image 6  Energy = -153.8850586646
C   0.9006854359  0.8368431293 -0.0673507997
H   0.6520956723  1.4031751781 -0.9727273720
O   0.6800726907  1.3114093480  1.0298992025
C   1.2675554532 -0.5877072359 -0.0366954163
H   0.7772281586 -0.4975342514  1.0049136169
H   1.0459304502 -1.1523707980 -0.9631144305
H   2.2776733403 -0.8234481413  0.2990134006
7
Iter 42 Image 7  Energy = -153.9203312113
C   0.9173529939  0.8788059094 -0.0409271848
H   0.6230883935  1.3655799068 -0.9848695578
O   0.7824856405  1.4510578435  1.0088740689
C   1.2707976174 -0.5688927907  0.0038292927
H   0.6777577654 -0.7474305559  0.9043678181
H   1.0296230972 -1.1321402410 -0.8996298031
H   2.3001359287 -0.7566127834  0.3022938666
7
Iter 42 Image 8  Energy = -153.9300569074
C   0.8892795649  0.8951890627  0.0101249668
H   0.6764319075  1.3538416518 -0.9770932538
O   0.7493089547  1.5368294565  1.0163096395
C   1.2557957273 -0.5593605195  0.0372111627
H   0.6744212272 -0.9819194611  0.8556487340
H   1.0441591712 -1.0450481312 -0.9115078696
H   2.3118451074 -0.7091653782  0.2632455900
7
Iter 42 Image 9  Energy = -153.9312911339
C   0.8491653722  0.8908066845  0.0073347724
H   0.8360562053  1.3236036339 -1.0123349746
O   0.5633144609  1.5687485564  0.9571456535
C   1.2481824337 -0.5567342583  0.0791601272
H   0.8195120131 -1.0440123140  0.9532482137
H   0.9491944804 -1.0749232210 -0.8288256048
H   2.3358166558 -0.6171221911  0.1382106881
7
Iter 42 Image 10  Energy = -153.9315561135
C   0.8177098071  0.8795323392 -0.0146141583
H   0.9181080876  1.3222754830 -1.0244982851
O   0.3757342975  1.5350829882  0.8937156133
C   1.2758174460 -0.5466122313  0.1006462121
H   0.9506404000 -0.9912950887  1.0382078164
H   0.8979380481 -1.1244648214 -0.7421729365
H   2.3652935123 -0.5841517867  0.0426544982
7
Iter 42 Image 11  Energy = -153.9315568446
C   0.7840367852  0.8656586589 -0.0371164025
H   0.9809293880  1.3403901038 -1.0231241499
O   0.1875804579  1.4681235287  0.8223429327
C   1.3100769769 -0.5359012779  0.1153731248
H   1.0639489065 -0.9236344469  1.1059940899
H   0.8779311114 -1.1816924395 -0.6582837811
H   2.3967379442 -0.5425772870 -0.0312469938
7
Iter 43 Image 0  Energy = -153.9146221658
C   0.8260657415  0.5508603911 -0.1261794589
H   0.4554445983  1.2417513435 -0.8784317668
O   0.5680753083  1.0246514429  1.1187434847
C   1.4411098584 -0.5873603774 -0.4363613732
H   0.9099091373  0.3932317500  1.7666320721
H   1.5916834696 -0.8592929697 -1.4741885892
H   1.8089534565 -1.2734747403  0.3237244514
7
Iter 43 Image 1  Energy = -153.9114335378
C   0.8595165399  0.5966327505 -0.1571732339
H   0.4642928561  1.2659220403 -0.9115585169
O   0.7147715944  1.0585319619  1.1151275495
C   1.4106912939 -0.5802965199 -0.4161156353
H   0.8338111172  0.2795320095  1.6680019247
H   1.4299288815 -1.0158947264 -1.4002261537
H   1.8882292445 -1.1140609830  0.3958829699
7
Iter 43 Image 2  Energy = -153.8994340482
C   0.8889636431  0.6431172199 -0.1715718257
H   0.5288369272  1.3460482117 -0.9105729505
O   0.7225675021  1.0122940731  1.1252663933
C   1.4111407321 -0.5557264211 -0.3970031465
H   0.7810237735  0.1341873745  1.5238588458
H   1.2749053515 -1.1270872788 -1.2932686952
H   1.9938036094 -0.9624662991  0.4172300834
7
Iter 43 Image 3  Energy = -153.8778975558
C   0.9019932119  0.6672306703 -0.1686366929
H   0.5800946188  1.3673831611 -0.9273941423
O   0.7255741736  1.0216123769  1.1245344582
C   1.3587629200 -0.5766501897 -0.3041417218
H   0.7388956013  0.0734826991  1.3586083990
H   1.1672331925 -1.1620131402 -1.1771100444
H   2.1286875381 -0.9006783900  0.3880776195
7
Iter 43 Image 4  Energy = -153.8377789770
C   0.8975267433  0.7047047504 -0.1366710090
H   0.6261623809  1.3771647184 -0.9447987302
O   0.6976326430  1.0871785235  1.1110226578
C   1.3092552272 -0.5882276794 -0.1917057435
H   0.7600377518 -0.0419658678  1.1602812800
H   1.0821610020 -1.1805980391 -1.0518678172
H   2.2284654715 -0.8678894533  0.3476771844
7
Iter 43 Image 5  Energy = -153.8453298025
C   0.8945936200  0.7869292885 -0.0883909535
H   0.6343446361  1.3931376694 -0.9584501125
O   0.6896647076  1.2180157992  1.0506395354
C   1.2761562999 -0.5903601148 -0.0889315449
H   0.7825835684 -0.3000912191  1.0689922534
H   1.0704453781 -1.1663503041 -1.0170792553
H   2.2534530573 -0.8509140027  0.3271579827
7
Iter 43 Image 6  Energy = -153.8864336037
C   0.8972759489  0.8375864732 -0.0665078024
H   0.6600846729  1.4030414778 -0.9734602607
O   0.6745480282  1.3140509212  1.0281629491
C   1.2724227776 -0.5867531099 -0.0375068549
H   0.7811892682 -0.4991171470  0.9987465905
H   1.0337216172 -1.1594913725 -0.9536594924
H   2.2819988831 -0.8189500439  0.2981629512
7
Iter 43 Image 7  Energy = -153.9212581713
C   0.9141815871  0.8780581042 -0.0415159706
H   0.6414655869  1.3677445267 -0.9902333673
O   0.7740613988  1.4570982724  1.0035653820
C   1.2705564256 -0.5686036047  0.0057238074
H   0.6857149659 -0.7506752097  0.9072285284
H   1.0096230972 -1.1455659947 -0.8840964723
H   2.3056382952 -0.7476887055  0.2932664413
7
Iter 43 Image 8  Energy = -153.9302086314
C   0.8877575999  0.8939980693  0.0121857262
H   0.6738726184  1.3451932724 -0.9768386170
O   0.7637960523  1.5413876071  1.0166978902
C   1.2547328644 -0.5590853748  0.0365938663
H   0.6681767021 -0.9853252575  0.8478547368
H   1.0427807560 -1.0438530644 -0.9116377957
H   2.3101250826 -0.7019485689  0.2690831420
7
Iter 43 Image 9  Energy = -153.9312959649
C   0.8483399200  0.8888634917  0.0082221699
H   0.8375094461  1.3192298590 -1.0121332778
O   0.5655025668  1.5647280174  0.9595757857
C   1.2477487557 -0.5563433645  0.0772817223
H   0.8186530612 -1.0371223168  0.9536568655
H   0.9484625077 -1.0729725699 -0.8316879451
H   2.3350253629 -0.6160162153  0.1390235492
7
Iter 43 Image 10  Energy = -153.9315672190
C   0.8179224184  0.8785921670 -0.0134859372
H   0.9191441109  1.3196494155 -1.0240248177
O   0.3779417193  1.5325034500  0.8953790851
C   1.2751463411 -0.5468703270  0.0994922643
H   0.9488618102 -0.9872237469  1.0381560884
H   0.8976075579 -1.1230459840 -0.7447697655
H   2.3646176376 -0.5832380931  0.0431918376
7
Iter 43 Image 11  Energy = -153.9315568446
C   0.7840367852  0.8656586589 -0.0371164025
H   0.9809293880  1.3403901038 -1.0231241499
O   0.1875804579  1.4681235287  0.8223429327
C   1.3100769769 -0.5359012779  0.1153731248
H   1.0639489065 -0.9236344469  1.1059940899
H   0.8779311114 -1.1816924395 -0.6582837811
H   2.3967379442 -0.5425772870 -0.0312469938
7
Iter 44 Image 0  Energy = -153.9146221658
C   0.8260657415  0.5508603911 -0.1261794589
H   0.4554445983  1.2417513435 -0.8784317668
O   0.5680753083  1.0246514429  1.1187434847
C   1.4411098584 -0.5873603774 -0.4363613732
H   0.9099091373  0.3932317500  1.7666320721
H   1.5916834696 -0.8592929697 -1.4741885892
H   1.8089534565 -1.2734747403  0.3237244514
7
Iter 44 Image 1  Energy = -153.9115613116
C   0.8572515651  0.5950117836 -0.1569651666
H   0.4682928322  1.2679311811 -0.9102679328
O   0.7093270609  1.0572115833  1.1142421027
C   1.4167479134 -0.5792780047 -0.4185457540
H   0.8370019853  0.2838696175  1.6723694664
H   1.4258331195 -1.0186251509 -1.4016422020
H   1.8867870556 -1.1157544974  0.3947483696
7
Iter 44 Image 2  Energy = -153.8996694162
C   0.8865233918  0.6383854099 -0.1708747364
H   0.5315997003  1.3456927847 -0.9072279187
O   0.7235433862  1.0182941722  1.1222690658
C   1.4149830564 -0.5588694140 -0.4025163064
H   0.7749692401  0.1435808016  1.5309293926
H   1.2715537241 -1.1296469199 -1.2936582755
H   1.9980689781 -0.9670698774  0.4150173386
7
Iter 44 Image 3  Energy = -153.8787140009
C   0.8954370144  0.6634161570 -0.1711561002
H   0.5799668915  1.3604294174 -0.9327378938
O   0.7312592427  1.0324927909  1.1187778692
C   1.3593048108 -0.5822972550 -0.3025498300
H   0.7461427765  0.0906644928  1.3629245603
H   1.1632020398 -1.1697620242 -1.1708735853
H   2.1259284199 -0.9045764375  0.3895526733
7
Iter 44 Image 4  Energy = -153.8378429501
C   0.8946311518  0.7043047974 -0.1413473242
H   0.6312482815  1.3733838111 -0.9478038918
O   0.6997451108  1.0882281219  1.1116326738
C   1.3162679062 -0.5888421507 -0.1922064919
H   0.7578455048 -0.0296760167  1.1544925952
H   1.0665959609 -1.1926079526 -1.0368260524
H   2.2349072603 -0.8644236887  0.3459962141
7
Iter 44 Image 5  Energy = -153.8452689091
C   0.8942147578  0.7841581167 -0.0919211670
H   0.6375263151  1.3908323262 -0.9625310182
O   0.6924823038  1.2223161989  1.0509402911
C   1.2795705806 -0.5884872886 -0.0920197473
H   0.7812403757 -0.2946612972  1.0633644626
H   1.0568140397 -1.1774419991 -1.0020138334
H   2.2593928566 -0.8463489961  0.3281187660
7
Iter 44 Image 6  Energy = -153.8876789625
C   0.8940014276  0.8378071399 -0.0657983671
H   0.6639263918  1.4012404469 -0.9755558900
O   0.6739087462  1.3182196529  1.0262366294
C   1.2744325383 -0.5833725258 -0.0383609318
H   0.7837401871 -0.5006249834  0.9920393091
H   1.0247622099 -1.1660691443 -0.9446683300
H   2.2864697001 -0.8168334340  0.3000455178
7
Iter 44 Image 7  Energy = -153.9220340293
C   0.9079396807  0.8795686499 -0.0404156250
H   0.6614655869  1.3711516674 -0.9953826491
O   0.7605242041  1.4627956856  0.9973523617
C   1.2710465118 -0.5689466605  0.0071515525
H   0.6981112248 -0.7558307632  0.9134438174
H   0.9929070891 -1.1551548113 -0.8712546619
H   2.3092469818 -0.7432163121  0.2830434031
7
Iter 44 Image 8  Energy = -153.9303435537
C   0.8855980169  0.8927257645  0.0128422145
H   0.6738500553  1.3392246927 -0.9771496149
O   0.7739132280  1.5476485783  1.0162532057
C   1.2536782351 -0.5587056334  0.0366710652
H   0.6661126446 -0.9893651859  0.8425065430
H   1.0392251024 -1.0455725938 -0.9109792810
H   2.3088644019 -0.6955889275  0.2737947846
7
Iter 44 Image 9  Energy = -153.9312875722
C   0.8473078313  0.8874033736  0.0085230316
H   0.8386241621  1.3174321159 -1.0118165076
O   0.5658150825  1.5606671402  0.9612961677
C   1.2481676759 -0.5561390278  0.0752706621
H   0.8188814693 -1.0296278345  0.9541273231
H   0.9472550289 -1.0730267214 -0.8333827212
H   2.3351903706 -0.6163421341  0.1399209045
7
Iter 44 Image 10  Energy = -153.9315602753
C   0.8186439394  0.8774103713 -0.0134723612
H   0.9198463797  1.3185014574 -1.0234586047
O   0.3788338391  1.5301198275  0.8973829827
C   1.2748635850 -0.5469738217  0.0982631534
H   0.9475139901 -0.9828137003  1.0378921692
H   0.8972178797 -1.1229134130 -0.7463360906
H   2.3643219795 -0.5829638455  0.0436674976
7
Iter 44 Image 11  Energy = -153.9315568446
C   0.7840367852  0.8656586589 -0.0371164025
H   0.9809293880  1.3403901038 -1.0231241499
O   0.1875804579  1.4681235287  0.8223429327
C   1.3100769769 -0.5359012779  0.1153731248
H   1.0639489065 -0.9236344469  1.1059940899
H   0.8779311114 -1.1816924395 -0.6582837811
H   2.3967379442 -0.5425772870 -0.0312469938
7
Iter 45 Image 0  Energy = -153.9146221658
C   0.8260657415  0.5508603911 -0.1261794589
H   0.4554445983  1.2417513435 -0.8784317668
O   0.5680753083  1.0246514429  1.1187434847
C   1.4411098584 -0.5873603774 -0.4363613732
H   0.9099091373  0.3932317500  1.7666320721
H   1.5916834696 -0.8592929697 -1.4741885892
H   1.8089534565 -1.2734747403  0.3237244514
7
Iter 45 Image 1  Energy = -153.9116565975
C   0.8555319102  0.5927208781 -0.1567535405
H   0.4723440780  1.2700742395 -0.9090352398
O   0.7038392410  1.0560909449  1.1133665618
C   1.4218913662 -0.5779751776 -0.4213327719
H   0.8397757803  0.2885450534  1.6772124941
H   1.4217605930 -1.0212862737 -1.4028989066
H   1.8860985689 -1.1178031651  0.3933802606
7
Iter 45 Image 2  Energy = -153.9000140120
C   0.8833951504  0.6334443847 -0.1717666459
H   0.5331239107  1.3435401416 -0.9056580653
O   0.7264758905  1.0243827228  1.1197948362
C   1.4177435833 -0.5613228782 -0.4025143912
H   0.7705296638  0.1557513283  1.5374985620
H   1.2697055155 -1.1325258604 -1.2952922723
H   2.0002676941 -0.9729028009  0.4118763649
7
Iter 45 Image 3  Energy = -153.8794519719
C   0.8899166507  0.6584144445 -0.1751116692
H   0.5794218586  1.3529654404 -0.9398808313
O   0.7375347845  1.0444935737  1.1133551606
C   1.3585022656 -0.5853157322 -0.3019143785
H   0.7539008526  0.1078260359  1.3676768166
H   1.1578269822 -1.1790371963 -1.1623545379
H   2.1241377371 -0.9089794851  0.3921669554
7
Iter 45 Image 4  Energy = -153.8378237165
C   0.8944183902  0.6996437269 -0.1435775313
H   0.6356796012  1.3714980186 -0.9529651464
O   0.7024911033  1.0878434243  1.1108923664
C   1.3228249966 -0.5838310661 -0.1937284588
H   0.7543820090 -0.0176156162  1.1484453430
H   1.0490346492 -1.2070338952 -1.0199045904
H   2.2424103837 -0.8601377000  0.3447756432
7
Iter 45 Image 5  Energy = -153.8451527626
C   0.8928115975  0.7856514208 -0.0943492488
H   0.6406855316  1.3879253716 -0.9671154059
O   0.6969413936  1.2239857912  1.0477255924
C   1.2854868194 -0.5871557889 -0.0925009769
H   0.7796778265 -0.2875611283  1.0580466103
H   1.0416987412 -1.1906662592 -0.9859440744
H   2.2639392731 -0.8418124132  0.3280751030
7
Iter 45 Image 6  Energy = -153.8889896869
C   0.8918323651  0.8379322989 -0.0677097140
H   0.6660606813  1.3991241496 -0.9789131689
O   0.6756873260  1.3246495827  1.0254834926
C   1.2779086889 -0.5809062701 -0.0393960555
H   0.7847083506 -0.5023914354  0.9856121117
H   1.0153562529 -1.1739953876 -0.9333789292
H   2.2896875361 -0.8140458443  0.3022400341
7
Iter 45 Image 7  Energy = -153.9228037257
C   0.9020952524  0.8790421435 -0.0421882983
H   0.6814655869  1.3751045481 -1.0009786300
O   0.7453260399  1.4704007078  0.9936828188
C   1.2698992653 -0.5681911633  0.0092910146
H   0.7121044247 -0.7619453306  0.9207558569
H   0.9774906596 -1.1635808247 -0.8592874854
H   2.3128599702 -0.7404625751  0.2726627629
7
Iter 45 Image 8  Energy = -153.9304813515
C   0.8835132641  0.8931703151  0.0151165206
H   0.6737150741  1.3343541553 -0.9776839614
O   0.7842008484  1.5544010593  1.0135517152
C   1.2523186593 -0.5586524142  0.0366488888
H   0.6644999944 -0.9957289448  0.8377172789
H   1.0356983108 -1.0475853261 -0.9102156396
H   2.3072955385 -0.6895921360  0.2788040770
7
Iter 45 Image 9  Energy = -153.9312689415
C   0.8465604090  0.8862962638  0.0084482470
H   0.8391391430  1.3169892428 -1.0113917003
O   0.5660027559  1.5572862313  0.9628800140
C   1.2488626254 -0.5560248412  0.0732779435
H   0.8189886834 -1.0230419781  0.9543628346
H   0.9460734968 -1.0738044773 -0.8347225867
H   2.3356145058 -0.6173335197  0.1410840997
7
Iter 45 Image 10  Energy = -153.9315596352
C   0.8190625976  0.8771069736 -0.0127626524
H   0.9203341200  1.3181208641 -1.0229573677
O   0.3799339598  1.5274790879  0.8984576445
C   1.2747225105 -0.5471110007  0.0970647278
H   0.9462083236 -0.9789527657  1.0374421545
H   0.8968289446 -1.1232163222 -0.7474829859
H   2.3641511323 -0.5830599647  0.0441772186
7
Iter 45 Image 11  Energy = -153.9315568446
C   0.7840367852  0.8656586589 -0.0371164025
H   0.9809293880  1.3403901038 -1.0231241499
O   0.1875804579  1.4681235287  0.8223429327
C   1.3100769769 -0.5359012779  0.1153731248
H   1.0639489065 -0.9236344469  1.1059940899
H   0.8779311114 -1.1816924395 -0.6582837811
H   2.3967379442 -0.5425772870 -0.0312469938
7
Iter 46 Image 0  Energy = -153.9146221658
C   0.8260657415  0.5508603911 -0.1261794589
H   0.4554445983  1.2417513435 -0.8784317668
O   0.5680753083  1.0246514429  1.1187434847
C   1.4411098584 -0.5873603774 -0.4363613732
H   0.9099091373  0.3932317500  1.7666320721
H   1.5916834696 -0.8592929697 -1.4741885892
H   1.8089534565 -1.2734747403  0.3237244514
7
Iter 46 Image 1  Energy = -153.9117353084
C   0.8546348934  0.5901612807 -0.1568453800
H   0.4760757883  1.2719934730 -0.9079396964
O   0.6988497750  1.0550370578  1.1127372702
C   1.4254855438 -0.5768314390 -0.4236392817
H   0.8420172943  0.2939396492  1.6822242988
H   1.4181518039 -1.0237683329 -1.4041402686
H   1.8860264426 -1.1201651906  0.3915418796
7
Iter 46 Image 2  Energy = -153.9004895750
C   0.8803891343  0.6285214607 -0.1727364519
H   0.5325443615  1.3394690963 -0.9072311301
O   0.7315537400  1.0319093837  1.1167386715
C   1.4177925145 -0.5637845273 -0.3998601940
H   0.7686871268  0.1697226559  1.5439526346
H   1.2698430530 -1.1351836154 -1.2964670705
H   2.0004314079 -0.9802873491  0.4095417345
7
Iter 46 Image 3  Energy = -153.8801407051
C   0.8861279319  0.6541358852 -0.1788619881
H   0.5780758188  1.3454657245 -0.9490857331
O   0.7445791831  1.0558942463  1.1068346660
C   1.3579553298 -0.5863268410 -0.3026227156
H   0.7614164860  0.1246838779  1.3733887498
H   1.1502697951 -1.1906878531 -1.1515352684
H   2.1228165230 -0.9127980265  0.3958196422
7
Iter 46 Image 4  Energy = -153.8376174212
C   0.8951275779  0.6985839083 -0.1476259977
H   0.6393399871  1.3700385480 -0.9581974128
O   0.7061066301  1.0865345745  1.1102487159
C   1.3320978476 -0.5810196476 -0.1983989131
H   0.7494746491 -0.0067205506  1.1435220775
H   1.0301480046 -1.2227321531 -0.9999045904
H   2.2489463961 -0.8543178245  0.3442936521
7
Iter 46 Image 5  Energy = -153.8449232953
C   0.8936836930  0.7855527286 -0.0998099349
H   0.6432999356  1.3856556165 -0.9729221721
O   0.7016219172  1.2269016467  1.0452608741
C   1.2903168786 -0.5833489687 -0.0918561759
H   0.7779071200 -0.2805893154  1.0538868334
H   1.0250661248 -1.2061357301 -0.9682131912
H   2.2693454589 -0.8376690574  0.3275912227
7
Iter 46 Image 6  Energy = -153.8905474295
C   0.8902623464  0.8414818875 -0.0667227310
H   0.6663241855  1.3967825821 -0.9840520776
O   0.6816218609  1.3304891467  1.0193748612
C   1.2832352885 -0.5795694410 -0.0392399150
H   0.7836895567 -0.5041665377  0.9801192928
H   1.0047482342 -1.1844267193 -0.9195637036
H   2.2913597164 -0.8102238931  0.3040218530
7
Iter 46 Image 7  Energy = -153.9234753971
C   0.8967389289  0.8800852626 -0.0416410837
H   0.6999794859  1.3790951950 -1.0070424944
O   0.7304216224  1.4766808538  0.9872255835
C   1.2679442129 -0.5668452301  0.0120991066
H   0.7263267776 -0.7690789903  0.9291802198
H   0.9642306627 -1.1703546262 -0.8482857023
H   2.3155994305 -0.7392149278  0.2624022389
7
Iter 46 Image 8  Energy = -153.9306028032
C   0.8822036926  0.8932528969  0.0147124258
H   0.6730730826  1.3307569254 -0.9780482266
O   0.7946192200  1.5639893107  1.0121547564
C   1.2504025818 -0.5590485624  0.0371204212
H   0.6630179227 -1.0051402931  0.8335074558
H   1.0328159697 -1.0492335750 -0.9095398288
H   2.3051092227 -0.6842099751  0.2840318353
7
Iter 46 Image 9  Energy = -153.9312590939
C   0.8465699175  0.8853058697  0.0074214281
H   0.8387194787  1.3181632122 -1.0108441119
O   0.5663459443  1.5553770925  0.9647821714
C   1.2496374472 -0.5559802349  0.0717365001
H   0.8186535745 -1.0182536917  0.9540427532
H   0.9451078778 -1.0752536734 -0.8357788580
H   2.3362073810 -0.6189916427  0.1425789576
7
Iter 46 Image 10  Energy = -153.9315553589
C   0.8195856647  0.8771978842 -0.0122477095
H   0.9204971644  1.3186500355 -1.0225002948
O   0.3810604795  1.5254544775  0.8993402950
C   1.2746678468 -0.5472381021  0.0960696557
H   0.9448674679 -0.9762270501  1.0367335056
H   0.8964837068 -1.1238774315 -0.7482119548
H   2.3640792515 -0.5835929433  0.0447552380
7
Iter 46 Image 11  Energy = -153.9315568446
C   0.7840367852  0.8656586589 -0.0371164025
H   0.9809293880  1.3403901038 -1.0231241499
O   0.1875804579  1.4681235287  0.8223429327
C   1.3100769769 -0.5359012779  0.1153731248
H   1.0639489065 -0.9236344469  1.1059940899
H   0.8779311114 -1.1816924395 -0.6582837811
H   2.3967379442 -0.5425772870 -0.0312469938
7
Iter 47 Image 0  Energy = -153.9146221658
C   0.8260657415  0.5508603911 -0.1261794589
H   0.4554445983  1.2417513435 -0.8784317668
O   0.5680753083  1.0246514429  1.1187434847
C   1.4411098584 -0.5873603774 -0.4363613732
H   0.9099091373  0.3932317500  1.7666320721
H   1.5916834696 -0.8592929697 -1.4741885892
H   1.8089534565 -1.2734747403  0.3237244514
7
Iter 47 Image 1  Energy = -153.9118066902
C   0.8538899222  0.5884377857 -0.1567669564
H   0.4794345775  1.2733579109 -0.9070140366
O   0.6947290132  1.0544569483  1.1119149885
C   1.4279519042 -0.5769187016 -0.4252537405
H   0.8435770355  0.2994162420  1.6872881502
H   1.4151671970 -1.0256660002 -1.4053015226
H   1.8864918934 -1.1227176755  0.3890718972
7
Iter 47 Image 2  Energy = -153.9010988976
C   0.8768980917  0.6252744066 -0.1731419254
H   0.5301226755  1.3331622871 -0.9114221203
O   0.7381678860  1.0413311632  1.1130094436
C   1.4150178683 -0.5681384504 -0.3976424139
H   0.7695192067  0.1841328564  1.5501253858
H   1.2722312746 -1.1361709191 -1.2958953856
H   1.9992842636 -0.9892241798  0.4089050008
7
Iter 47 Image 3  Energy = -153.8807769544
C   0.8831160602  0.6526641433 -0.1829099858
H   0.5760998511  1.3378893508 -0.9591447322
O   0.7520058420  1.0660401523  1.1000567681
C   1.3596420055 -0.5876506849 -0.3032897785
H   0.7683329877  0.1403504684  1.3796678833
H   1.1414393844 -1.2033381212 -1.1396783529
H   2.1206048825 -0.9155883687  0.3992354053
7
Iter 47 Image 4  Energy = -153.8372469871
C   0.8973797428  0.6973863006 -0.1535254488
H   0.6414937919  1.3691396571 -0.9634444482
O   0.7107404747  1.0847133091  1.1100038641
C   1.3416183827 -0.5766484195 -0.2030166435
H   0.7442159458  0.0025657513  1.1391447093
H   1.0119295618 -1.2385566186 -0.9799045904
H   2.2538631554 -0.8482331596  0.3446800015
7
Iter 47 Image 5  Energy = -153.8446713384
C   0.8954818637  0.7864717060 -0.1035341926
H   0.6451197554  1.3839063194 -0.9797833724
O   0.7068800709  1.2296322906  1.0406603025
C   1.2944986662 -0.5810801850 -0.0929744517
H   0.7759615969 -0.2735537921  1.0509200711
H   1.0086618624 -1.2211067479 -0.9483841705
H   2.2746372548 -0.8339027527  0.3270331496
7
Iter 47 Image 6  Energy = -153.8921965338
C   0.8911927468  0.8433135457 -0.0714804798
H   0.6648880127  1.3938454525 -0.9900376238
O   0.6894357223  1.3397312587  1.0162063586
C   1.2864098566 -0.5772716867 -0.0377309232
H   0.7815166176 -0.5066304816  0.9754951612
H   0.9941160148 -1.1958563199 -0.9044340173
H   2.2936821962 -0.8067648215  0.3059189085
7
Iter 47 Image 7  Energy = -153.9241499029
C   0.8923002871  0.8811611612 -0.0436515541
H   0.7156055681  1.3819830095 -1.0124654874
O   0.7168640748  1.4844012971  0.9825942997
C   1.2664115958 -0.5658448587  0.0153032585
H   0.7392151406 -0.7774254286  0.9379588142
H   0.9541088712 -1.1744191111 -0.8388537120
H   2.3167355133 -0.7394885219  0.2530520798
7
Iter 47 Image 8  Energy = -153.9307545567
C   0.8810441325  0.8956320994  0.0168955362
H   0.6722203476  1.3286731921 -0.9786595431
O   0.8043688261  1.5727659109  1.0075208990
C   1.2479632409 -0.5597775025  0.0383051899
H   0.6622975419 -1.0166453679  0.8300502544
H   1.0307360864 -1.0503723452 -0.9090668096
H   2.3026115194 -0.6799092379  0.2888932690
7
Iter 47 Image 9  Energy = -153.9312572046
C   0.8465098139  0.8858952020  0.0076626059
H   0.8376522160  1.3208725735 -1.0103354506
O   0.5670166872  1.5535486629  0.9648247931
C   1.2505124447 -0.5561566592  0.0704488219
H   0.8181981431 -1.0152323734  0.9533424790
H   0.9443790720 -1.0773068959 -0.8361648875
H   2.3369732466 -0.6212535691  0.1441604702
7
Iter 47 Image 10  Energy = -153.9315547023
C   0.8202943621  0.8774451001 -0.0122086311
H   0.9203138963  1.3201162863 -1.0220699727
O   0.3819660284  1.5242316954  0.9002089927
C   1.2747198232 -0.5473060836  0.0952288404
H   0.9435933117 -0.9746127233  1.0358256569
H   0.8962218984 -1.1249080286 -0.7484269585
H   2.3641322570 -0.5845993778  0.0453808048
7
Iter 47 Image 11  Energy = -153.9315568446
C   0.7840367852  0.8656586589 -0.0371164025
H   0.9809293880  1.3403901038 -1.0231241499
O   0.1875804579  1.4681235287  0.8223429327
C   1.3100769769 -0.5359012779  0.1153731248
H   1.0639489065 -0.9236344469  1.1059940899
H   0.8779311114 -1.1816924395 -0.6582837811
H   2.3967379442 -0.5425772870 -0.0312469938
7
Iter 48 Image 0  Energy = -153.9146221658
C   0.8260657415  0.5508603911 -0.1261794589
H   0.4554445983  1.2417513435 -0.8784317668
O   0.5680753083  1.0246514429  1.1187434847
C   1.4411098584 -0.5873603774 -0.4363613732
H   0.9099091373  0.3932317500  1.7666320721
H   1.5916834696 -0.8592929697 -1.4741885892
H   1.8089534565 -1.2734747403  0.3237244514
7
Iter 48 Image 1  Energy = -153.9119022707
C   0.8538439965  0.5875495527 -0.1565396159
H   0.4816656897  1.2738435983 -0.9066002870
O   0.6919863138  1.0549833162  1.1106222338
C   1.4283462819 -0.5783564749 -0.4263618953
H   0.8448998283  0.3049472593  1.6922746269
H   1.4134183473 -1.0270280383 -1.4060989740
H   1.8870810795 -1.1255726864  0.3866426394
7
Iter 48 Image 2  Energy = -153.9017914712
C   0.8747795698  0.6230022063 -0.1748795375
H   0.5259836363  1.3249075092 -0.9179964171
O   0.7458251192  1.0511051016  1.1092456564
C   1.4102889707 -0.5720744318 -0.3935724848
H   0.7732994509  0.1994305858  1.5560411354
H   1.2751837019 -1.1380761553 -1.2946560361
H   1.9958807475 -0.9979276026  0.4097554628
7
Iter 48 Image 3  Energy = -153.8814095102
C   0.8837441981  0.6513860620 -0.1888365455
H   0.5729762531  1.3312157591 -0.9686808527
O   0.7593582677  1.0746728199  1.0940902975
C   1.3629826667 -0.5870471796 -0.3049963960
H   0.7735113687  0.1536376480  1.3865810725
H   1.1309981388 -1.2173962381 -1.1274365737
H   2.1176700707 -0.9161019980  0.4032160913
7
Iter 48 Image 4  Energy = -153.8368365772
C   0.9020423702  0.6952908273 -0.1585180034
H   0.6405239754  1.3698109867 -0.9683639790
O   0.7173835695  1.0818370494  1.1077870335
C   1.3491981700 -0.5714919493 -0.2086992755
H   0.7392415944  0.0099443592  1.1347175752
H   0.9964245979 -1.2530536428 -0.9606313871
H   2.2564267408 -0.8419708398  0.3476454064
7
Iter 48 Image 5  Energy = -153.8443394548
C   0.8987064563  0.7889274256 -0.1101598133
H   0.6458759317  1.3827019711 -0.9856861966
O   0.7124683751  1.2325138269  1.0369620491
C   1.2998481266 -0.5807735961 -0.0945390494
H   0.7733611753 -0.2676845986  1.0491533011
H   0.9928363263 -1.2356951716 -0.9283841705
H   2.2781446315 -0.8296230963  0.3265911270
7
Iter 48 Image 6  Energy = -153.8939396421
C   0.8944197406  0.8463101988 -0.0738181157
H   0.6625090097  1.3915268372 -0.9973195804
O   0.6992927063  1.3482094429  1.0084033237
C   1.2863371998 -0.5755859467 -0.0365491927
H   0.7782822791 -0.5089628845  0.9726497369
H   0.9828205476 -1.2082018518 -0.8864594412
H   2.2975796495 -0.8029289316  0.3070304811
7
Iter 48 Image 7  Energy = -153.9247725562
C   0.8898620442  0.8832982197 -0.0456005241
H   0.7273163597  1.3835925112 -1.0173009637
O   0.7062222140  1.4911187212  0.9770655860
C   1.2645806052 -0.5651957098  0.0192576886
H   0.7494219207 -0.7858676966  0.9460075817
H   0.9467381524 -1.1767745089 -0.8302173141
H   2.3170996971 -0.7398040012  0.2447254764
7
Iter 48 Image 8  Energy = -153.9308595134
C   0.8810120096  0.8966746433  0.0163469468
H   0.6705592474  1.3278725483 -0.9791044883
O   0.8141765501  1.5830616905  1.0046778743
C   1.2446016641 -0.5604369102  0.0404483685
H   0.6612413203 -1.0299857091  0.8270681949
H   1.0301855064 -1.0503669462 -0.9088755671
H   2.2994653976 -0.6764525470  0.2933774252
7
Iter 48 Image 9  Energy = -153.9312755385
C   0.8475735344  0.8860721003  0.0062464620
H   0.8356516383  1.3244001024 -1.0096567340
O   0.5684053031  1.5541281650  0.9660713877
C   1.2510350776 -0.5564058755  0.0694771000
H   0.8168316857 -1.0150380493  0.9519891456
H   0.9443442838 -1.0791587248 -0.8362227088
H   2.3374001043 -0.6236307713  0.1460341675
7
Iter 48 Image 10  Energy = -153.9315570970
C   0.8207624087  0.8782083289 -0.0119273747
H   0.9199306357  1.3221346181 -1.0217583257
O   0.3832539319  1.5237413586  0.9005360231
C   1.2747318175 -0.5474032834  0.0945912577
H   0.9422928382 -0.9746077275  1.0348384432
H   0.8960927182 -1.1258760026 -0.7483648758
H   2.3641772214 -0.5858304234  0.0460235846
7
Iter 48 Image 11  Energy = -153.9315568446
C   0.7840367852  0.8656586589 -0.0371164025
H   0.9809293880  1.3403901038 -1.0231241499
O   0.1875804579  1.4681235287  0.8223429327
C   1.3100769769 -0.5359012779  0.1153731248
H   1.0639489065 -0.9236344469  1.1059940899
H   0.8779311114 -1.1816924395 -0.6582837811
H   2.3967379442 -0.5425772870 -0.0312469938
7
Iter 49 Image 0  Energy = -153.9146221658
C   0.8260657415  0.5508603911 -0.1261794589
H   0.4554445983  1.2417513435 -0.8784317668
O   0.5680753083  1.0246514429  1.1187434847
C   1.4411098584 -0.5873603774 -0.4363613732
H   0.9099091373  0.3932317500  1.7666320721
H   1.5916834696 -0.8592929697 -1.4741885892
H   1.8089534565 -1.2734747403  0.3237244514
7
Iter 49 Image 1  Energy = -153.9120370336
C   0.8546660784  0.5858048791 -0.1565768372
H   0.4835440399  1.2737517660 -0.9066978201
O   0.6901700894  1.0564061244  1.1095191167
C   1.4263919966 -0.5799930159 -0.4266366373
H   0.8459058861  0.3120337999  1.6975104720
H   1.4123081803 -1.0282185810 -1.4069791957
H   1.8882552540 -1.1294184131  0.3837995615
7
Iter 49 Image 2  Energy = -153.9026787192
C   0.8726482235  0.6211795621 -0.1767194998
H   0.5192158593  1.3132549578 -0.9280479759
O   0.7559756033  1.0632717947  1.1045868240
C   1.4027819188 -0.5772090769 -0.3864803625
H   0.7807194762  0.2178094702  1.5618978840
H   1.2803972505 -1.1394220036 -1.2929964983
H   1.9895027890 -1.0085174502  0.4116971797
7
Iter 49 Image 3  Energy = -153.8820799404
C   0.8865894366  0.6512106257 -0.1946930250
H   0.5677848085  1.3242253719 -0.9791938053
O   0.7681175301  1.0824777185  1.0871235588
C   1.3668380045 -0.5852709849 -0.3079563800
H   0.7783662097  0.1659071495  1.3937175143
H   1.1200131251 -1.2321217793 -1.1135955998
H   2.1135318102 -0.9160613001  0.4085347495
7
Iter 49 Image 4  Energy = -153.8366346573
C   0.9069588671  0.6974799634 -0.1657674385
H   0.6359836910  1.3703636344 -0.9724712194
O   0.7272726020  1.0788828164  1.1054227128
C   1.3574737400 -0.5700446001 -0.2159689584
H   0.7340506554  0.0150048390  1.1306192989
H   0.9845332781 -1.2651704174 -0.9408457500
H   2.2549681566 -0.8361494735  0.3529486736
7
Iter 49 Image 5  Energy = -153.8438833338
C   0.9037660293  0.7894436713 -0.1156060561
H   0.6440159644  1.3821758007 -0.9925620372
O   0.7207453088  1.2342887198  1.0312321160
C   1.3034990808 -0.5775157412 -0.0952290249
H   0.7704936661 -0.2614623515  1.0471215742
H   0.9784357976 -1.2502095681 -0.9083841705
H   2.2802851324 -0.8263538391  0.3273647917
7
Iter 49 Image 6  Energy = -153.8959684252
C   0.8989337287  0.8503652483 -0.0808220922
H   0.6577470598  1.3879161973 -1.0055342649
O   0.7131556032  1.3607453448  1.0010998526
C   1.2878703028 -0.5759305734 -0.0333843359
H   0.7733121403 -0.5124741641  0.9715106710
H   0.9717310405 -1.2209791802 -0.8665295743
H   2.2984912158 -0.7992761065  0.3075967954
7
Iter 49 Image 7  Energy = -153.9254660257
C   0.8884285993  0.8853929686 -0.0469409054
H   0.7361968004  1.3843755507 -1.0223559226
O   0.6962622764  1.4992144459  0.9709730632
C   1.2618763704 -0.5636557447  0.0243140473
H   0.7587930888 -0.7970806492  0.9542921093
H   0.9426936187 -1.1761417320 -0.8230739774
H   2.3169901918 -0.7417373576  0.2367289448
7
Iter 49 Image 8  Energy = -153.9309816085
C   0.8808397296  0.8999482796  0.0176578670
H   0.6696177236  1.3289293346 -0.9798425421
O   0.8230511466  1.5930092210  0.9984344519
C   1.2403681353 -0.5616509006  0.0432091871
H   0.6615950069 -1.0462429185  0.8254893926
H   1.0301914346 -1.0501058936 -0.9080172560
H   2.2955785142 -0.6735203317  0.2970076086
7
Iter 49 Image 9  Energy = -153.9313008533
C   0.8484922702  0.8881717372  0.0065555688
H   0.8328042824  1.3295957819 -1.0089376047
O   0.5710322825  1.5549122108  0.9652061348
C   1.2514582052 -0.5568442123  0.0688924900
H   0.8149717432 -1.0173476311  0.9497231109
H   0.9447859501 -1.0815768038 -0.8358535555
H   2.3376968992 -0.6265441327  0.1483526677
7
Iter 49 Image 10  Energy = -153.9315683865
C   0.8214913458  0.8790656606 -0.0123274756
H   0.9192316277  1.3251819536 -1.0213798103
O   0.3845242474  1.5243205209  0.9011046824
C   1.2747393961 -0.5474793372  0.0941589364
H   0.9409285255 -0.9759538204  1.0334887927
H   0.8960651750 -1.1272445684 -0.7478944359
H   2.3642612484 -0.5875235396  0.0467880448
7
Iter 49 Image 11  Energy = -153.9315568446
C   0.7840367852  0.8656586589 -0.0371164025
H   0.9809293880  1.3403901038 -1.0231241499
O   0.1875804579  1.4681235287  0.8223429327
C   1.3100769769 -0.5359012779  0.1153731248
H   1.0639489065 -0.9236344469  1.1059940899
H   0.8779311114 -1.1816924395 -0.6582837811
H   2.3967379442 -0.5425772870 -0.0312469938
7
Iter 50 Image 0  Energy = -153.9146221658
C   0.8260657415  0.5508603911 -0.1261794589
H   0.4554445983  1.2417513435 -0.8784317668
O   0.5680753083  1.0246514429  1.1187434847
C   1.4411098584 -0.5873603774 -0.4363613732
H   0.9099091373  0.3932317500  1.7666320721
H   1.5916834696 -0.8592929697 -1.4741885892
H   1.8089534565 -1.2734747403  0.3237244514
7
Iter 50 Image 1  Energy = -153.9122141880
C   0.8555467133  0.5860875787 -0.1568112205
H   0.4840874356  1.2719473934 -0.9074548079
O   0.6904023703  1.0591297027  1.1080308496
C   1.4225584171 -0.5844721205 -0.4256920128
H   0.8471779584  0.3204737763  1.7024739642
H   1.4127041355 -1.0290639330 -1.4076050350
H   1.8887644765 -1.1337357778  0.3809968317
7
Iter 50 Image 2  Energy = -153.9036100151
C   0.8724121652  0.6211167788 -0.1782776727
H   0.5104177733  1.2994914320 -0.9406907379
O   0.7670463631  1.0770151307  1.0978279804
C   1.3936462393 -0.5837476115 -0.3810315676
H   0.7919197942  0.2365595659  1.5681326821
H   1.2853954515 -1.1417878284 -1.2887453377
H   1.9804032627 -1.0182802111  0.4167219802
7
Iter 50 Image 3  Energy = -153.8826936984
C   0.8924583812  0.6552246146 -0.2003976444
H   0.5604696319  1.3182431456 -0.9875443544
O   0.7778333645  1.0865026914  1.0797743322
C   1.3730572885 -0.5850531222 -0.3133084268
H   0.7806550195  0.1751627464  1.3998632307
H   1.1090465460 -1.2464948376 -1.0997640518
H   2.1077206682 -0.9132185178  0.4153139000
7
Iter 50 Image 4  Energy = -153.8367912183
C   0.9157359878  0.6964743616 -0.1752171818
H   0.6263681008  1.3727675761 -0.9751981791
O   0.7403268490  1.0759799484  1.1030179385
C   1.3626033167 -0.5638819205 -0.2210085725
H   0.7293930969  0.0159577033  1.1269502239
H   0.9777664632 -1.2759872659 -0.9264999687
H   2.2490471559 -0.8309436709  0.3618930381
7
Iter 50 Image 5  Energy = -153.8433125564
C   0.9103976000  0.7915823034 -0.1227098934
H   0.6384695560  1.3822799202 -0.9971652727
O   0.7313456540  1.2355427252  1.0260956086
C   1.3049057816 -0.5771775879 -0.0984535212
H   0.7672502175 -0.2565718292  1.0455652463
H   0.9688873555 -1.2614715132 -0.8907748309
H   2.2799847828 -0.8238173823  0.3313798627
7
Iter 50 Image 6  Energy = -153.8980129805
C   0.9057511578  0.8541004513 -0.0873115174
H   0.6517701079  1.3850570144 -1.0143379767
O   0.7296419026  1.3724955579  0.9904638014
C   1.2878670641 -0.5752064187 -0.0268689535
H   0.7673397503 -0.5161903481  0.9716237088
H   0.9603086776 -1.2347058848 -0.8465295743
H   2.2985623801 -0.7951836997  0.3068974582
7
Iter 50 Image 7  Energy = -153.9261332263
C   0.8893638055  0.8874709160 -0.0493107149
H   0.7407718448  1.3835173851 -1.0269042464
O   0.6891881705  1.5071930475  0.9654904357
C   1.2599474589 -0.5623762322  0.0303542042
H   0.7643205427 -0.8089458089  0.9618602428
H   0.9413034668 -1.1738056090 -0.8169751612
H   2.3163456281 -0.7426863165  0.2294224428
7
Iter 50 Image 8  Energy = -153.9310207126
C   0.8814481768  0.9022545028  0.0164050479
H   0.6686654322  1.3312902139 -0.9805173061
O   0.8315965131  1.6033101235  0.9937197112
C   1.2352406212 -0.5631855251  0.0467220732
H   0.6617567478 -1.0635824960  0.8250854557
H   1.0316948079 -1.0487620101 -0.9069416622
H   2.2908393836 -0.6709579937  0.2994653506
7
Iter 50 Image 9  Energy = -153.9313228513
C   0.8506273729  0.8896748279  0.0053086176
H   0.8289017021  1.3350661276 -1.0080651702
O   0.5754945157  1.5585120111  0.9659434582
C   1.2510937470 -0.5572133054  0.0690535272
H   0.8116420197 -1.0232083144  0.9462836064
H   0.9462928209 -1.0833145009 -0.8358298153
H   2.3371894593 -0.6291498997  0.1512445818
7
Iter 50 Image 10  Energy = -153.9315750865
C   0.8218764740  0.8804472251 -0.0123142846
H   0.9184702755  1.3284717937 -1.0210959191
O   0.3865196796  1.5257642788  0.9011156968
C   1.2745391374 -0.5476305887  0.0940731047
H   0.9394765987 -0.9791561040  1.0320295149
H   0.8961978021 -1.1283153689 -0.7474394423
H   2.3641615970 -0.5892143690  0.0475700664
7
Iter 50 Image 11  Energy = -153.9315568446
C   0.7840367852  0.8656586589 -0.0371164025
H   0.9809293880  1.3403901038 -1.0231241499
O   0.1875804579  1.4681235287  0.8223429327
C   1.3100769769 -0.5359012779  0.1153731248
H   1.0639489065 -0.9236344469  1.1059940899
H   0.8779311114 -1.1816924395 -0.6582837811
H   2.3967379442 -0.5425772870 -0.0312469938
7
Iter 51 Image 0  Energy = -153.9146221658
C   0.8260657415  0.5508603911 -0.1261794589
H   0.4554445983  1.2417513435 -0.8784317668
O   0.5680753083  1.0246514429  1.1187434847
C   1.4411098584 -0.5873603774 -0.4363613732
H   0.9099091373  0.3932317500  1.7666320721
H   1.5916834696 -0.8592929697 -1.4741885892
H   1.8089534565 -1.2734747403  0.3237244514
7
Iter 51 Image 1  Energy = -153.9124072388
C   0.8571768955  0.5850068170 -0.1566409182
H   0.4837234384  1.2693091129 -0.9092657014
O   0.6922345189  1.0640035096  1.1057389760
C   1.4162950751 -0.5887965070 -0.4240319041
H   0.8486283252  0.3293614776  1.7071714791
H   1.4139576890 -1.0297371132 -1.4078497257
H   1.8892255401 -1.1387805896  0.3788162531
7
Iter 51 Image 2  Energy = -153.9044952096
C   0.8729635155  0.6208138929 -0.1815282118
H   0.5004203873  1.2836373780 -0.9539266592
O   0.7786872989  1.0904180475  1.0918055893
C   1.3832324047 -0.5893227547 -0.3738059814
H   0.8060820245  0.2565595659  1.5727089451
H   1.2910551568 -1.1440690122 -1.2847832187
H   1.9688002018 -1.0276698886  0.4234666768
7
Iter 51 Image 3  Energy = -153.8832093769
C   0.9018924676  0.6555085562 -0.2074639315
H   0.5509338778  1.3142731591 -0.9932881055
O   0.7876960986  1.0889864048  1.0751214175
C   1.3782002930 -0.5793971770 -0.3169093372
H   0.7810892422  0.1785783608  1.4036973377
H   1.1013180254 -1.2578190353 -1.0897691154
H   2.1001108954 -0.9097636398  0.4225487782
7
Iter 51 Image 4  Energy = -153.8376506057
C   0.9233800775  0.7004749591 -0.1821322810
H   0.6120081933  1.3754285571 -0.9760081327
O   0.7564247282  1.0727999189  1.0993668881
C   1.3650401361 -0.5630993173 -0.2273705823
H   0.7254106948  0.0125176576  1.1247356373
H   0.9810878467 -1.2793254326 -0.9184175085
H   2.2378892985 -0.8284296325  0.3737633074
7
Iter 51 Image 5  Energy = -153.8426821949
C   0.9169731942  0.7929346949 -0.1300893017
H   0.6279327811  1.3826756771 -0.9994838305
O   0.7452634480  1.2367653911  1.0227265071
C   1.3059251612 -0.5771262977 -0.1009624410
H   0.7639422558 -0.2538982419  1.0447149379
H   0.9679397024 -1.2672307272 -0.8814754503
H   2.2732644082 -0.8237538942  0.3385068561
7
Iter 51 Image 6  Energy = -153.8999106374
C   0.9135226214  0.8566375497 -0.0946588625
H   0.6429780276  1.3816023354 -1.0221903950
O   0.7485569993  1.3859424386  0.9807321664
C   1.2824215912 -0.5755810256 -0.0226608723
H   0.7608363430 -0.5210107547  0.9740944760
H   0.9545121945 -1.2432767968 -0.8292481304
H   2.2984132213 -0.7939471693  0.3078685471
7
Iter 51 Image 7  Energy = -153.9267457572
C   0.8904762493  0.8905609438 -0.0498047166
H   0.7406734512  1.3810228005 -1.0301297899
O   0.6846719002  1.5146321348  0.9600665267
C   1.2589453734 -0.5615592822  0.0366638122
H   0.7666320411 -0.8223091074  0.9677257443
H   0.9445425132 -1.1677150039 -0.8142441620
H   2.3152993903 -0.7442652545  0.2236596788
7
Iter 51 Image 8  Energy = -153.9309969032
C   0.8814756546  0.9051073035  0.0163902676
H   0.6700963261  1.3357389836 -0.9817776193
O   0.8360722097  1.6105878360  0.9871738251
C   1.2297072031 -0.5646435766  0.0507991854
H   0.6643664492 -1.0792644858  0.8272066503
H   1.0331334837 -1.0480430377 -0.9050722341
H   2.2863903457 -0.6691161776  0.2992185708
7
Iter 51 Image 9  Energy = -153.9313157253
C   0.8521770769  0.8928252533  0.0062202557
H   0.8247112125  1.3406764860 -1.0072321372
O   0.5817400085  1.5622839751  0.9647431554
C   1.2501958526 -0.5578284263  0.0693688145
H   0.8077048255 -1.0316477829  0.9420539147
H   0.9486187754 -1.0845766423 -0.8356810849
H   2.3360938918 -0.6313659263  0.1544658786
7
Iter 51 Image 10  Energy = -153.9315805943
C   0.8224819104  0.8814591705 -0.0130186744
H   0.9176490638  1.3319360059 -1.0207677901
O   0.3883655162  1.5284556852  0.9015472863
C   1.2741589058 -0.5477609184  0.0941980046
H   0.9381794565 -0.9835579099  1.0304686386
H   0.8964959356 -1.1293388769 -0.7468389526
H   2.3639107783 -0.5908262943  0.0483502252
7
Iter 51 Image 11  Energy = -153.9315568446
C   0.7840367852  0.8656586589 -0.0371164025
H   0.9809293880  1.3403901038 -1.0231241499
O   0.1875804579  1.4681235287  0.8223429327
C   1.3100769769 -0.5359012779  0.1153731248
H   1.0639489065 -0.9236344469  1.1059940899
H   0.8779311114 -1.1816924395 -0.6582837811
H   2.3967379442 -0.5425772870 -0.0312469938
7
Iter 52 Image 0  Energy = -153.9146221658
C   0.8260657415  0.5508603911 -0.1261794589
H   0.4554445983  1.2417513435 -0.8784317668
O   0.5680753083  1.0246514429  1.1187434847
C   1.4411098584 -0.5873603774 -0.4363613732
H   0.9099091373  0.3932317500  1.7666320721
H   1.5916834696 -0.8592929697 -1.4741885892
H   1.8089534565 -1.2734747403  0.3237244514
7
Iter 52 Image 1  Energy = -153.9126185606
C   0.8589202167  0.5843509835 -0.1569978062
H   0.4812106585  1.2640340365 -0.9121796495
O   0.6972294338  1.0706402650  1.1036229395
C   1.4080100373 -0.5945343696 -0.4211681826
H   0.8509445923  0.3400049830  1.7103801084
H   1.4172242476 -1.0293915063 -1.4077142352
H   1.8877022579 -1.1447375881  0.3779951574
7
Iter 52 Image 2  Energy = -153.9052765465
C   0.8758443857  0.6210148599 -0.1859682981
H   0.4897513996  1.2674850915 -0.9667955397
O   0.7892289606  1.1029095369  1.0841430653
C   1.3751366547 -0.5937809331 -0.3676978075
H   0.8236822840  0.2751745989  1.5774501403
H   1.2942192268 -1.1492711274 -1.2802893745
H   1.9533780320 -1.0331648656  0.4330948106
7
Iter 52 Image 3  Energy = -153.8835632639
C   0.9122850646  0.6627994234 -0.2138098672
H   0.5400288143  1.3124616773 -0.9935382039
O   0.7983724483  1.0855357477  1.0720729461
C   1.3869264213 -0.5798807079 -0.3243202799
H   0.7770703482  0.1775674951  1.4047310088
H   1.0963169263 -1.2656589813 -1.0826123692
H   2.0902408980 -0.9024580895  0.4314139419
7
Iter 52 Image 4  Energy = -153.8388846136
C   0.9317873917  0.7061670689 -0.1888403474
H   0.5946716766  1.3789679325 -0.9736615128
O   0.7744703556  1.0676638817  1.0956243496
C   1.3662508754 -0.5619679267 -0.2316012245
H   0.7217820161  0.0067304662  1.1234370850
H   0.9897970343 -1.2814842176 -0.9197657970
H   2.2224816464 -0.8257105054  0.3887448461
7
Iter 52 Image 5  Energy = -153.8423369360
C   0.9249041659  0.7930947254 -0.1322418918
H   0.6125914480  1.3851669089 -0.9993636225
O   0.7626853788  1.2351464818  1.0172799298
C   1.3040124245 -0.5747569305 -0.1019178456
H   0.7604711362 -0.2537948538  1.0419411817
H   0.9737327960 -1.2703745513 -0.8824148012
H   2.2628436260 -0.8241151972  0.3506544654
7
Iter 52 Image 6  Energy = -153.9016439451
C   0.9213221663  0.8604768067 -0.1027413303
H   0.6343865800  1.3787334554 -1.0280216947
O   0.7685569993  1.3975536372  0.9704894799
C   1.2783950957 -0.5777404223 -0.0162426040
H   0.7536828699 -0.5266629844  0.9777372015
H   0.9496618608 -1.2502399788 -0.8155628999
H   2.2952353820 -0.7917539967  0.3082788539
7
Iter 52 Image 7  Energy = -153.9272865005
C   0.8942954958  0.8922507108 -0.0506509862
H   0.7341171748  1.3750683496 -1.0329234562
O   0.6879421282  1.5227695115  0.9559999560
C   1.2571683176 -0.5610406435  0.0434134672
H   0.7619523737 -0.8352726443  0.9697990513
H   0.9500892112 -1.1603560458 -0.8126909142
H   2.3156762386 -0.7430521833  0.2209899079
7
Iter 52 Image 8  Energy = -153.9308934213
C   0.8819766509  0.9056858804  0.0144866860
H   0.6711586336  1.3398410268 -0.9830441135
O   0.8403029571  1.6169764405  0.9838914146
C   1.2239187783 -0.5657943470  0.0550734405
H   0.6654123964 -1.0933730694  0.8298522895
H   1.0365703111 -1.0451246953 -0.9040194155
H   2.2819019351 -0.6678443612  0.2976983352
7
Iter 52 Image 9  Energy = -153.9312703527
C   0.8546024956  0.8945685510  0.0053438744
H   0.8200241338  1.3447305804 -1.0062345861
O   0.5903425847  1.5690893660  0.9661181852
C   1.2481650985 -0.5584624539  0.0703635316
H   0.8021116062 -1.0431068917  0.9367303538
H   0.9522386568 -1.0838907206 -0.8365189196
H   2.3337570677 -0.6325615093  0.1581363493
7
Iter 52 Image 10  Energy = -153.9315654184
C   0.8223833166  0.8832837076 -0.0122808340
H   0.9169289581  1.3346989999 -1.0205574648
O   0.3915609842  1.5315338248  0.9008809813
C   1.2733664495 -0.5481048962  0.0946849041
H   0.9367491039 -0.9895318229  1.0288329636
H   0.8970105922 -1.1293861432 -0.7468046773
H   2.3632421655 -0.5921268112  0.0491828693
7
Iter 52 Image 11  Energy = -153.9315568446
C   0.7840367852  0.8656586589 -0.0371164025
H   0.9809293880  1.3403901038 -1.0231241499
O   0.1875804579  1.4681235287  0.8223429327
C   1.3100769769 -0.5359012779  0.1153731248
H   1.0639489065 -0.9236344469  1.1059940899
H   0.8779311114 -1.1816924395 -0.6582837811
H   2.3967379442 -0.5425772870 -0.0312469938
7
Iter 53 Image 0  Energy = -153.9146221658
C   0.8260657415  0.5508603911 -0.1261794589
H   0.4554445983  1.2417513435 -0.8784317668
O   0.5680753083  1.0246514429  1.1187434847
C   1.4411098584 -0.5873603774 -0.4363613732
H   0.9099091373  0.3932317500  1.7666320721
H   1.5916834696 -0.8592929697 -1.4741885892
H   1.8089534565 -1.2734747403  0.3237244514
7
Iter 53 Image 1  Energy = -153.9128117078
C   0.8597181774  0.5841088283 -0.1575808559
H   0.4772880801  1.2566863729 -0.9158910266
O   0.7047771952  1.0788455879  1.1009110462
C   1.3996612674 -0.6012702037 -0.4172550056
H   0.8547479437  0.3515356870  1.7121283777
H   1.4215940941 -1.0286012643 -1.4071932053
H   1.8834546403 -1.1509381038  0.3788188819
7
Iter 53 Image 2  Energy = -153.9059249528
C   0.8796450486  0.6216363230 -0.1895048288
H   0.4797827466  1.2535995429 -0.9766640420
O   0.7973615994  1.1127863911  1.0758219546
C   1.3705390374 -0.5981380232 -0.3666439495
H   0.8422774229  0.2904403374  1.5812943873
H   1.2955007795 -1.1551019412 -1.2757969413
H   1.9361342898 -1.0348555765  0.4454303609
7
Iter 53 Image 3  Energy = -153.8838413560
C   0.9256913073  0.6636940250 -0.2163369471
H   0.5275917434  1.3152653320 -0.9885009797
O   0.8086507053  1.0785867339  1.0712539940
C   1.3925531222 -0.5739832757 -0.3319516028
H   0.7691959701  0.1692523623  1.4020277009
H   1.0981199354 -1.2677935770 -1.0841990196
H   2.0794381963 -0.8946550703  0.4416442471
7
Iter 53 Image 4  Energy = -153.8404341262
C   0.9399634693  0.7091804177 -0.1943257008
H   0.5751295316  1.3826877313 -0.9682114012
O   0.7923980735  1.0637289574  1.0946944027
C   1.3617810437 -0.5592261906 -0.2341463860
H   0.7198879698 -0.0024909583  1.1243323125
H   1.0083860939 -1.2779033500 -0.9342966511
H   2.2036948614 -0.8256099016  0.4058909472
7
Iter 53 Image 5  Energy = -153.8423913145
C   0.9310698511  0.7947439481 -0.1382345122
H   0.5931668098  1.3866884701 -0.9935004348
O   0.7822258436  1.2365168872  1.0188930870
C   1.2978231380 -0.5770260343 -0.1044573180
H   0.7573390493 -0.2588200461  1.0392071476
H   0.9919372259 -1.2647178108 -0.8961782510
H   2.2476791125 -0.8270188003  0.3682078748
7
Iter 53 Image 6  Energy = -153.9030576729
C   0.9276876482  0.8622242978 -0.1077832756
H   0.6246485960  1.3767062251 -1.0309232897
O   0.7885569993  1.4074798875  0.9620420248
C   1.2741056529 -0.5788705664 -0.0085423711
H   0.7471194371 -0.5342437625  0.9812125093
H   0.9509458890 -1.2514718852 -0.8125041986
H   2.2881767095 -0.7914577029  0.3104358130
7
Iter 53 Image 7  Energy = -153.9277499096
C   0.8983927367  0.8936503877 -0.0483864565
H   0.7216527160  1.3661133213 -1.0344687322
O   0.6989180355  1.5301706636  0.9523770463
C   1.2569112073 -0.5607754487  0.0491591872
H   0.7505120255 -0.8478648057  0.9671927100
H   0.9581977656 -1.1516723944 -0.8141797397
H   2.3166565061 -0.7392548733  0.2222430178
7
Iter 53 Image 8  Energy = -153.9307717648
C   0.8815174420  0.9074791975  0.0158069282
H   0.6740428313  1.3430693087 -0.9843611448
O   0.8415877526  1.6174475094  0.9797593053
C   1.2190290055 -0.5670898017  0.0584189609
H   0.6664040761 -1.1024981687  0.8335389097
H   1.0403225779 -1.0414684563 -0.9029988666
H   2.2783379654 -0.6665726888  0.2937745605
7
Iter 53 Image 9  Energy = -153.9311925546
C   0.8556625662  0.8978222018  0.0086564570
H   0.8159619339  1.3459843854 -1.0055256047
O   0.6020978095  1.5746965750  0.9651992219
C   1.2449768882 -0.5592066643  0.0718305222
H   0.7956062244 -1.0559218478  0.9306354121
H   0.9567093865 -1.0810216529 -0.8388802530
H   2.3302268319 -0.6319860956  0.1620230284
7
Iter 53 Image 10  Energy = -153.9315394794
C   0.8232915080  0.8831965387 -0.0135434057
H   0.9164288582  1.3358572224 -1.0201505911
O   0.3946379724  1.5367751961  0.9026247985
C   1.2720084664 -0.5484169486  0.0955046923
H   0.9351678151 -0.9961362350  1.0271545547
H   0.8976857914 -1.1282566092 -0.7478006856
H   2.3620211682 -0.5926523065  0.0501493798
7
Iter 53 Image 11  Energy = -153.9315568446
C   0.7840367852  0.8656586589 -0.0371164025
H   0.9809293880  1.3403901038 -1.0231241499
O   0.1875804579  1.4681235287  0.8223429327
C   1.3100769769 -0.5359012779  0.1153731248
H   1.0639489065 -0.9236344469  1.1059940899
H   0.8779311114 -1.1816924395 -0.6582837811
H   2.3967379442 -0.5425772870 -0.0312469938
7
Iter 54 Image 0  Energy = -153.9146221658
C   0.8260657415  0.5508603911 -0.1261794589
H   0.4554445983  1.2417513435 -0.8784317668
O   0.5680753083  1.0246514429  1.1187434847
C   1.4411098584 -0.5873603774 -0.4363613732
H   0.9099091373  0.3932317500  1.7666320721
H   1.5916834696 -0.8592929697 -1.4741885892
H   1.8089534565 -1.2734747403  0.3237244514
7
Iter 54 Image 1  Energy = -153.9129104080
C   0.8597371507  0.5829376523 -0.1576492219
H   0.4737906861  1.2513518678 -0.9187111993
O   0.7108406991  1.0846195713  1.0987204079
C   1.3954866193 -0.6038618135 -0.4147427728
H   0.8577086974  0.3569516288  1.7113279515
H   1.4245193087 -1.0275333303 -1.4063241947
H   1.8791582070 -1.1540986272  0.3813171870
7
Iter 54 Image 2  Energy = -153.9061387119
C   0.8824259435  0.6210382992 -0.1920263951
H   0.4765892895  1.2501003279 -0.9775706841
O   0.7981914452  1.1132923138  1.0728020196
C   1.3723872843 -0.5976970455 -0.3690598386
H   0.8514265011  0.2943118679  1.5811652541
H   1.2932989255 -1.1596090229 -1.2746133595
H   1.9269215581 -1.0310697849  0.4532400237
7
Iter 54 Image 3  Energy = -153.8838623012
C   0.9308459792  0.6650135958 -0.2166699500
H   0.5222717169  1.3198258855 -0.9788290015
O   0.8126771492  1.0709602564  1.0749298595
C   1.3955036046 -0.5712684494 -0.3347539230
H   0.7613774501  0.1585311157  1.3966227915
H   1.1056012094 -1.2628781437 -1.0935764707
H   2.0729639311 -0.8898177068  0.4462142623
7
Iter 54 Image 4  Energy = -153.8414672147
C   0.9408433661  0.7127650080 -0.1935479591
H   0.5659808431  1.3843217995 -0.9621026430
O   0.7991755689  1.0617578069  1.0965312887
C   1.3562648290 -0.5622242971 -0.2352042494
H   0.7205676993 -0.0086301122  1.1260499836
H   1.0257031674 -1.2704500908 -0.9525583546
H   2.1927056127 -0.8271733834  0.4147695665
7
Iter 54 Image 5  Energy = -153.8427534359
C   0.9320419716  0.7958413983 -0.1355594019
H   0.5812564119  1.3879269506 -0.9865251358
O   0.7932245622  1.2353140721  1.0203967553
C   1.2924574488 -0.5786530043 -0.1051724306
H   0.7558216955 -0.2648236197  1.0365816658
H   1.0105303692 -1.2558526524 -0.9161782510
H   2.2359086263 -0.8293864716  0.3803945229
7
Iter 54 Image 6  Energy = -153.9034148385
C   0.9294006363  0.8609420415 -0.1084134944
H   0.6199058691  1.3766322906 -1.0286461756
O   0.7964673996  1.4107124028  0.9620853666
C   1.2689336033 -0.5796216587 -0.0072866597
H   0.7446062190 -0.5397989143  0.9824509823
H   0.9578053011 -1.2454797852 -0.8203313068
H   2.2841219140 -0.7930198510  0.3140787186
7
Iter 54 Image 7  Energy = -153.9278915975
C   0.9007227555  0.8927969779 -0.0474924626
H   0.7096739932  1.3583856427 -1.0335107851
O   0.7127178550  1.5338568939  0.9535446209
C   1.2583135733 -0.5614361758  0.0505996183
H   0.7383164431 -0.8515121244  0.9610976506
H   0.9641842022 -1.1468799989 -0.8178849166
H   2.3173122256 -0.7348444759  0.2275833893
7
Iter 54 Image 8  Energy = -153.9308032495
C   0.8807451041  0.9054627172  0.0144603359
H   0.6765533561  1.3431544356 -0.9845361505
O   0.8390824421  1.6150404261  0.9823790921
C   1.2179976191 -0.5671602440  0.0592081592
H   0.6664206198 -1.1008062527  0.8357984279
H   1.0425323865 -1.0386833800 -0.9034115180
H   2.2779101191 -0.6666407948  0.2900403395
7
Iter 54 Image 9  Energy = -153.9311690486
C   0.8559574267  0.8975610592  0.0093569065
H   0.8147033767  1.3436228132 -1.0051365734
O   0.6089640649  1.5787441105  0.9668340901
C   1.2425509273 -0.5594023345  0.0727882413
H   0.7919465924 -1.0623642923  0.9274362336
H   0.9594851695 -1.0775163554 -0.8412667734
H   2.3276340788 -0.6302781139  0.1639266593
7
Iter 54 Image 10  Energy = -153.9315408221
C   0.8227513798  0.8840397244 -0.0118448573
H   0.9165044658  1.3348758334 -1.0200981164
O   0.3972853183  1.5384045851  0.9018636339
C   1.2710431333 -0.5487277493  0.0959686012
H   0.9344982048 -0.9993198782  1.0265104348
H   0.8981304018 -1.1266651143 -0.7490610599
H   2.3610286847 -0.5922405430  0.0506001052
7
Iter 54 Image 11  Energy = -153.9315568446
C   0.7840367852  0.8656586589 -0.0371164025
H   0.9809293880  1.3403901038 -1.0231241499
O   0.1875804579  1.4681235287  0.8223429327
C   1.3100769769 -0.5359012779  0.1153731248
H   1.0639489065 -0.9236344469  1.1059940899
H   0.8779311114 -1.1816924395 -0.6582837811
H   2.3967379442 -0.5425772870 -0.0312469938
7
Iter 55 Image 0  Energy = -153.9146221658
C   0.8260657415  0.5508603911 -0.1261794589
H   0.4554445983  1.2417513435 -0.8784317668
O   0.5680753083  1.0246514429  1.1187434847
C   1.4411098584 -0.5873603774 -0.4363613732
H   0.9099091373  0.3932317500  1.7666320721
H   1.5916834696 -0.8592929697 -1.4741885892
H   1.8089534565 -1.2734747403  0.3237244514
7
Iter 55 Image 1  Energy = -153.9129662289
C   0.8589546478  0.5822171599 -0.1578418980
H   0.4709121862  1.2470463435 -0.9207469791
O   0.7158052634  1.0883214207  1.0974068613
C   1.3941591259 -0.6049511623 -0.4131635268
H   0.8599072423  0.3597170593  1.7092050901
H   1.4263075675 -1.0263321610 -1.4052472465
H   1.8751953137 -1.1556516935  0.3843258334
7
Iter 55 Image 2  Energy = -153.9061225811
C   0.8842217921  0.6199299963 -0.1938155343
H   0.4767131326  1.2519645632 -0.9745802391
O   0.7957310990  1.1103496541  1.0720129009
C   1.3772253166 -0.5951856761 -0.3720709512
H   0.8553789745  0.2918069596  1.5795818370
H   1.2896674317 -1.1634512576 -1.2750763312
H   1.9223032403 -1.0250473661  0.4578854627
7
Iter 55 Image 3  Energy = -153.8838319889
C   0.9313145191  0.6669936413 -0.2145727765
H   0.5207897151  1.3252031361 -0.9687020514
O   0.8134158611  1.0635816646  1.0802063916
C   1.3965993719 -0.5714478445 -0.3367018380
H   0.7542667496  0.1481028802  1.3905614135
H   1.1153628200 -1.2549937044 -1.1048623657
H   2.0694920542 -0.8870731715  0.4480089286
7
Iter 55 Image 4  Energy = -153.8422341424
C   0.9387133000  0.7133290619 -0.1886656504
H   0.5626499820  1.3854715731 -0.9569935716
O   0.8001892990  1.0605201606  1.0986473531
C   1.3507172744 -0.5639043925 -0.2337258458
H   0.7226516123 -0.0124630776  1.1276415150
H   1.0400807262 -1.2633892165 -0.9715863929
H   2.1862389298 -0.8291973452  0.4186203131
7
Iter 55 Image 5  Energy = -153.8431909476
C   0.9306213951  0.7954778293 -0.1314099463
H   0.5748319331  1.3890973847 -0.9798574146
O   0.7984433711  1.2343268061  1.0240084553
C   1.2878399170 -0.5799603689 -0.1048026790
H   0.7553355465 -0.2708366901  1.0339593287
H   1.0269922052 -1.2467756414 -0.9361782510
H   2.2271767627 -0.8309625857  0.3882183164
7
Iter 55 Image 6  Energy = -153.9033126987
C   0.9280939101  0.8606266545 -0.1046934967
H   0.6179372202  1.3773399992 -1.0240239490
O   0.7987291601  1.4093201058  0.9641430893
C   1.2660789071 -0.5806235358 -0.0088865566
H   0.7434774777 -0.5443481641  0.9820329038
H   0.9663151027 -1.2372574897 -0.8327584692
H   2.2806091904 -0.7946909872  0.3181241045
7
Iter 55 Image 7  Energy = -153.9278909432
C   0.9017768350  0.8919970114 -0.0454502820
H   0.6987665003  1.3518133503 -1.0318726178
O   0.7277994672  1.5348348065  0.9547656592
C   1.2591280312 -0.5624365861  0.0497036710
H   0.7271188656 -0.8504930509  0.9538515882
H   0.9685392615 -1.1445994452 -0.8219467373
H   2.3181121382 -0.7307494037  0.2348859396
7
Iter 55 Image 8  Energy = -153.9308640958
C   0.8799328530  0.9045808353  0.0165332677
H   0.6783018216  1.3417177325 -0.9843708904
O   0.8353291230  1.6090722226  0.9841238319
C   1.2188929138 -0.5666093995  0.0584041035
H   0.6657992141 -1.0944729809  0.8369837479
H   1.0439175056 -1.0364215823 -0.9048390656
H   2.2790682170 -0.6674999248  0.2871037293
7
Iter 55 Image 9  Energy = -153.9311660488
C   0.8553476127  0.8971372046  0.0108673822
H   0.8148762571  1.3400059807 -1.0050369013
O   0.6130391980  1.5801336642  0.9675078702
C   1.2409060878 -0.5594751823  0.0731556705
H   0.7900949020 -1.0647950467  0.9260587681
H   0.9610898901 -1.0742083756 -0.8432970529
H   2.3258876860 -0.6284313675  0.1646830497
7
Iter 55 Image 10  Energy = -153.9315277118
C   0.8231782441  0.8830775092 -0.0122921750
H   0.9166865796  1.3330318797 -1.0199500815
O   0.3981483559  1.5402382182  0.9030628224
C   1.2703112995 -0.5487983189  0.0962883447
H   0.9342301281 -1.0005909192  1.0263229134
H   0.8984108035 -1.1250189718 -0.7503521425
H   2.3602761843 -0.5915725379  0.0508590565
7
Iter 55 Image 11  Energy = -153.9315568446
C   0.7840367852  0.8656586589 -0.0371164025
H   0.9809293880  1.3403901038 -1.0231241499
O   0.1875804579  1.4681235287  0.8223429327
C   1.3100769769 -0.5359012779  0.1153731248
H   1.0639489065 -0.9236344469  1.1059940899
H   0.8779311114 -1.1816924395 -0.6582837811
H   2.3967379442 -0.5425772870 -0.0312469938
7
Iter 56 Image 0  Energy = -153.9146221658
C   0.8260657415  0.5508603911 -0.1261794589
H   0.4554445983  1.2417513435 -0.8784317668
O   0.5680753083  1.0246514429  1.1187434847
C   1.4411098584 -0.5873603774 -0.4363613732
H   0.9099091373  0.3932317500  1.7666320721
H   1.5916834696 -0.8592929697 -1.4741885892
H   1.8089534565 -1.2734747403  0.3237244514
7
Iter 56 Image 1  Energy = -153.9129958573
C   0.8576682373  0.5815420564 -0.1581626283
H   0.4686093360  1.2434994349 -0.9223550094
O   0.7198740108  1.0908778618  1.0963955451
C   1.3948568395 -0.6048873048 -0.4119021580
H   0.8616533512  0.3608920014  1.7064888600
H   1.4269833756 -1.0254362637 -1.4041203653
H   1.8715961818 -1.1561208178  0.3875938847
7
Iter 56 Image 2  Energy = -153.9059151966
C   0.8845541957  0.6199520513 -0.1941718789
H   0.4789017531  1.2573020925 -0.9692534268
O   0.7914636373  1.1053503503  1.0724516160
C   1.3838589936 -0.5934075003 -0.3767812934
H   0.8557481433  0.2851528318  1.5767005345
H   1.2855918281 -1.1659976478 -1.2755991154
H   1.9211224859 -1.0179853669  0.4605908686
7
Iter 56 Image 3  Energy = -153.8837452347
C   0.9298059953  0.6657315311 -0.2096236341
H   0.5213197015  1.3320187253 -0.9589813864
O   0.8118949096  1.0567571124  1.0864166954
C   1.3946537877 -0.5696726421 -0.3369651485
H   0.7479206389  0.1371799519  1.3834519686
H   1.1274500188 -1.2451687414 -1.1183486723
H   2.0681960904 -0.8864792695  0.4479880038
7
Iter 56 Image 4  Energy = -153.8428332229
C   0.9339354904  0.7131547447 -0.1829521265
H   0.5631332603  1.3858282276 -0.9518863561
O   0.7973147837  1.0609773707  1.1026585045
C   1.3444650734 -0.5666725702 -0.2318717783
H   0.7255701993 -0.0160389407  1.1298445247
H   1.0543260383 -1.2547365936 -0.9910490162
H   2.1824963145 -0.8321454320  0.4191940553
7
Iter 56 Image 5  Energy = -153.8435781499
C   0.9271704134  0.7946781641 -0.1258370149
H   0.5717794488  1.3900446923 -0.9731878043
O   0.7999750234  1.2333428665  1.0291314687
C   1.2828452673 -0.5818474374 -0.1052766814
H   0.7555372060 -0.2768498838  1.0318877643
H   1.0435640173 -1.2362349524 -0.9561782510
H   2.2203697984 -0.8327666487  0.3933983982
7
Iter 56 Image 6  Energy = -153.9028487749
C   0.9249520729  0.8589958503 -0.1007374467
H   0.6168852454  1.3785795650 -1.0174832018
O   0.7976472863  1.4065703053  0.9709377758
C   1.2652183730 -0.5809985663 -0.0114831957
H   0.7430114686 -0.5487735185  0.9797576894
H   0.9772996186 -1.2270624734 -0.8499923304
H   2.2762269442 -0.7969444972  0.3229385263
7
Iter 56 Image 7  Energy = -153.9277806457
C   0.9019249731  0.8899400496 -0.0444924183
H   0.6886408334  1.3463471180 -1.0294812662
O   0.7427508411  1.5350848415  0.9579163822
C   1.2598142230 -0.5633550738  0.0471780028
H   0.7173157058 -0.8464796547  0.9462345801
H   0.9723324417 -1.1436873251 -0.8269617537
H   2.3184621295 -0.7274833015  0.2435438269
7
Iter 56 Image 8  Energy = -153.9309719739
C   0.8790697374  0.9014538662  0.0158676773
H   0.6803904247  1.3395880917 -0.9836673242
O   0.8293504669  1.6035558316  0.9894411044
C   1.2212190821 -0.5655772614  0.0565569536
H   0.6656417717 -1.0846301850  0.8380486464
H   1.0441325425 -1.0350926689 -0.9065641862
H   2.2814376273 -0.6689307792  0.2842558978
7
Iter 56 Image 9  Energy = -153.9311827798
C   0.8543744418  0.8959027150  0.0117795120
H   0.8159663634  1.3357448577 -1.0050392848
O   0.6148614061  1.5803576725  0.9684878041
C   1.2398742182 -0.5593482278  0.0732004683
H   0.7895594371 -1.0644023290  0.9258655851
H   0.9618229203 -1.0712722864 -0.8451275016
H   2.3247828433 -0.6266155309  0.1647722091
7
Iter 56 Image 10  Energy = -153.9315432584
C   0.8226537706  0.8832416224 -0.0107199699
H   0.9170419039  1.3307915803 -1.0199873367
O   0.3990182006  1.5398658859  0.9023787125
C   1.2698813547 -0.5488944479  0.0963702676
H   0.9343514682 -1.0003236618  1.0264825306
H   0.8985480168 -1.1235571768 -0.7514957015
H   2.3597468852 -0.5907569427  0.0509102337
7
Iter 56 Image 11  Energy = -153.9315568446
C   0.7840367852  0.8656586589 -0.0371164025
H   0.9809293880  1.3403901038 -1.0231241499
O   0.1875804579  1.4681235287  0.8223429327
C   1.3100769769 -0.5359012779  0.1153731248
H   1.0639489065 -0.9236344469  1.1059940899
H   0.8779311114 -1.1816924395 -0.6582837811
H   2.3967379442 -0.5425772870 -0.0312469938
7
Iter 57 Image 0  Energy = -153.9146221658
C   0.8260657415  0.5508603911 -0.1261794589
H   0.4554445983  1.2417513435 -0.8784317668
O   0.5680753083  1.0246514429  1.1187434847
C   1.4411098584 -0.5873603774 -0.4363613732
H   0.9099091373  0.3932317500  1.7666320721
H   1.5916834696 -0.8592929697 -1.4741885892
H   1.8089534565 -1.2734747403  0.3237244514
7
Iter 57 Image 1  Energy = -153.9129997486
C   0.8564589848  0.5803881878 -0.1583035421
H   0.4668225486  1.2409677894 -0.9237732351
O   0.7225636011  1.0926578561  1.0951863664
C   1.3973307010 -0.6033024519 -0.4111893012
H   0.8631723123  0.3605080022  1.7038654515
H   1.4263314752 -1.0251131623 -1.4029850470
H   1.8685617008 -1.1557392675  0.3911374540
7
Iter 57 Image 2  Energy = -153.9055262687
C   0.8848538203  0.6180217354 -0.1938231969
H   0.4827485198  1.2662811452 -0.9622910920
O   0.7857776192  1.0979824857  1.0750002779
C   1.3906258600 -0.5889379945 -0.3815958657
H   0.8521691516  0.2757299218  1.5725744222
H   1.2812923995 -1.1681359011 -1.2770262220
H   1.9237737268 -1.0105746317  0.4610991682
7
Iter 57 Image 3  Energy = -153.8836307313
C   0.9241245201  0.6662917089 -0.2044539436
H   0.5247416299  1.3384520774 -0.9492565482
O   0.8083079603  1.0507383856  1.0937662156
C   1.3913440033 -0.5701664104 -0.3352380589
H   0.7430197146  0.1270200964  1.3762961387
H   1.1411467208 -1.2341613126 -1.1327468958
H   2.0685566386 -0.8878077949  0.4455710180
7
Iter 57 Image 4  Energy = -153.8431963032
C   0.9270967795  0.7118169673 -0.1762268639
H   0.5677918189  1.3856201362 -0.9475869586
O   0.7906818836  1.0628302798  1.1078027137
C   1.3374073255 -0.5706524419 -0.2305685047
H   0.7289499675 -0.0187531108  1.1322672516
H   1.0668554587 -1.2451989410 -1.0081056276
H   2.1824579606 -0.8352960291  0.4163558523
7
Iter 57 Image 5  Energy = -153.8439371001
C   0.9215187738  0.7950056430 -0.1189777632
H   0.5730934228  1.3905691122 -0.9668309609
O   0.7975384666  1.2312773661  1.0345440636
C   1.2788596800 -0.5840791139 -0.1060283962
H   0.7562082831 -0.2825313831  1.0303319468
H   1.0580126412 -1.2258736342 -0.9741041689
H   2.2160099430 -0.8340011187  0.3950031973
7
Iter 57 Image 6  Energy = -153.9020981199
C   0.9207609181  0.8571861916 -0.0926307365
H   0.6165678958  1.3808964152 -1.0097910201
O   0.7934951135  1.4008437544  0.9793270131
C   1.2647366533 -0.5807736788 -0.0166689617
H   0.7428391110 -0.5530082065  0.9748491429
H   0.9903674142 -1.2154977324 -0.8699923304
H   2.2724739603 -0.7992799750  0.3288448785
7
Iter 57 Image 7  Energy = -153.9275543863
C   0.9012622688  0.8879117694 -0.0433317544
H   0.6799515234  1.3424040448 -1.0268459369
O   0.7575615810  1.5339160958  0.9608261417
C   1.2607215600 -0.5640621658  0.0435264078
H   0.7095710878 -0.8398528650  0.9389764332
H   0.9747201988 -1.1449600976 -0.8322848711
H   2.3174529689 -0.7249901189  0.2530710850
7
Iter 57 Image 8  Energy = -153.9310423492
C   0.8782261766  0.9002842709  0.0179197677
H   0.6822835244  1.3366679320 -0.9826992171
O   0.8221844180  1.5956227350  0.9931798734
C   1.2249442819 -0.5647053358  0.0535157869
H   0.6655954225 -1.0723153356  0.8385409412
H   1.0432552980 -1.0345068549 -0.9085166170
H   2.2847525342 -0.6706805289  0.2819982777
7
Iter 57 Image 9  Energy = -153.9312078986
C   0.8533629564  0.8937214804  0.0116711922
H   0.8178543913  1.3311815371 -1.0051643072
O   0.6140856813  1.5793853569  0.9700689225
C   1.2395992139 -0.5589593076  0.0728942717
H   0.7903482995 -1.0609352762  0.9269973879
H   0.9615210028 -1.0689718181 -0.8467201512
H   2.3244700791 -0.6250551055  0.1641914809
7
Iter 57 Image 10  Energy = -153.9315485549
C   0.8227715448  0.8822512419 -0.0106353852
H   0.9174442629  1.3282790661 -1.0199514100
O   0.3986205929  1.5393931983  0.9030318701
C   1.2697349236 -0.5487921702  0.0962480374
H   0.9346691607 -0.9985260571  1.0269469963
H   0.8985119865 -1.1223038424 -0.7525497989
H   2.3594891331 -0.5899345756  0.0508484242
7
Iter 57 Image 11  Energy = -153.9315568446
C   0.7840367852  0.8656586589 -0.0371164025
H   0.9809293880  1.3403901038 -1.0231241499
O   0.1875804579  1.4681235287  0.8223429327
C   1.3100769769 -0.5359012779  0.1153731248
H   1.0639489065 -0.9236344469  1.1059940899
H   0.8779311114 -1.1816924395 -0.6582837811
H   2.3967379442 -0.5425772870 -0.0312469938
