7
Iteration 1  Energy = -153.8238235172
C   0.9031937298  0.7488961679 -0.1409610287
H   0.6282924856  1.3595729589 -1.0043107387
O   0.7688779762  1.2207270351  1.0416882725
C   1.2528328714 -0.6046676719 -0.1380950500
H   0.8036572350 -0.1169027127  1.1950773251
H   1.0414957259 -1.1995816870 -1.0317259353
H   2.2175699947 -0.8973142651  0.3000057955
7
Iteration 2  Energy = -153.8239115391
C   0.8963615157  0.7708816176 -0.1456017647
H   0.6236204707  1.3814423900 -1.0079611029
O   0.7410691851  1.2344082156  1.0371063302
C   1.2679007754 -0.5777137083 -0.1466621165
H   0.8164100622 -0.0982213339  1.1865605442
H   1.0544406218 -1.1714613336 -1.0321786362
H   2.2285354541 -0.8656470456  0.2884729275
7
Iteration 3  Energy = -153.8239116360
C   0.8949040341  0.7703614797 -0.1457071020
H   0.6190671278  1.3795709145 -1.0080364861
O   0.7405349156  1.2342220513  1.0368087758
C   1.2697662575 -0.5771285661 -0.1462611267
H   0.8196001032 -0.0973894129  1.1873815020
H   1.0559536541 -1.1723261455 -1.0308520380
H   2.2320459200 -0.8624155217  0.2872420505
7
Iteration 4  Energy = -153.8239116667
C   0.8953431082  0.7709578867 -0.1440731035
H   0.6197913978  1.3802998042 -1.0063937137
O   0.7413351730  1.2349397533  1.0384416277
C   1.2694267858 -0.5767441760 -0.1446256294
H   0.8196376680 -0.0967097930  1.1890371061
H   1.0552060360 -1.1718394228 -1.0291850548
H   2.2315691526 -0.8625756440  0.2888097821
7
Iteration 1  Energy = -153.8238158156
C   0.9026981058  0.7486096936 -0.1417230557
H   0.6262298351  1.3585288240 -1.0051057093
O   0.7690460228  1.2210035759  1.0406744229
C   1.2531968507 -0.6045834895 -0.1388655687
H   0.8026075837 -0.1171918187  1.1938726869
H   1.0459454601 -1.1992284054 -1.0333389516
H   2.2174079514 -0.8955917409  0.3020734392
7
Iteration 2  Energy = -153.8239115243
C   0.9035815825  0.7599133032 -0.1231915419
H   0.6306383067  1.3700917890 -0.9857657712
O   0.7451615872  1.2226091644  1.0595047742
C   1.2787055291 -0.5877451269 -0.1242160430
H   0.8237888198 -0.1100583668  1.2084740381
H   1.0682857764 -1.1817170629 -1.0103246960
H   2.2393865901 -0.8732761159  0.3124045438
7
Iteration 3  Energy = -153.8239115944
C   0.9007169057  0.7589190024 -0.1233620420
H   0.6217295976  1.3664889533 -0.9858532625
O   0.7439103928  1.2222530834  1.0590403580
C   1.2825862262 -0.5866165487 -0.1235724143
H   0.8299057024 -0.1089060316  1.2099489780
H   1.0718836857 -1.1831336824 -1.0080242017
H   2.2463427339 -0.8667921033  0.3100234926
7
Iteration 4  Energy = -153.8239116158
C   0.9004097938  0.7557660298 -0.1250343070
H   0.6215107603  1.3634828048 -0.9874255409
O   0.7436340390  1.2189405655  1.0574330672
C   1.2821270815 -0.5897938432 -0.1254582250
H   0.8294662817 -0.1122343637  1.2081212291
H   1.0713878472 -1.1861483270 -1.0100057579
H   2.2458229737 -0.8701397524  0.3081084295
7
Iteration 5  Energy = -153.8239116541
C   0.9001252810  0.7557704817 -0.1255435819
H   0.6205592455  1.3627280552 -0.9882540444
O   0.7433148074  1.2195908900  1.0566662394
C   1.2828278313 -0.5895100964 -0.1251999016
H   0.8301603154 -0.1114240157  1.2081887998
H   1.0722975612 -1.1865881867 -1.0093095093
H   2.2468403373 -0.8688712841  0.3082993318
