8
O=
  C           0.96460134702489      0.91518380393478      0.07947825716978
  H           1.21399497580986      1.46136946883138     -0.85638068370421
  O           0.55893757404208      1.51383346474746      1.04614774846581
  C           1.17333868007576     -0.57411247681117      0.02687683451993
  H           0.89551921113557     -1.02614297338108      0.98119895353925
  H           0.57180295172992     -1.00574741693339     -0.78194164166625
  H           2.22304683018191     -0.79401703038798     -0.20144064832430
