7
Iteration 1  Energy = -29.5661368883
C   0.8119836576  0.7004735205 -0.1030877939
H   0.6999335096  1.3031756216 -1.0102611293
O   0.3993242265  1.2344708612  0.9865259344
C   1.3707195632 -0.5734986680 -0.1810038518
H   0.9732702065 -0.2256027137  1.5054088726
H   1.2449917492 -1.0371494408 -1.1387452368
H   2.1818199157 -0.9194054511  0.3051924346
7
Iteration 2  Energy = -29.5771172634
C   0.8072379135  0.7201398434 -0.1228425584
H   0.6848667500  1.3307460252 -1.0397482068
O   0.4044543150  1.2246151234  0.9943165829
C   1.3659200623 -0.5799624408 -0.1729490949
H   0.9419028693 -0.2427533679  1.4815967581
H   1.2404732584 -1.1131572296 -1.1230366222
H   2.2650855484 -0.8547042143  0.3585431276
7
Iteration 3  Energy = -29.5837467229
C   0.8058488706  0.7367090878 -0.1430442730
H   0.6744358138  1.3524212401 -1.0558053107
O   0.4106348275  1.2118371212  1.0025147526
C   1.3629534277 -0.5800146146 -0.1584594024
H   0.8798791583 -0.2390788629  1.3906955160
H   1.2238892309 -1.1742489710 -1.0762054595
H   2.3079278739 -0.8129614457  0.3566114400
7
Iteration 4  Energy = -29.5923676854
C   0.8075235091  0.7399317821 -0.1513428457
H   0.6688194573  1.3568498282 -1.0572466290
O   0.4145476435  1.2011651737  1.0084911338
C   1.3602057689 -0.5761055667 -0.1475337494
H   0.8395572819 -0.1581282191  1.2401220157
H   1.2073822516 -1.1949977932 -1.0456407453
H   2.3210545331 -0.7931859935  0.3519007373
7
Iteration 5  Energy = -29.5988717592
C   0.8118924629  0.7480392630 -0.1712150572
H   0.6493178530  1.3729437571 -1.0618057030
O   0.4214123636  1.1826674537  1.0151728043
C   1.3552809884 -0.5655457506 -0.1352594573
H   0.7895672304 -0.0965299743  1.1536890451
H   1.1780980185 -1.2384354051 -0.9911154285
H   2.3174964423 -0.7562778154  0.3728501360
7
Iteration 6  Energy = -29.6029635137
C   0.8161336493  0.7597187710 -0.1954039761
H   0.6315473279  1.3984058080 -1.0713431752
O   0.4298313385  1.1601069394  1.0197973232
C   1.3465489805 -0.5529515911 -0.1209297717
H   0.7663134672 -0.0608262591  1.1092700967
H   1.1578084374 -1.2761363736 -0.9318868308
H   2.2986952531 -0.7108986732  0.4116569701
7
Iteration 7  Energy = -29.6062335736
C   0.8199383178  0.7755502989 -0.2164803657
H   0.6260323121  1.4315411532 -1.0768279559
O   0.4379592815  1.1382574447  1.0196491117
C   1.3383394029 -0.5407436370 -0.1091003063
H   0.7375451650 -0.0895418716  1.1245257406
H   1.1264380025 -1.3251665031 -0.8552631801
H   2.2878297081 -0.6536018960  0.4377982664
7
Iteration 8  Energy = -29.6073345906
C   0.8245577522  0.7900356023 -0.2342167695
H   0.6439843190  1.4737570750 -1.0755803770
O   0.4435962814  1.1150416890  1.0196115020
C   1.3299956060 -0.5290778303 -0.0989647572
H   0.7277112652 -0.0864608866  1.1067221616
H   1.0841624276 -1.3721556760 -0.7654387676
H   2.2768949357 -0.5950366230  0.4556967331
7
Iteration 9  Energy = -29.6073493874
C   0.8480169099  0.7969024155 -0.2319343352
H   0.7120866405  1.4916963483 -1.0729123237
O   0.4130362327  1.1093126116  1.0060015037
C   1.3431091903 -0.5284866616 -0.0867518825
H   0.6943248003 -0.0969144077  1.0956785080
H   1.1024791093 -1.3673475429 -0.7522051434
H   2.2731880507 -0.6051927373  0.4945017122
7
Iteration 10  Energy = -29.6073513991
C   0.8488646949  0.7993519514 -0.2517971094
H   0.7139375925  1.4943184010 -1.0915470302
O   0.4143053947  1.1122302760  0.9847258527
C   1.3435873219 -0.5261476063 -0.1068470248
H   0.6967290078 -0.0938598614  1.0750987010
H   1.1018583871 -1.3651268385 -0.7717997496
H   2.2740424299 -0.6032228568  0.4728987155
7
Iteration 11  Energy = -29.6073514289
C   0.8563819918  0.8020713253 -0.2500430794
H   0.7346417451  1.5022389734 -1.0876167147
O   0.4090126055  1.1104249020  0.9831341385
C   1.3428936911 -0.5266485419 -0.1064913399
H   0.6844599333 -0.0975465215  1.0702836821
H   1.1047234315 -1.3608585705 -0.7787528623
H   2.2662655254 -0.6114266003  0.4835982499
7
Iteration 12  Energy = -29.6073514438
C   0.8537147959  0.8018985220 -0.2568283501
H   0.7319419795  1.5020524681 -1.0942858964
O   0.4063914156  1.1102514039  0.9762862614
C   1.3402402572 -0.5267984415 -0.1133902003
H   0.6818637091 -0.0976952053  1.0633440845
H   1.1021079488 -1.3609778319 -0.7856371325
H   2.2635528849 -0.6115992924  0.4766050119
7
Iteration 13  Energy = -29.6073514587
C   0.8572330388  0.8036060084 -0.2562431165
H   0.7420610558  1.5060966694 -1.0927069596
O   0.4035808037  1.1101047688  0.9750393216
C   1.3395676178 -0.5266700738 -0.1132179541
H   0.6754930041 -0.0987499674  1.0607596011
H   1.1031992417 -1.3586183217 -0.7888582732
H   2.2592638454 -0.6152375467  0.4818955635
7
Iteration 14  Energy = -29.6073514885
C   0.8571844339  0.8036511728 -0.2526050203
H   0.7420446316  1.5060259804 -1.0891406717
O   0.4033269946  1.1102414322  0.9785599677
C   1.3396579819 -0.5265454527 -0.1093799797
H   0.6753751076 -0.0985651410  1.0644402132
H   1.1034960032 -1.3585947762 -0.7849534694
H   2.2592628358 -0.6149385395  0.4858559377
7
Iteration 15  Energy = -29.6073514140
C   0.8572088309  0.8036847896 -0.2525323583
H   0.7421140084  1.5061809226 -1.0889723012
O   0.4033870755  1.1101439329  0.9786784488
C   1.3395825507 -0.5265678074 -0.1094910324
H   0.6753440347 -0.0986948364  1.0643931800
H   1.1033506347 -1.3585084480 -0.7851740551
H   2.2591865663 -0.6151106861  0.4857238652
