7
Image 0  Energy = -29.67961370
C   0.8260657415  0.5508603911 -0.1261794589
H   0.4554445983  1.2417513435 -0.8784317668
O   0.5680753083  1.0246514429  1.1187434847
C   1.4411098584 -0.5873603774 -0.4363613732
H   0.9099091373  0.3932317500  1.7666320721
H   1.5916834696 -0.8592929697 -1.4741885892
H   1.8089534565 -1.2734747403  0.3237244514
7
Image 1  Energy = -29.68055072
C   0.7596918653  0.6884364329 -0.1400604790
H   0.5516427559  1.2612959977 -1.0399177187
O   0.3384228463  1.3396168818  1.0055182931
C   1.3661761338 -0.5021496289 -0.1566898127
H   0.4753523428  0.7661472235  1.7839877620
H   1.6289338643 -0.9683559108 -1.0968747026
H   1.6187422611 -1.0285253765  0.7609387756
7
Image 2  Energy = -29.68029372
C   0.7125475732  0.8016636943 -0.1152591768
H   0.6581262602  1.2747578902 -1.0917759035
O   0.1407262018  1.5753350538  0.8789270336
C   1.2900569349 -0.3854520547  0.0846710112
H   0.1144980701  1.0736879626  1.7166207399
H   1.6165375051 -0.9840077596 -0.7506092991
H   1.4686857248 -0.7835659696  1.0771831178
7
Image 3  Energy = -29.68053459
C   0.8474994049  0.9671964872  0.0020780829
H   1.2746720553  1.5629039628 -0.7986072538
O  -0.1078159961  1.6646242336  0.7167694834
C   1.2099921064 -0.2923888429  0.2490583892
H  -0.4107924860  1.1212041550  1.4686422280
H   0.7786998423 -0.8731005376  1.0600212853
H   1.9663232448 -0.7673776987 -0.3587774382
7
Image 4  Energy = -29.70996556
C   0.8145481199  0.6912592199 -0.0717621276
H   0.6999377471  1.2931544017 -1.0018347726
O   0.4814661613  1.1638073599  1.0014370617
C   1.4300316855 -0.6942773021 -0.1915880421
H   0.9808066307 -1.3424545160  0.5669586262
H   1.2985760385 -1.1071718937 -1.1902490635
H   2.5080813195 -0.6371551148  0.0051067688
7
Image 5  Energy = -29.71004725
C   0.9790984297  0.1507100951  0.0349698433
H   0.1930180174  0.7694308826 -0.4530891330
O   1.2428504461  0.3229860407  1.2117147308
C   1.6290940499 -0.8927199203 -0.8636283564
H   0.8805855407 -1.6410779187 -1.1390142045
H   1.9688647175 -0.4277622055 -1.7917129201
H   2.4637875654 -1.3717898354 -0.3466876020
7
Image 6  Energy = -29.71002764
C   0.8602723834  0.5143170779 -0.0413863002
H   0.4197992022  1.2007513339 -0.8002241762
O   0.8040441721  0.8100987483  1.1416263848
C   1.5051221965 -0.7808319601 -0.5071462716
H   0.9288946422 -1.6287091348 -0.1137560030
H   1.5433039070 -0.8470859217 -1.5920719348
H   2.5184542652 -0.8461339029 -0.0915890222
7
Image 7  Energy = -29.70998964
C   0.7866659268  0.7114413298 -0.0604572667
H   0.6581073186  1.3037417347 -0.9953629323
O   0.4681557139  1.1937059080  1.0129484638
C   1.4143901479 -0.6679296957 -0.1913910824
H   1.0448143004 -1.3152468909  0.6104139040
H   1.2062402321 -1.1039588490 -1.1677560162
H   2.5033038166 -0.5775960228 -0.0921276532
7
Image 8  Energy = -29.70969716
C   0.7840367852  0.8656586589 -0.0371164025
H   0.9809293880  1.3403901038 -1.0231241499
O   0.1875804579  1.4681235287  0.8223429327
C   1.3100769769 -0.5359012779  0.1153731248
H   1.0639489065 -0.9236344469  1.1059940899
H   0.8779311114 -1.1816924395 -0.6582837811
H   2.3967379442 -0.5425772870 -0.0312469938
