7
Image 0  Energy = -29.67961370
C   0.8260657415  0.5508603911 -0.1261794589
H   0.4554445983  1.2417513435 -0.8784317668
O   0.5680753083  1.0246514429  1.1187434847
C   1.4411098584 -0.5873603774 -0.4363613732
H   0.9099091373  0.3932317500  1.7666320721
H   1.5916834696 -0.8592929697 -1.4741885892
H   1.8089534565 -1.2734747403  0.3237244514
7
Image 1  Energy = -29.67610110
C   0.8337447571  0.5526778952 -0.1313302943
H   0.4895346965  1.2454462703 -0.9310200471
O   0.5530555199  1.0386607249  1.1098494329
C   1.4315594968 -0.5823255435 -0.4001282764
H   0.9026805199  0.3438967903  1.7813671039
H   1.5277373472 -0.8418776883 -1.4527707466
H   1.8629292327 -1.2661116090  0.3179716476
7
Image 2  Energy = -29.63585982
C   0.8276995509  0.5978686507 -0.1219956659
H   0.5619618995  1.2599167088 -0.9461905872
O   0.5015723093  1.1036543172  1.0690362552
C   1.4122728137 -0.5756000815 -0.3242718160
H   0.9254989004  0.1630816559  1.6865268324
H   1.4340065985 -0.8920173396 -1.3384830044
H   1.9382294977 -1.1665370716  0.2693168059
7
Image 3  Energy = -29.56804484
C   0.8211112176  0.6442302724 -0.1094441026
H   0.6338452902  1.2740020997 -0.9610679641
O   0.4501574662  1.1697492074  1.0257338116
C   1.3942548055 -0.5709351922 -0.2497947332
H   0.9484096678 -0.0180605634  1.5926494194
H   1.3409419867 -0.9419454582 -1.2239142933
H   2.0125211361 -1.0666735257  0.2197766823
7
Image 4  Energy = -29.52401562
C   0.8145515226  0.6905894008 -0.0968670767
H   0.7056775955  1.2880279815 -0.9759659847
O   0.3987944684  1.2358941997  0.9824983758
C   1.3762757854 -0.5662777849 -0.1753161533
H   0.9711944706 -0.1991853626  1.4987101646
H   1.2478625920 -0.9918416784 -1.1093189327
H   2.0868851355 -0.9668399161  0.1701984271
7
Image 5  Energy = -29.60735141
C   0.8572088309  0.8036847896 -0.2525323583
H   0.7421140084  1.5061809226 -1.0889723012
O   0.4033870755  1.1101439329  0.9786784488
C   1.3395825507 -0.5265678074 -0.1094910324
H   0.6753440347 -0.0986948364  1.0643931800
H   1.1033506347 -1.3585084480 -0.7851740551
H   2.2591865663 -0.6151106861  0.4857238652
7
Image 6  Energy = -29.55391656
C   0.8081904690  0.7369312343 -0.0841134360
H   0.7771555613  1.3016410949 -0.9910071950
O   0.3477910813  1.3023867118  0.9397277205
C   1.3585671951 -0.5616722746 -0.1008271891
H   0.9931055557 -0.3801893319  1.4043419615
H   1.1546806601 -1.0415166434 -0.9945387249
H   2.1617510475 -0.8672139511  0.1203556830
7
Image 7  Energy = -29.62321796
C   0.8017121568  0.7830349191 -0.0711577679
H   0.8483870070  1.3152058683 -1.0057476187
O   0.2966211796  1.3680989512  0.8972097622
C   1.3409658046 -0.5567903106 -0.0265062685
H   1.0151348147 -0.5612033194  1.3096212497
H   1.0615633928 -1.0909869682 -0.8799455029
H   2.2368572145 -0.7669923005  0.0704649662
7
Image 8  Energy = -29.68576171
C   0.7928744710  0.8243467890 -0.0541370852
H   0.9146581975  1.3277979861 -1.0144358843
O   0.2421008187  1.4181112399  0.8597763474
C   1.3255213908 -0.5463457943  0.0444334281
H   1.0395418606 -0.7424188832  1.2078076698
H   0.9697472521 -1.1363397038 -0.7691146420
H   2.3167975793 -0.6547847937  0.0196089862
7
Image 9  Energy = -29.70969716
C   0.7840367852  0.8656586589 -0.0371164025
H   0.9809293880  1.3403901038 -1.0231241499
O   0.1875804579  1.4681235287  0.8223429327
C   1.3100769769 -0.5359012779  0.1153731248
H   1.0639489065 -0.9236344469  1.1059940899
H   0.8779311114 -1.1816924395 -0.6582837811
H   2.3967379442 -0.5425772870 -0.0312469938
