8
OH
  C           0.82606574148010      0.55086039108041     -0.12617945891172
  H           0.45544459832603      1.24175134345121     -0.87843176681328
  O           0.56807530830522      1.02465144289647      1.11874348469907
  C           1.44110985840975     -0.58736037739486     -0.43636137324384
  H           0.90990913730383      0.39323174998265      1.76663207206389
  H           1.59168346964402     -0.85929296968553     -1.47418858923956
  H           1.80895345653104     -1.27347474033034      0.32372445144544
