22
Image 0  Energy = -383.5293810664
C  -0.7225496864 -1.2986866685  0.3271408801
C   1.2985984088  0.0541434871 -0.0174687686
C  -1.2582546288  2.0904975539  0.9178512316
C   1.9959207590 -0.4684033714  1.2253047010
C   2.2762217637  0.3703465214 -1.1340935127
N   0.3184561715 -0.9205896994 -0.5126029468
N  -1.9823612640 -1.4243629463 -0.3047754742
O  -1.6432778894  1.6826124976 -0.3185243000
H  -2.0196168581  0.7892971253 -0.2600875358
H  -0.0243937407 -0.6307894105 -1.4198664794
H  -0.4981531111 -1.9319400329  1.1773064398
H   0.7682689291  0.9720702323  0.2581145300
H  -2.6055369307 -2.0431409122  0.1942828435
H  -1.9175334781 -1.7491633791 -1.2676333909
H  -0.7783849729  3.0560530367  0.9508918152
H  -1.6800830237  1.6210758877  1.7939001276
H   2.7734811555  0.2321761092  1.5312603986
H   1.7467351489  0.6738786289 -2.0407288529
H   2.4553176302 -1.4392265503  1.0310464866
H   1.2970335966 -0.5717662220  2.0563541676
H   2.9241431332  1.1958270300 -0.8389802121
H   2.8958759857 -0.4962669715 -1.3702277331
