14
Scanning combination 1/73: [65.2970]  Energy = -158.5505988745
C  -0.5221052419  1.1150195031 -0.1416315728
C   0.5926189572  0.2931045125 -0.7784712598
C   1.3282824833 -0.6091159104  0.2099450331
C   0.4542495736 -1.7111054306  0.7976559901
H  -0.9498488354  1.8001980696 -0.8714993584
H  -1.3268260451  0.4747253814  0.2260868966
H  -0.1427054543  1.7026155615  0.6963944517
H   1.3142329515  0.9784586267 -1.2282786517
H   0.1788652552 -0.3083829046 -1.5926815946
H   1.7461522918 -0.0070500782  1.0216217891
H   2.1722468442 -1.0739911260 -0.3042330192
H   1.0509126344 -2.3724967038  1.4235121442
H  -0.0021417079 -2.3095424416  0.0070353635
H  -0.3440865169 -1.2965678996  1.4170001581
14
Scanning combination 2/73: [70.2970]  Energy = -158.5504425154
C  -0.5096762493  1.1383531890 -0.1443738000
C   0.5748078403  0.2763264875 -0.7795472383
C   1.3181992109 -0.5962663089  0.2281961097
C   0.4667008626 -1.7309356010  0.7850786535
H  -0.9384372227  1.8304405178 -0.8663122365
H  -1.3191372579  0.5203838319  0.2467644727
H  -0.1056451448  1.7223069374  0.6823353478
H   1.2953977978  0.9303961505 -1.2722815718
H   0.1430487105 -0.3525760461 -1.5606947408
H   1.6937094500  0.0247145183  1.0439788187
H   2.1932128796 -1.0256283659 -0.2615414420
H   1.0573382138 -2.4002265477  1.4073418851
H   0.0301206602 -2.3194720903 -0.0215895389
H  -0.3497925643 -1.3419475120  1.3951016529
14
Scanning combination 3/73: [75.2970]  Energy = -158.5500681006
C  -0.4940314314  1.1773209173 -0.1424490354
C   0.5576233435  0.2681005603 -0.7748014712
C   1.3049823375 -0.5923199124  0.2421659429
C   0.4795719992 -1.7658901923  0.7655991403
H  -0.9355555773  1.8448944967 -0.8786380568
H  -1.2992762731  0.5859855610  0.2949093344
H  -0.0676900586  1.7905733240  0.6498492564
H   1.2750719245  0.8891433268 -1.3139255344
H   0.0923003277 -0.3751574386 -1.5220547720
H   1.6333446939  0.0316507022  1.0737545622
H   2.2128328251 -0.9844754714 -0.2194627997
H   1.0723361894 -2.4121622572  1.4086570731
H   0.0887680731 -2.3741334053 -0.0485857929
H  -0.3704311805 -1.4076610580  1.3474385369
14
Scanning combination 4/73: [80.2970]  Energy = -158.5491644034
C  -0.4844030626  1.1949890686 -0.1465049113
C   0.5342442365  0.2484274500 -0.7725477403
C   1.2889946256 -0.5781923021  0.2641554678
C   0.4908390481 -1.7806127595  0.7567869118
H  -0.9290391651  1.8560531558 -0.8882632312
H  -1.2942653195  0.6276280734  0.3189185486
H  -0.0234242539  1.8053325859  0.6290397071
H   1.2610652403  0.8554682970 -1.3149617997
H   0.0645911288 -0.4014243205 -1.5109731824
H   1.6063966027  0.0502176858  1.0963268898
H   2.2009474196 -0.9544452173 -0.2024834484
H   1.0858569438 -2.4205007397  1.4059460914
H   0.1290742895 -2.3769831723 -0.0798526757
H  -0.3810305426 -1.4500886497  1.3268697520
14
Scanning combination 5/73: [85.2970]  Energy = -158.5488018715
C  -0.4709330928  1.2315910722 -0.1508594641
C   0.5114952856  0.2400143463 -0.7647383422
C   1.2706511971 -0.5755665409  0.2816475405
C   0.5078275807 -1.8129258378  0.7423854953
H  -0.9075871583  1.8854537639 -0.9035542137
H  -1.2858663413  0.7085499997  0.3532270777
H   0.0276804689  1.8555756808  0.5894296398
H   1.2355338826  0.7982742111 -1.3596464719
H  -0.0000359046 -0.4307501551 -1.4557826895
H   1.5241446227  0.0588593197  1.1315758538
H   2.2177989529 -0.8984740690 -0.1524547638
H   1.1144524623 -2.4428528198  1.3904209442
H   0.1960152454 -2.4106013158 -0.1129253763
H  -0.3913300136 -1.5312785000  1.2937311425
14
Scanning combination 6/73: [90.2970]  Energy = -158.5483422376
C  -0.4541990090  1.2732351141 -0.1535920838
C   0.4882793107  0.2362351223 -0.7528880952
C   1.2494745283 -0.5780380186  0.2971205716
C   0.5258078798 -1.8496858390  0.7237453550
H  -0.9137036568  1.8880848466 -0.9250298869
H  -1.2586246989  0.7875809235  0.4037576442
H   0.0670388596  1.9349510895  0.5384349882
H   1.2120322761  0.7678374960 -1.3753649790
H  -0.0507815363 -0.4333181597 -1.4221809054
H   1.4722492837  0.0469753513  1.1611817665
H   2.2154150104 -0.8716854186 -0.1207961917
H   1.1312571406 -2.4439768491  1.4053124737
H   0.2737962454 -2.4734780735 -0.1340549416
H  -0.4081944345 -1.6088484379  1.2368106627
14
Scanning combination 7/73: [95.2970]  Energy = -158.5478756916
C  -0.4416753451  1.3015206455 -0.1579950080
C   0.4643639684  0.2236703225 -0.7457157409
C   1.2303649239 -0.5715329261  0.3164488083
C   0.5407569969 -1.8740992012  0.7112295876
H  -0.8994403784  1.9095618603 -0.9359081964
H  -1.2414143440  0.8595028540  0.4386950683
H   0.1251445996  1.9651106053  0.4934635448
H   1.1865832211  0.7092578657 -1.4022607953
H  -0.1088808892 -0.4596799660 -1.3734169010
H   1.3990538926  0.0548447243  1.1932545395
H   2.2163593804 -0.8165546466 -0.0788140380
H   1.1512870842 -2.4606256523  1.3950787481
H   0.3444187290 -2.4855103982 -0.1683482339
H  -0.4170746381 -1.6795969362  1.1967449950
14
Scanning combination 8/73: [100.2970]  Energy = -158.5470128490
C  -0.4262205383  1.3243706039 -0.1646353995
C   0.4415123973  0.2090573931 -0.7394388405
C   1.2120814257 -0.5627131416  0.3355039624
C   0.5578443811 -1.8923624884  0.6978331085
H  -0.8870143452  1.9260791996 -0.9465001445
H  -1.2270191088  0.9063638067  0.4515780648
H   0.1611720865  1.9870362875  0.4707366691
H   1.1647131525  0.6680986710 -1.4145951054
H  -0.1506312203 -0.4768525447 -1.3454954912
H   1.3530801938  0.0596621660  1.2193458158
H   2.2095340349 -0.7794363952 -0.0488107702
H   1.1692764120 -2.4728601100  1.3869448550
H   0.3843158960 -2.4967468606 -0.1923745769
H  -0.4127975638 -1.7238274415  1.1723642326
14
Scanning combination 9/73: [105.2970]  Energy = -158.5468078265
C  -0.4096659019  1.3565655158 -0.1703440608
C   0.4162156308  0.2019222659 -0.7281035899
C   1.1897988889 -0.5622785943  0.3534641336
C   0.5764633880 -1.9196062943  0.6818839047
H  -0.8732284349  1.9426457253 -0.9613879541
H  -1.1989376641  0.9853222582  0.4863158066
H   0.2165274904  2.0260720337  0.4167181552
H   1.1303808661  0.6084904416 -1.4432971509
H  -0.2165717706 -0.4873489594 -1.2869292803
H   1.2710829623  0.0493250105  1.2518710817
H   2.2080477791 -0.7248724162  0.0019456410
H   1.1916382767 -2.4843346704  1.3795738888
H   0.4635098654 -2.5168327980 -0.2212002031
H  -0.4154141770 -1.7992003677  1.1219460077
14
Scanning combination 10/73: [110.2970]  Energy = -158.5466667881
C  -0.3863412274  1.3877365242 -0.1730516542
C   0.3951426977  0.1955788139 -0.7179309623
C   1.1705080112 -0.5616169835  0.3681403384
C   0.5951426123 -1.9448650720  0.6587295230
H  -0.8883223278  1.9359581773 -0.9671259455
H  -1.1462672408  1.0531143077  0.5362747386
H   0.2672864726  2.0811358235  0.3540527201
H   1.0914453840  0.5672854488 -1.4684421321
H  -0.2752489243 -0.4864922714 -1.2391964694
H   1.2040279485  0.0307619529  1.2815578410
H   2.2051613295 -0.6895586272  0.0528435026
H   1.1888573534 -2.4801641652  1.3963153113
H   0.5515677351 -2.5523457607 -0.2440070419
H  -0.4231126254 -1.8606590150  1.0442966102
14
Scanning combination 11/73: [115.2970]  Energy = -158.5462773275
C  -0.3709315050  1.4061079210 -0.1792939574
C   0.3670417224  0.1816283410 -0.7077051369
C   1.1466302157 -0.5549889496  0.3899253623
C   0.6109613347 -1.9588369108  0.6457446134
H  -0.8865333713  1.9471491535 -0.9686596431
H  -1.1150159266  1.1098043175  0.5629060535
H   0.3222791675  2.0887957888  0.3072047860
H   1.0690825718  0.5111805218 -1.4732060680
H  -0.3210848081 -0.5020735972 -1.2031661937
H   1.1494817555  0.0322028164  1.3073344472
H   2.1884503538 -0.6389490201  0.0816647467
H   1.1932311687 -2.4904892368  1.3940554925
H   0.6179695836 -2.5429123412 -0.2719120649
H  -0.4217150527 -1.9127496554  0.9975639444
14
Scanning combination 12/73: [120.2970]  Energy = -158.5462830160
C  -0.3487312477  1.4355847051 -0.1882628071
C   0.3442997385  0.1757645095 -0.6962989126
C   1.1256373979 -0.5552817228  0.4054468107
C   0.6343270291 -1.9818951764  0.6266565739
H  -0.8657743620  1.9630567823 -0.9865072618
H  -1.0869821352  1.1748189479  0.5735066311
H   0.3635249499  2.1200443554  0.2683666072
H   1.0226781244  0.4605196246 -1.5009301433
H  -0.3846346848 -0.4971517958 -1.1444205449
H   1.0714601012  0.0073486995  1.3357596576
H   2.1827171399 -0.5956413010  0.1414919489
H   1.2210649353 -2.4995518643  1.3819835182
H   0.6761759401 -2.5601515388 -0.2943083616
H  -0.4059157146 -1.9715950725  0.9599726666
14
Scanning combination 13/73: [125.2970]  Energy = -158.5464455590
C  -0.3334091095  1.4575728022 -0.1982985840
C   0.3147707100  0.1662185505 -0.6818051434
C   1.0982723583 -0.5537510648  0.4259858133
C   0.6541724853 -1.9989322840  0.6150386961
H  -0.8452557860  1.9848015067 -0.9998648476
H  -1.0638499865  1.2519461842  0.5851231565
H   0.4182879348  2.1247828146  0.2203347038
H   0.9903041244  0.3959692694 -1.5049711375
H  -0.4427772031 -0.5008035146 -1.0943684115
H   1.0016837200 -0.0070205860  1.3644735234
H   2.1593691973 -0.5389249252  0.1798398247
H   1.2460142279 -2.5148937630  1.3673441750
H   0.7429364935 -2.5477807773 -0.3211016087
H  -0.3906719475 -2.0433150560  0.9247262192
14
Scanning combination 14/73: [130.2970]  Energy = -158.5466920082
C  -0.3056831604  1.4881390210 -0.2087124741
C   0.2949398438  0.1641922943 -0.6692342969
C   1.0782776072 -0.5573291766  0.4379358354
C   0.6814055739 -2.0217577294  0.5916140808
H  -0.8188015216  1.9951756038 -1.0224891616
H  -1.0319557723  1.3098653860  0.5859847682
H   0.4540568898  2.1616693654  0.1862148175
H   0.9311255402  0.3487865283 -1.5355144183
H  -0.5069936698 -0.4835765698 -1.0210777537
H   0.9130509941 -0.0457600670  1.3852946317
H   2.1513338582 -0.5012321922  0.2517754487
H   1.2793878063 -2.5168405683  1.3531306670
H   0.7957730177 -2.5721814305 -0.3415401183
H  -0.3660697906 -2.0932813116  0.8890743462
14
Scanning combination 15/73: [135.2970]  Energy = -158.5470666016
C  -0.2947209130  1.4970924098 -0.2184714842
C   0.2601583753  0.1477318379 -0.6541925473
C   1.0467836808 -0.5502194925  0.4637120590
C   0.6965117994 -2.0270393026  0.5853213366
H  -0.7958160761  2.0163409325 -1.0319026536
H  -1.0142095601  1.3721054023  0.5913956482
H   0.5065201169  2.1368525928  0.1491775949
H   0.9145469947  0.2872249847 -1.5152356629
H  -0.5516557113 -0.4957058609 -0.9975712600
H   0.8707248898 -0.0458953120  1.4153516701
H   2.1139578609 -0.4472399562  0.2647066100
H   1.3018029129 -2.5316070980  1.3345806745
H   0.8459130740 -2.5329220073 -0.3676743790
H  -0.3506702224 -2.1508499637  0.8632587680
14
Scanning combination 16/73: [140.2970]  Energy = -158.5477067304
C  -0.2669773660  1.5223499150 -0.2315925911
C   0.2397263322  0.1447679913 -0.6403041911
C   1.0251823668 -0.5531568951  0.4756989524
C   0.7250984871 -2.0443581831  0.5637921094
H  -0.7630904096  2.0281960167 -1.0545014810
H  -0.9875782336  1.4253670090  0.5811172558
H   0.5428739186  2.1595266702  0.1237974251
H   0.8554427078  0.2350169688 -1.5378415666
H  -0.6087709059 -0.4785615996 -0.9217342949
H   0.7828917791 -0.0834465898  1.4287682460
H   2.0979583410 -0.4056351960  0.3335605956
H   1.3381428852 -2.5337395672  1.3146491106
H   0.8884386696 -2.5444863904 -0.3908809131
H  -0.3194913599 -2.1959709906  0.8379277079
14
Scanning combination 17/73: [145.2970]  Energy = -158.5482258398
C  -0.2515626255  1.5306894200 -0.2416808567
C   0.2068812016  0.1307997431 -0.6243746573
C   0.9942330314 -0.5481764374  0.4990425735
C   0.7422458174 -2.0481186305  0.5537950951
H  -0.7362881619  2.0435835314 -1.0694927518
H  -0.9681165327  1.4795098128  0.5794326293
H   0.5881601911  2.1381476607  0.0943218293
H   0.8312381268  0.1821640845 -1.5174465113
H  -0.6534992832 -0.4812884366 -0.8963788075
H   0.7408014530 -0.0929442831  1.4568698796
H   2.0589654441 -0.3616669798  0.3520742673
H   1.3659581745 -2.5414355210  1.2960286952
H   0.9295459074 -2.5109386861 -0.4145810930
H  -0.2987155303 -2.2444561315  0.8148460704
14
Scanning combination 18/73: [150.2970]  Energy = -158.5489949173
C  -0.2256739852  1.5469437017 -0.2540471687
C   0.1825367357  0.1249912623 -0.6098067315
C   0.9697867498 -0.5492423202  0.5145217409
C   0.7675311333 -2.0571647670  0.5346475413
H  -0.7008682316  2.0502216280 -1.0922667264
H  -0.9416827215  1.5360665943  0.5688208603
H   0.6303793903  2.1393186234  0.0665218637
H   0.7736250336  0.1317289544 -1.5285864074
H  -0.7080680989 -0.4653876144 -0.8276890569
H   0.6600844046 -0.1279066032  1.4714732951
H   2.0338700653 -0.3228821601  0.4141532999
H   1.4025648743 -2.5379276002  1.2744496168
H   0.9723907660 -2.5001446811 -0.4391604468
H  -0.2666289114 -2.2927458758  0.7894246830
14
Scanning combination 19/73: [155.2970]  Energy = -158.5496451945
C  -0.2107741800  1.5578545387 -0.2659944973
C   0.1487087876  0.1160080490 -0.5907609475
C   0.9366735994 -0.5496818980  0.5366947743
C   0.7866397528 -2.0632858682  0.5256590739
H  -0.6683377592  2.0666557554 -1.1111314785
H  -0.9143014168  1.5951142169  0.5651487834
H   0.6752382869  2.1182150890  0.0301059540
H   0.7411185697  0.0710757204 -1.5060127084
H  -0.7585123227 -0.4561248331 -0.7926163099
H   0.6094115266 -0.1514000587  1.4986708606
H   1.9878116200 -0.2732890436  0.4399401167
H   1.4364503329 -2.5450146544  1.2524213772
H   1.0194686995 -2.4660718279 -0.4593550796
H  -0.2397483043 -2.3441860479  0.7596864404
14
Scanning combination 20/73: [160.2970]  Energy = -158.5501975129
C  -0.1833714132  1.5731652435 -0.2787247605
C   0.1249779471  0.1131617393 -0.5741304795
C   0.9112783378 -0.5537595527  0.5503172170
C   0.8127150809 -2.0710658291  0.5054580889
H  -0.6361098046  2.0637573326 -1.1372785777
H  -0.8796059455  1.6508247681  0.5567095559
H   0.7192035210  2.1195230165 -0.0056237958
H   0.6690210836  0.0326353284 -1.5175052193
H  -0.8090102027 -0.4317680850 -0.7156998446
H   0.5249091449 -0.1947814278  1.5048689011
H   1.9592240572 -0.2490328317  0.5134426206
H   1.4727354274 -2.5324595533  1.2363780526
H   1.0700718607 -2.4540896305 -0.4818558818
H  -0.2061919125 -2.3902413818  0.7261004668
14
Scanning combination 21/73: [165.2970]  Energy = -158.5505948394
C  -0.1687841690  1.5778794451 -0.2897686447
C   0.0891982180  0.1038461740 -0.5536817731
C   0.8760179493 -0.5544482354  0.5736038925
C   0.8296417084 -2.0713415538  0.4970985626
H  -0.6169987521  2.0691148963 -1.1504441767
H  -0.8450944142  1.6995790428  0.5563355734
H   0.7595990273  2.0930934415 -0.0446318659
H   0.6464738327 -0.0098763696 -1.4856850718
H  -0.8560336271 -0.4219827777 -0.7013299980
H   0.4940235100 -0.2155231068  1.5384716054
H   1.9129651058 -0.2162189977  0.5239859305
H   1.4936147162 -2.5321867958  1.2249252991
H   1.1164445557 -2.4154206359 -0.4962727643
H  -0.1812204747 -2.4306453943  0.6898497772
14
Scanning combination 22/73: [170.2970]  Energy = -158.5508382341
C  -0.1409016451  1.5954776766 -0.3073172848
C   0.0673215543  0.1046764809 -0.5383091264
C   0.8532534912 -0.5615546346  0.5857130834
C   0.8606092960 -2.0806506083  0.4784107729
H  -0.6007129409  2.0796031697 -1.1669836300
H  -0.7894201887  1.7603116753  0.5528681271
H   0.8025850817  2.1030991763 -0.1071510340
H   0.5636050591 -0.0692076848 -1.4958143980
H  -0.9073033410 -0.3815233549 -0.6094648016
H   0.3992842774 -0.2765722689  1.5365282364
H   1.8743289080 -0.1739618723  0.6089242328
H   1.5172744578 -2.5370676661  1.2168721251
H   1.1919532576 -2.4087470276 -0.5067244151
H  -0.1420300932 -2.4780139365  0.6349044739
14
Scanning combination 23/73: [175.2970]  Energy = -158.5509813485
C  -0.1294242277  1.5945666575 -0.3147121235
C   0.0266622939  0.0945809781 -0.5151515801
C   0.8133694479 -0.5628087721  0.6121531535
C   0.8718651752 -2.0765397680  0.4718096691
H  -0.5959970627  2.0744556637 -1.1723580281
H  -0.7473896613  1.8017742170  0.5593079024
H   0.8385707183  2.0663883998 -0.1497083616
H   0.5595770873 -0.0870024788 -1.4510475673
H  -0.9483705071 -0.3849112480 -0.6222016498
H   0.3921773332 -0.2799471400  1.5789243339
H   1.8296072906 -0.1630477002  0.5941633974
H   1.5229949138 -2.5304398603  1.2158165236
H   1.2374898087 -2.3605435271 -0.5143520623
H  -0.1212854400 -2.5106562996  0.5898127602
14
Scanning combination 24/73: [180.2970]  Energy = -158.5511736022
C  -0.1016623346  1.6031189580 -0.3301104738
C   0.0030583287  0.0959450537 -0.4977791224
C   0.7882209885 -0.5710430426  0.6248171978
C   0.8990720290 -2.0773392225  0.4533555425
H  -0.5760887076  2.0686236593 -1.1923973696
H  -0.6977167512  1.8428994907  0.5502868851
H   0.8794260463  2.0581305265 -0.1988355802
H   0.4838422207 -0.1287009534 -1.4530108488
H  -0.9958123346 -0.3431389279 -0.5494788313
H   0.3161841518 -0.3391059200  1.5821937570
H   1.7904023877 -0.1375481370  0.6669055948
H   1.5480212401 -2.5182774401  1.2081917841
H   1.2966281298 -2.3382161467 -0.5268038160
H  -0.0837282203 -2.5394787763  0.5451216445
14
Scanning combination 25/73: [185.2970]  Energy = -158.5508724185
C  -0.0869042575  1.6033142895 -0.3411278353
C  -0.0333566560  0.0892929568 -0.4759390120
C   0.7519909016 -0.5746137332  0.6476775104
C   0.9151446532 -2.0732090431  0.4453922890
H  -0.5721275059  2.0696982335 -1.1977478051
H  -0.6501499428  1.8914427886  0.5489585745
H   0.9148294040  2.0209463882 -0.2460781259
H   0.4576262010 -0.1491469640 -1.4229019042
H  -1.0367934963 -0.3334170054 -0.5407282739
H   0.2928241867 -0.3578771949  1.6130726530
H   1.7485269060 -0.1266929712  0.6787339940
H   1.5546422735 -2.5178664033  1.2070260637
H   1.3459405762 -2.2890821561 -0.5317125513
H  -0.0523460634 -2.5769200607  0.4978307845
14
Scanning combination 26/73: [190.2970]  Energy = -158.5506132862
C  -0.0612210907  1.6058911372 -0.3559487118
C  -0.0594949244  0.0888542551 -0.4587350497
C   0.7255427135 -0.5815983482  0.6628730033
C   0.9397520627 -2.0686973300  0.4292477256
H  -0.5497443224  2.0631742736 -1.2140727581
H  -0.6030436356  1.9193870986  0.5375857393
H   0.9494136984  2.0041261922 -0.2853853679
H   0.3956151572 -0.1869095627 -1.4141982496
H  -1.0781560234 -0.3009215510 -0.4840693287
H   0.2317123811 -0.4048208347  1.6194912052
H   1.7066123288 -0.1035575502  0.7340250014
H   1.5773096448 -2.5049862520  1.1955974213
H   1.3920145950 -2.2609203674 -0.5420658419
H  -0.0164653967 -2.5931520316  0.4581115766
14
Scanning combination 27/73: [195.2970]  Energy = -158.5503534419
C  -0.0455914501  1.6047559182 -0.3690674971
C  -0.0950839233  0.0832650686 -0.4382841874
C   0.6910906310 -0.5857964010  0.6855090171
C   0.9577727015 -2.0628273273  0.4216428448
H  -0.5312001624  2.0696159853 -1.2260457165
H  -0.5392478281  1.9884671943  0.5240859465
H   0.9915847978  1.9410357181 -0.3444481250
H   0.3326677197 -0.2279431075 -1.3921645088
H  -1.1273908215 -0.2700291042 -0.4423375123
H   0.1800536637 -0.4499071552  1.6399128524
H   1.6519271856 -0.0791080605  0.7844319977
H   1.5971413803 -2.5060603089  1.1839933988
H   1.4494234557 -2.1837877250 -0.5443504973
H   0.0366998342 -2.6458115428  0.3995783486
14
Scanning combination 28/73: [200.2970]  Energy = -158.5496548598
C  -0.0225136864  1.6027823553 -0.3806208410
C  -0.1238190877  0.0846931243 -0.4184000389
C   0.6615618046 -0.5955019226  0.7015392685
C   0.9774666615 -2.0548219805  0.4068661083
H  -0.5072562021  2.0552232729 -1.2433682131
H  -0.5011937630  2.0000801641  0.5146453832
H   1.0170905984  1.9252960704 -0.3701306060
H   0.2926648136 -0.2496950264 -1.3727682505
H  -1.1634652936 -0.2454345690 -0.4119515944
H   0.1427540199 -0.4848387343  1.6546842081
H   1.6132738271 -0.0684251566  0.8134525479
H   1.6197547953 -2.4850805523  1.1726012555
H   1.4798070842 -2.1601878348 -0.5530587464
H   0.0637216132 -2.6482200503  0.3689658767
14
Scanning combination 29/73: [205.2970]  Energy = -158.5488257364
C   0.0019560259  1.5957235204 -0.3976820086
C  -0.1498898465  0.0818635651 -0.4015586688
C   0.6349601582 -0.6000782958  0.7171193363
C   1.0015779404 -2.0409196806  0.3940131517
H  -0.4956930972  2.0524239934 -1.2521428583
H  -0.4461280879  2.0192089547  0.5031756571
H   1.0494726184  1.8930575835 -0.4138574405
H   0.2303232738 -0.2825346818 -1.3609479731
H  -1.1967497019 -0.2146952254 -0.3630668618
H   0.0916129560 -0.5274718752  1.6577894496
H   1.5694777516 -0.0505312651  0.8669905860
H   1.6318860287 -2.4789497737  1.1667959017
H   1.5257215825 -2.1169277109 -0.5575474254
H   0.1013195820 -2.6542999480  0.3233755107
14
Scanning combination 30/73: [210.2970]  Energy = -158.5481571543
C   0.0214670621  1.5921452516 -0.4103784875
C  -0.1811803739  0.0816642593 -0.3813440000
C   0.6036940564 -0.6087105521  0.7354422510
C   1.0204149209 -2.0319537965  0.3830978365
H  -0.4809963873  2.0442846105 -1.2634510894
H  -0.3824663294  2.0510480340  0.4928347466
H   1.0793341733  1.8470768091 -0.4639848463
H   0.1769502282 -0.3146674564 -1.3330254840
H  -1.2390538450 -0.1784336847 -0.3305030167
H   0.0520697952 -0.5752538062  1.6756104568
H   1.5154931112 -0.0335141577  0.9051623809
H   1.6465092810 -2.4666696887  1.1600388142
H   1.5734180743 -2.0600135256 -0.5551611608
H   0.1441934164 -2.6711331454  0.2681179496
14
Scanning combination 31/73: [215.2970]  Energy = -158.5474325027
C   0.0447798941  1.5823159890 -0.4279485805
C  -0.2070738732  0.0812825608 -0.3648046155
C   0.5779257591 -0.6155855115  0.7507005245
C   1.0439206455 -2.0155263599  0.3718377860
H  -0.4698295079  2.0397145115 -1.2701076386
H  -0.3266402984  2.0625840003  0.4784957230
H   1.1057904544  1.8100595952 -0.5088472361
H   0.1159046194 -0.3405031260 -1.3204770471
H  -1.2700914529 -0.1434850625 -0.2852588496
H   0.0059482429 -0.6210753416  1.6778817475
H   1.4730185179 -0.0222567299  0.9563610724
H   1.6562474726 -2.4591593547  1.1538288432
H   1.6168267951 -2.0131720954 -0.5533254948
H   0.1831199132 -2.6693239308  0.2241201196
14
Scanning combination 32/73: [220.2970]  Energy = -158.5469632935
C   0.0651845573  1.5728336764 -0.4421297218
C  -0.2357419615  0.0816223984 -0.3454542849
C   0.5486414324 -0.6240868080  0.7670327552
C   1.0632599951 -2.0004469688  0.3615481563
H  -0.4516050226  2.0310570442 -1.2828011453
H  -0.2629198727  2.0871365314  0.4629697828
H   1.1311848928  1.7600942368 -0.5561348069
H   0.0525360673 -0.3721006096 -1.2968938015
H  -1.3055576579 -0.0963910286 -0.2444551470
H  -0.0357280328 -0.6790294585  1.6845779769
H   1.4186737532 -0.0072412768  1.0052570461
H   1.6735106674 -2.4455070226  1.1446726020
H   1.6593016393 -1.9536420476 -0.5478273708
H   0.2291067315 -2.6784295180  0.1720943137
14
Scanning combination 33/73: [225.2970]  Energy = -158.5466575012
C   0.0872901084  1.5608068030 -0.4589225811
C  -0.2617313051  0.0825632909 -0.3284854664
C   0.5227303963 -0.6323349726  0.7820232126
C   1.0851184208 -1.9822317821  0.3512706462
H  -0.4363287161  2.0226614862 -1.2930022913
H  -0.1957784055  2.0998970585  0.4460379881
H   1.1551181711  1.7064120684 -0.6070626752
H  -0.0203628425 -0.4021287260 -1.2783743433
H  -1.3344090355 -0.0488703394 -0.1937390453
H  -0.0832000657 -0.7373004145  1.6808562205
H   1.3650051822  0.0049630962  1.0646701141
H   1.6873616025 -2.4330079707  1.1369360723
H   1.7036056955 -1.8903512829 -0.5389159752
H   0.2754279826 -2.6752091637  0.1191644728
14
Scanning combination 34/73: [230.2970]  Energy = -158.5463323316
C   0.1087937463  1.5464981093 -0.4755002575
C  -0.2870270443  0.0824280127 -0.3101739221
C   0.4957154109 -0.6395595640  0.7959222780
C   1.1060689100 -1.9619497763  0.3417081565
H  -0.4238957829  2.0152930464 -1.3020947223
H  -0.1334553941  2.1068561812  0.4273543496
H   1.1787213652  1.6566608539 -0.6534375973
H  -0.0868552105 -0.4249023504 -1.2560179389
H  -1.3596207677 -0.0044267711 -0.1488469697
H  -0.1246001639 -0.7911250967  1.6769802711
H   1.3121714500  0.0109300876  1.1157845691
H   1.6992264291 -2.4222177788  1.1310702236
H   1.7445532349 -1.8315081795 -0.5322898030
H   0.3200510121 -2.6671076217  0.0719977062
14
Scanning combination 35/73: [235.2970]  Energy = -158.5463595674
C   0.1304325681  1.5295846609 -0.4913413932
C  -0.3125589967  0.0831301437 -0.2929041081
C   0.4696844819 -0.6475337199  0.8103997471
C   1.1259061294 -1.9391840775  0.3320112239
H  -0.3980112023  2.0002708066 -1.3182898928
H  -0.0641794252  2.1200196701  0.4046954445
H   1.1989145564  1.5886328870 -0.6972319321
H  -0.1687503121 -0.4526487780 -1.2317063605
H  -1.3835397249  0.0534822937 -0.0955600582
H  -0.1701249001 -0.8588134580  1.6664535916
H   1.2500032700  0.0183910856  1.1801810741
H   1.7215792560 -2.4004030581  1.1175639672
H   1.7780827795 -1.7559153995 -0.5215751168
H   0.3724087146 -2.6631439072  0.0197601530
14
Scanning combination 36/73: [240.2970]  Energy = -158.5463939371
C   0.1556141892  1.5050281745 -0.5141279326
C  -0.3321518891  0.0805642957 -0.2799177438
C   0.4493201057 -0.6505994517  0.8220166111
C   1.1518407141 -1.9074190984  0.3233284641
H  -0.3886174051  1.9942206774 -1.3194852428
H   0.0056896139  2.0967539792  0.3896990645
H   1.2185540746  1.5315636293 -0.7516791087
H  -0.2487159728 -0.4805742589 -1.2125438930
H  -1.3921036239  0.0914441127 -0.0320260464
H  -0.2220874184 -0.9052998201  1.6401868226
H   1.1931584196  0.0270492696  1.2452609980
H   1.7254475303 -2.3924893789  1.1105919549
H   1.8229613718 -1.6897608697 -0.5068523588
H   0.4109374883 -2.6246121098 -0.0319952447
14
Scanning combination 37/73: [245.2970]  Energy = -158.5464522040
C   0.1710438247  1.4933413960 -0.5212243051
C  -0.3607706809  0.0876682131 -0.2559414192
C   0.4173441997 -0.6662292346  0.8353438314
C   1.1623629680 -1.8920923960  0.3144395968
H  -0.3684660187  1.9765962654 -1.3334157249
H   0.0629724755  2.1219681256  0.3624286174
H   1.2294143991  1.4733075449 -0.7801728329
H  -0.2957943047 -0.4856453973 -1.1807411380
H  -1.4209868719  0.1444538353 -0.0140767429
H  -0.2396271703 -0.9648452857  1.6508241135
H   1.1439164124  0.0185564697  1.2727637369
H   1.7428181138 -2.3695782089  1.1014219882
H   1.8409812410 -1.6274342205 -0.4961361285
H   0.4646386080 -2.6341979513 -0.0730572432
14
Scanning combination 38/73: [250.2970]  Energy = -158.5467673730
C   0.1947404582  1.4714198302 -0.5390401815
C  -0.3795753618  0.0904313165 -0.2407236622
C   0.3964222663 -0.6745873512  0.8445745708
C   1.1838206202 -1.8638182627  0.3044522292
H  -0.3402635390  1.9601648774 -1.3503427235
H   0.1048330009  2.1080441799  0.3409545048
H   1.2506667699  1.4231807082 -0.8018260288
H  -0.3662741608 -0.5011299252 -1.1587151665
H  -1.4269145830  0.1842547770  0.0414754601
H  -0.2830672260 -1.0116038365  1.6256687780
H   1.0911330285  0.0166857861  1.3266477696
H   1.7665260686 -2.3458342793  1.0863808010
H   1.8590769255 -1.5717686252 -0.4987090115
H   0.4987229229 -2.6095700274 -0.0983409885
14
Scanning combination 39/73: [255.2970]  Energy = -158.5474819033
C   0.2154648213  1.4478276496 -0.5503183848
C  -0.4037103382  0.0917401385 -0.2208524449
C   0.3688318877 -0.6831842568  0.8565781967
C   1.1978906532 -1.8353113150  0.2943082287
H  -0.3034462339  1.9334413143 -1.3746289154
H   0.1671060782  2.1156708415  0.3095153019
H   1.2658949233  1.3458748405 -0.8255184627
H  -0.4504578117 -0.5147814293 -1.1259571072
H  -1.4348283428  0.2475018005  0.0942890927
H  -0.3202178463 -1.0811936581  1.6005963898
H   1.0233703741  0.0089304747  1.3874315113
H   1.7983455438 -2.3094462738  1.0684092265
H   1.8709170170 -1.4906472594 -0.4916869609
H   0.5546864653 -2.6005537128 -0.1397093258
14
Scanning combination 40/73: [260.2970]  Energy = -158.5479740485
C   0.2380544000  1.4175294118 -0.5678394673
C  -0.4217949404  0.0910568267 -0.2047201983
C   0.3467551720 -0.6881525796  0.8652851846
C   1.2168707107 -1.7990839662  0.2862502496
H  -0.2755531245  1.9182447421 -1.3871375423
H   0.2169310674  2.0883001499  0.2904359554
H   1.2826964951  1.2809474526 -0.8499816937
H  -0.5189045609 -0.5328780477 -1.0953101709
H  -1.4336379250  0.2859329260  0.1456709969
H  -0.3571518080 -1.1246435956  1.5712241870
H   0.9633154519  0.0088911192  1.4358285054
H   1.8182899617 -2.2875347318  1.0514834971
H   1.8866262148 -1.4211364055 -0.4872680406
H   0.5873500818 -2.5616041374 -0.1714651122
14
Scanning combination 41/73: [265.2970]  Energy = -158.5485086868
C   0.2546998007  1.3985006190 -0.5780953862
C  -0.4430473875  0.0995165270 -0.1844467525
C   0.3214525615 -0.7031743121  0.8735666469
C   1.2292718693 -1.7760437162  0.2786106656
H  -0.2538335094  1.8912219372 -1.4050773026
H   0.2699755583  2.0962345012  0.2598387822
H   1.2895604931  1.2204372118 -0.8725260234
H  -0.5816460152 -0.5266022098 -1.0672224221
H  -1.4394041783  0.3371455072  0.1849895787
H  -0.3839766326 -1.1804601699  1.5519640951
H   0.9129172901 -0.0132705112  1.4774677687
H   1.8379573473 -2.2546666450  1.0439212065
H   1.8972179012 -1.3581777262 -0.4754301884
H   0.6387021037 -2.5547918470 -0.2051043158
14
Scanning combination 42/73: [270.2970]  Energy = -158.5488731447
C   0.2757869525  1.3660646635 -0.5961109461
C  -0.4590235544  0.1011426870 -0.1700099702
C   0.3021836443 -0.7097451190  0.8808228908
C   1.2476256591 -1.7380461153  0.2722883724
H  -0.2330291697  1.8770013670 -1.4117745664
H   0.3194078859  2.0579740188  0.2448637751
H   1.3011420442  1.1537334234 -0.8962664547
H  -0.6443245715 -0.5413371165 -1.0335544267
H  -1.4379778434  0.3776983104  0.2135575657
H  -0.4003634197 -1.2231121973  1.5326520510
H   0.8534430689 -0.0157820914  1.5190845986
H   1.8498912321 -2.2357944235  1.0304267570
H   1.9096578924 -1.2880728990 -0.4664848486
H   0.6654273713 -2.5058553438 -0.2370384430
14
Scanning combination 43/73: [275.2970]  Energy = -158.5491590220
C   0.2891566705  1.3499290824 -0.6027167269
C  -0.4792365743  0.1131569649 -0.1471508304
C   0.2758187653 -0.7283340171  0.8866376790
C   1.2559685943 -1.7188686097  0.2655670898
H  -0.2164275893  1.8494654258 -1.4267863946
H   0.3630747600  2.0679648626  0.2148588224
H   1.3035966407  1.1068947376 -0.9153872987
H  -0.6841091496 -0.5210393491 -1.0144701125
H  -1.4477212679  0.4146486025  0.2501454675
H  -0.4292969379 -1.2655121751  1.5198541203
H   0.8235965499 -0.0458423462  1.5428324164
H   1.8647304473 -2.2038751876  1.0261021967
H   1.9181036716 -1.2397167114 -0.4540804424
H   0.7125926132 -2.5030021112 -0.2629496317
14
Scanning combination 44/73: [280.2970]  Energy = -158.5496911286
C   0.3058542778  1.3211658921 -0.6154441837
C  -0.4966439412  0.1178599442 -0.1283948907
C   0.2527776432 -0.7387331374  0.8928015906
C   1.2685504448 -1.6859736276  0.2602672748
H  -0.1913682269  1.8169976587 -1.4475493048
H   0.4231645610  2.0560762132  0.1818689299
H   1.3049326133  1.0318477317 -0.9418814861
H  -0.7652896139 -0.5109832419 -0.9798937389
H  -1.4332009009  0.4713508834  0.3032859262
H  -0.4584221697 -1.3242714689  1.4757039385
H   0.7603054198 -0.0762484085  1.5972032758
H   1.8872369561 -2.1647067581  1.0175792317
H   1.9268948973 -1.1632444007 -0.4338258681
H   0.7650552368 -2.4752681210 -0.2992643333
14
Scanning combination 45/73: [285.2970]  Energy = -158.5497700872
C   0.3199104465  1.2870359933 -0.6318033852
C  -0.5120990611  0.1210217904 -0.1118511433
C   0.2322304594 -0.7469579056  0.8985141842
C   1.2820829102 -1.6479167238  0.2596498946
H  -0.1766842159  1.8061028343 -1.4507326474
H   0.4796212159  2.0158275689  0.1658493277
H   1.3013109908  0.9645376487 -0.9783677912
H  -0.8139306673 -0.5122641785 -0.9508510295
H  -1.4301116936  0.5013253674  0.3355391550
H  -0.4794292069 -1.3567570671  1.4544780515
H   0.7135615758 -0.0884335238  1.6268260796
H   1.8941601183 -2.1507770232  1.0074729432
H   1.9439261039 -1.0940368842 -0.4056079823
H   0.7952982221 -2.4228387348 -0.3366592949
14
Scanning combination 46/73: [290.2970]  Energy = -158.5493316328
C   0.3294774914  1.2738060525 -0.6441413991
C  -0.5233195825  0.1365521726 -0.0919917160
C   0.2130351885 -0.7667718390  0.8972923224
C   1.2944270343 -1.6316465484  0.2584820888
H  -0.1765116456  1.7875189908 -1.4592086050
H   0.5172589607  2.0137255179  0.1369979604
H   1.2964288795  0.9305345436 -1.0046027639
H  -0.8527524569 -0.4890379927 -0.9287918317
H  -1.4268155587  0.5384998882  0.3644586580
H  -0.4960080843 -1.3958136462  1.4337517812
H   0.6821704365 -0.1215137821  1.6480639129
H   1.8979465420 -2.1316318084  1.0134995206
H   1.9580560474 -1.0587376934 -0.3850544824
H   0.8364539443 -2.4096146927 -0.3562990850
14
Scanning combination 47/73: [295.2970]  Energy = -158.5490339451
C   0.3377757588  1.2551290825 -0.6601175955
C  -0.5323266666  0.1486736730 -0.0740182583
C   0.1957900729 -0.7825917468  0.8954931715
C   1.3082957402 -1.6098445524  0.2608095035
H  -0.1742123840  1.7674438638 -1.4721732586
H   0.5643640268  2.0025908767  0.1037406089
H   1.2855550009  0.8839588591 -1.0412183806
H  -0.9123115733 -0.4645896761 -0.8992106633
H  -1.4060393683  0.5830864435  0.4106547680
H  -0.5187707607 -1.4406808224  1.3887743706
H   0.6354604259 -0.1609305202  1.6839137794
H   1.9063034809 -2.1100531510  1.0198950753
H   1.9762383428 -1.0111399791 -0.3529381347
H   0.8837251073 -2.3851831947 -0.3811486194
14
Scanning combination 48/73: [300.2970]  Energy = -158.5484982496
C   0.3440760791  1.2369368123 -0.6771866714
C  -0.5405565844  0.1605070332 -0.0563041913
C   0.1790373594 -0.7979395967  0.8931545691
C   1.3223681471 -1.5887859799  0.2653345281
H  -0.1775746183  1.7532627643 -1.4809553934
H   0.6113684753  1.9870048039  0.0719066223
H   1.2705728495  0.8392971085 -1.0825955411
H  -0.9646265899 -0.4399450249 -0.8699741391
H  -1.3843910913  0.6234802635  0.4527688951
H  -0.5384108829 -1.4807939472  1.3454245233
H   0.5922125727 -0.1990319586  1.7135258824
H   1.9097365776 -2.0958637977  1.0286373236
H   1.9972325861 -0.9656289098 -0.3152654499
H   0.9288023288 -2.3566304195 -0.4060145937
14
Scanning combination 49/73: [305.2970]  Energy = -158.5478599570
C   0.3486975686  1.2189570348 -0.6949218325
C  -0.5470793330  0.1727502484 -0.0395383308
C   0.1639469704 -0.8132343199  0.8897024414
C   1.3363453734 -1.5681878232  0.2716177976
H  -0.1842596352  1.7417663229 -1.4864718595
H   0.6608663293  1.9675370484  0.0376939297
H   1.2489446270  0.7932074964 -1.1281160520
H  -1.0147531862 -0.4133464950 -0.8398068198
H  -1.3600424601  0.6624692967  0.4943371047
H  -0.5566904830 -1.5189255526  1.3001176332
H   0.5494736657 -0.2387079709  1.7405385768
H   1.9094026493 -2.0853511782  1.0384686337
H   2.0187286156 -0.9195600214 -0.2696633441
H   0.9762665090 -2.3235049338 -0.4315015139
14
Scanning combination 50/73: [310.2970]  Energy = -158.5475213948
C   0.3521199906  1.1973626750 -0.7158001298
C  -0.5553326850  0.1824525207 -0.0242191567
C   0.1488642789 -0.8262230387  0.8887437978
C   1.3518435174 -1.5439262851  0.2808465379
H  -0.1960414736  1.7312462254 -1.4894329212
H   0.7291656191  1.9377936380 -0.0070256120
H   1.2109309866  0.7309504270 -1.1912435856
H  -1.0795801485 -0.3799304171 -0.8027783744
H  -1.3216765146  0.7089040334  0.5450008549
H  -0.5754564876 -1.5626013144  1.2373859825
H   0.4957566787 -0.2888163913  1.7765084161
H   1.9048333678 -2.0771366189  1.0515019055
H   2.0454344683 -0.8588933971 -0.1995751530
H   1.0389856080 -2.2753129077 -0.4674561971
14
Scanning combination 51/73: [315.2970]  Energy = -158.5471222116
C   0.3534115965  1.1729739288 -0.7378689743
C  -0.5614155673  0.1912718426 -0.0103508492
C   0.1358184090 -0.8377361090  0.8866545217
C   1.3669152739 -1.5172337917  0.2928401508
H  -0.2096497579  1.7362700287 -1.4792741514
H   0.7961844582  1.8910772339 -0.0443080222
H   1.1654836631  0.6728815044 -1.2583678607
H  -1.1241026765 -0.3573011605 -0.7714154292
H  -1.2953652690  0.7412916644  0.5778660669
H  -0.5865631700 -1.5928475596  1.1951580416
H   0.4535768643 -0.3236565107  1.7985313073
H   1.8910565224 -2.0860159572  1.0582056494
H   2.0733046002 -0.8032999433 -0.1216290328
H   1.0911922616 -2.2118060240 -0.5035850576
14
Scanning combination 52/73: [320.2970]  Energy = -158.5468489641
C   0.3541460514  1.1448121555 -0.7616945713
C  -0.5676284712  0.1985706224  0.0019618257
C   0.1237805493 -0.8476066464  0.8855775484
C   1.3825334042 -1.4867675277  0.3065969957
H  -0.2183626349  1.7426828541 -1.4683979526
H   0.8682708935  1.8332710313 -0.0874352432
H   1.1107487169  0.6064293216 -1.3263871765
H  -1.1753415968 -0.3319683613 -0.7362002054
H  -1.2618851714  0.7748935406  0.6124801493
H  -0.5958848134 -1.6230472345  1.1456678374
H   0.4056644010 -0.3629518919  1.8243685449
H   1.8790316884 -2.0953495395  1.0600995129
H   2.0962859323 -0.7413199959 -0.0340587421
H   1.1484882526 -2.1357791827 -0.5401221590
14
Scanning combination 53/73: [325.2970]  Energy = -158.5461366558
C   0.3539470999  1.1210565026 -0.7815605108
C  -0.5716910145  0.2082850718  0.0161071260
C   0.1115395470 -0.8596176383  0.8814690453
C   1.3951523537 -1.4612629885  0.3188151136
H  -0.2213226395  1.7494412288 -1.4589435047
H   0.9171467112  1.7840890458 -0.1200382613
H   1.0700372058  0.5607521442 -1.3762288114
H  -1.2045844270 -0.3130052847 -0.7090901719
H  -1.2426376382  0.7998495655  0.6360635585
H  -0.6033506384 -1.6463443335  1.1148300180
H   0.3730559396 -0.3906241795  1.8353445269
H   1.8707980712 -2.1036840136  1.0575370232
H   2.1134719842 -0.6989560962  0.0302678267
H   1.1882846473 -2.0741098727 -0.5621166135
14
Scanning combination 54/73: [330.2970]  Energy = -158.5453912304
C   0.3532170955  1.1003271037 -0.8010707983
C  -0.5739771916  0.2194474463  0.0301049209
C   0.1004829512 -0.8726597029  0.8756858011
C   1.4078406442 -1.4388504896  0.3309621892
H  -0.2239914032  1.7462667492 -1.4598978691
H   0.9613081576  1.7456483215 -0.1619033988
H   1.0289116488  0.5142509467 -1.4177557002
H  -1.2465476136 -0.2797481275 -0.6748278915
H  -1.2067503208  0.8310181298  0.6698838762
H  -0.6114293144 -1.6735966256  1.0638871183
H   0.3315632366 -0.4356340280  1.8524702025
H   1.8698526258 -2.1010174312  1.0607177811
H   2.1229961325 -0.6569062576  0.0912516634
H   1.2363705619 -2.0226768815 -0.5770515268
14
Scanning combination 55/73: [335.2970]  Energy = -158.5447286947
C   0.3507949986  1.0805313242 -0.8215900203
C  -0.5746236935  0.2306312197  0.0433561958
C   0.0907912967 -0.8852984793  0.8687982596
C   1.4208782613 -1.4175602953  0.3449446656
H  -0.2280420868  1.7431454836 -1.4621166570
H   1.0015387796  1.7069939019 -0.2064470333
H   0.9851646714  0.4710047586 -1.4593205396
H  -1.2893685175 -0.2431944486 -0.6366311957
H  -1.1639387969  0.8625704370  0.7041557676
H  -0.6168541992 -1.6998844760  1.0065944418
H   0.2869025910 -0.4845066848  1.8681410168
H   1.8694379487 -2.0985250912  1.0656861568
H   2.1320833713 -0.6185410485  0.1541577341
H   1.2850825837 -1.9714974469 -0.5872724240
14
Scanning combination 56/73: [340.2970]  Energy = -158.5441232866
C   0.3468872678  1.0614766013 -0.8421986586
C  -0.5736665572  0.2416553283  0.0563396246
C   0.0819938219 -0.8974269228  0.8606335134
C   1.4335058623 -1.3972794320  0.3601819521
H  -0.2331907839  1.7412386785 -1.4636994584
H   1.0377674637  1.6678323164 -0.2513401130
H   0.9397136675  0.4316369787 -1.5001730072
H  -1.3285089403 -0.2066337477 -0.5970081664
H  -1.1186987445  0.8924620177  0.7362271666
H  -0.6196313649 -1.7237972194  0.9483774764
H   0.2425692728 -0.5328200600  1.8799241600
H   1.8682359472 -2.0975119410  1.0711797362
H   2.1405888856 -0.5843786645  0.2177572069
H   1.3322814062 -1.9205847827 -0.5937450602
14
Scanning combination 57/73: [345.2970]  Energy = -158.5439330971
C   0.3413729691  1.0398234976 -0.8655461996
C  -0.5735077223  0.2517855452  0.0674472245
C   0.0743216788 -0.9086146400  0.8541679325
C   1.4473253864 -1.3744548741  0.3784190016
H  -0.2400576396  1.7368044883 -1.4659158389
H   1.0820577128  1.6184717271 -0.3105529563
H   0.8770093394  0.3840666919 -1.5482873843
H  -1.3795453591 -0.1584590348 -0.5447601971
H  -1.0522553009  0.9279013312  0.7743308492
H  -0.6174917246 -1.7495771194  0.8680435473
H   0.1843498132 -0.5963845811  1.8949355923
H   1.8663444819 -2.0943096852  1.0787904021
H   2.1464283001 -0.5448142328  0.3008855605
H   1.3934952712 -1.8563699668 -0.5995011592
14
Scanning combination 58/73: [350.2970]  Energy = -158.5434158547
C   0.3351370754  1.0187796970 -0.8853952777
C  -0.5699916873  0.2615654152  0.0797257295
C   0.0669933479 -0.9189304291  0.8442391387
C   1.4578818199 -1.3528017050  0.3956080141
H  -0.2390628889  1.7442917488 -1.4578739435
H   1.1071754566  1.5674607992 -0.3432253439
H   0.8345140711  0.3556684554 -1.5872340945
H  -1.3978694851 -0.1382719209 -0.5106173710
H  -1.0220486815  0.9499030777  0.7902343229
H  -0.6140821723 -1.7668421869  0.8314432127
H   0.1504825639 -0.6239236311  1.8929264014
H   1.8612001110 -2.1023823992  1.0733030465
H   2.1567404443 -0.5209468066  0.3596486759
H   1.4227772317 -1.7977009676 -0.6003261410
14
Scanning combination 59/73: [355.2970]  Energy = -158.5430950592
C   0.3298932405  1.0012482678 -0.9027353252
C  -0.5663147581  0.2731202813  0.0936413803
C   0.0586501871 -0.9311432392  0.8331970777
C   1.4673626240 -1.3346730668  0.4103385279
H  -0.2427380562  1.7378676443 -1.4627600403
H   1.1331294548  1.5325980547 -0.3889522386
H   0.7891273789  0.3182485078 -1.6131992834
H  -1.4275151335 -0.0973444230 -0.4672043749
H  -0.9695860691  0.9753860422  0.8196284367
H  -0.6122863232 -1.7846840706  0.7686397012
H   0.1077706477 -0.6750401887  1.8940669725
H   1.8626287812 -2.0962741827  1.0795718988
H   2.1525633857 -0.4905070513  0.4161317775
H   1.4671618476 -1.7529334308 -0.5979081406
14
Scanning combination 60/73: [360.2970]  Energy = -158.5431917473
C   0.3223506260  0.9820802783 -0.9208149346
C  -0.5609926477  0.2837470062  0.1061045491
C   0.0521040428 -0.9419490356  0.8215008226
C   1.4761630906 -1.3153222008  0.4276430390
H  -0.2476770718  1.7281988791 -1.4706043911
H   1.1574717106  1.4946208511 -0.4413385322
H   0.7372212008  0.2791237656 -1.6394362780
H  -1.4638601746 -0.0493268621 -0.4103309891
H  -0.8986688279  1.0037418473  0.8502594442
H  -0.6030678610 -1.8017485867  0.6886691714
H   0.0517587691 -0.7360673992  1.8940481798
H   1.8654670434 -2.0869040532  1.0887129611
H   2.1454875633 -0.4596830436  0.4786882974
H   1.5160897517 -1.7046422997 -0.5906449627
14
Scanning combination 61/73: [365.2970]  Energy = -158.5435525041
C   0.3135441765  0.9628481639 -0.9402998290
C  -0.5566404552  0.2930813009  0.1192613451
C   0.0442730720 -0.9517641172  0.8104693578
C   1.4856791801 -1.2959976530  0.4466923090
H  -0.2557579117  1.7173119028 -1.4798808410
H   1.1812391787  1.4542081664 -0.4991399550
H   0.6782827454  0.2385507928 -1.6663971526
H  -1.5000605172  0.0039583012 -0.3430784914
H  -0.8137887287  1.0304320788  0.8799729216
H  -0.5873899366 -1.8142856760  0.5970352004
H  -0.0122666545 -0.8034630259  1.8885256848
H   1.8679670734 -2.0767996730  1.1014214899
H   2.1357228499 -0.4287917007  0.5479479273
H   1.5690431432 -1.6534197167 -0.5800735879
14
Scanning combination 62/73: [370.2970]  Energy = -158.5437117330
C   0.3026527206  0.9424266010 -0.9586290994
C  -0.5490949159  0.3016064841  0.1310547073
C   0.0388494957 -0.9599896604  0.7973663326
C   1.4930260455 -1.2760761122  0.4672043196
H  -0.2529918256  1.7225573266 -1.4745711951
H   1.1910404154  1.4055691566 -0.5281769836
H   0.6371487207  0.2172109233 -1.6973117409
H  -1.5113133289  0.0245396264 -0.3019132661
H  -0.7726575176  1.0513114870  0.8886387555
H  -0.5731472506 -1.8273669742  0.5542707655
H  -0.0491935980 -0.8308302809  1.8770289679
H   1.8655387558 -2.0819952379  1.0959057949
H   2.1409663839 -0.4125063306  0.6009608061
H   1.5890231078 -1.6005878654 -0.5693717780
14
Scanning combination 63/73: [375.2970]  Energy = -158.5445660392
C   0.2914997035  0.9278932672 -0.9767136568
C  -0.5405871397  0.3117403190  0.1437860001
C   0.0333374146 -0.9697040470  0.7827935666
C   1.5012233745 -1.2619574927  0.4871078782
H  -0.2707987048  1.7077600242 -1.4868119989
H   1.2101725945  1.3749416520 -0.5978120116
H   0.5696134263  0.1784573833 -1.7163819353
H  -1.5376909187  0.0869180588 -0.2325740966
H  -0.6780570285  1.0649809788  0.9217059818
H  -0.5588587122 -1.8257008667  0.4541577933
H  -0.1090054648 -0.9053460387  1.8607564393
H   1.8656850422 -2.0696858954  1.1190216515
H   2.1209381626 -0.3860825639  0.6739478990
H   1.6523754594 -1.5583456414 -0.5505271214
14
Scanning combination 64/73: [380.2970]  Energy = -158.5451339729
C   0.2774762834  0.9073973722 -0.9955486364
C  -0.5316424377  0.3192761336  0.1545376231
C   0.0292334775 -0.9765588780  0.7690622817
C   1.5076506147 -1.2425311908  0.5106193743
H  -0.2669657251  1.7163619640 -1.4780722518
H   1.2176701210  1.3192515924 -0.6285911997
H   0.5201565818  0.1621836064 -1.7510950109
H  -1.5431452687  0.1058094676 -0.1940507488
H  -0.6379645517  1.0830906047  0.9251109212
H  -0.5409840916 -1.8356467078  0.4150612127
H  -0.1414567563 -0.9295760788  1.8455723121
H   1.8613701084 -2.0783560301  1.1105790877
H   2.1269716414 -0.3759238669  0.7353990007
H   1.6714772131 -1.4989088564 -0.5361275729
14
Scanning combination 65/73: [385.2970]  Energy = -158.5462809694
C   0.2646956999  0.8933286517 -1.0121661672
C  -0.5205172953  0.3288617838  0.1669063964
C   0.0250549119 -0.9851651598  0.7524152921
C   1.5139574620 -1.2293742389  0.5312240025
H  -0.2856787395  1.7025453756 -1.4887661280
H   1.2314201022  1.2865193434 -0.6998734956
H   0.4477833195  0.1254470536 -1.7635829196
H  -1.5567261653  0.1667748856 -0.1273860397
H  -0.5438777754  1.0860511975  0.9541657467
H  -0.5255428871 -1.8231839595  0.3185653098
H  -0.1937009344 -0.9998112845  1.8194392800
H   1.8599619312 -2.0673722091  1.1336621099
H   2.0994748390 -0.3532528692  0.8093805325
H   1.7335427385 -1.4554994411 -0.5115275393
14
Scanning combination 66/73: [390.2970]  Energy = -158.5470444646
C   0.2496697709  0.8707733988 -1.0288950004
C  -0.5106534758  0.3359690016  0.1779395453
C   0.0210111083 -0.9914520624  0.7377985032
C   1.5176874345 -1.2084101602  0.5549079318
H  -0.2756050472  1.7095402114 -1.4807586301
H   1.2364263767  1.2246292878 -0.7306660793
H   0.3939256097  0.1062971595 -1.7915126675
H  -1.5581838478  0.1893275692 -0.0901412628
H  -0.5016560986  1.1005849659  0.9561869020
H  -0.5062571154 -1.8290556086  0.2786708622
H  -0.2225718069 -1.0266353893  1.8008699680
H   1.8586499017 -2.0731331139  1.1202600745
H   2.0970642677 -0.3420266055  0.8719555395
H   1.7503401367 -1.3905395276 -0.4941593118
14
Scanning combination 67/73: [395.2970]  Energy = -158.5481595323
C   0.2355594947  0.8589987505 -1.0435103129
C  -0.4964749072  0.3454805482  0.1903784708
C   0.0180679248 -0.9993821323  0.7184414106
C   1.5221197831 -1.1979979493  0.5754826202
H  -0.2988235655  1.6939824874 -1.4930872964
H   1.2410908472  1.1993977497 -0.7997969942
H   0.3262719268  0.0732023527 -1.7938171477
H  -1.5602323497  0.2486211017 -0.0245331258
H  -0.4077559813  1.0952808700  0.9807297508
H  -0.4885866664 -1.8080391593  0.1854301849
H  -0.2692683334 -1.0927929843  1.7652753939
H   1.8563946220 -2.0611628438  1.1482738406
H   2.0633655431 -0.3232049745  0.9366672389
H   1.8081188735 -1.3565146921 -0.4634776531
14
Scanning combination 68/73: [400.2970]  Energy = -158.5489834281
C   0.2171433708  0.8308610536 -1.0638474853
C  -0.4871255269  0.3509591120  0.1986102514
C   0.0159413488 -1.0038442930  0.7057628673
C   1.5264445837 -1.1718452708  0.6044961117
H  -0.2772458835  1.7036737772 -1.4858854960
H   1.2489029760  1.1027361795 -0.8463799694
H   0.2368448693  0.0508051117 -1.8257383839
H  -1.5604911679  0.2803877550  0.0253858241
H  -0.3474123827  1.1031969315  0.9784474044
H  -0.4590597175 -1.8032998849  0.1323749141
H  -0.3069263770 -1.1299000011  1.7387039918
H   1.8612779547 -2.0671280276  1.1247792666
H   2.0485338677 -0.3154890958  1.0327844477
H   1.8330192923 -1.2552442299 -0.4370373644
14
Scanning combination 69/73: [405.2970]  Energy = -158.5494878629
C   0.2009401378  0.8317446750 -1.0768122052
C  -0.4665004112  0.3621961981  0.2101250112
C   0.0169307863 -1.0120355038  0.6809412252
C   1.5310737562 -1.1743589804  0.6245855969
H  -0.3091280241  1.6992111337 -1.4900064954
H   1.2402474226  1.1116748091 -0.9053966786
H   0.1934713003  0.0391601359 -1.8247926803
H  -1.5441472171  0.3136209893  0.0532532265
H  -0.2996537077  1.0993990477  0.9971045189
H  -0.4557283577 -1.7923072340  0.0822591248
H  -0.3177448161 -1.1623547772  1.7074323570
H   1.8503083587 -2.0686998985  1.1552852249
H   2.0267249627 -0.3130244766  1.0719760569
H   1.8830530191 -1.2583570016 -0.4034979061
14
Scanning combination 70/73: [410.2970]  Energy = -158.5499393609
C   0.1781647782  0.8212453308 -1.0948761712
C  -0.4504690995  0.3698461970  0.2173588048
C   0.0189852453 -1.0171389803  0.6625681801
C   1.5350729881 -1.1665024008  0.6542080001
H  -0.3309267180  1.6927111106 -1.4990945822
H   1.2225315825  1.0878764935 -0.9438364112
H   0.1469833671  0.0276809555 -1.8408472823
H  -1.5369064413  0.3524382070  0.1176442875
H  -0.2201712189  1.1013396808  0.9964542861
H  -0.4206163532 -1.7781083929  0.0123508848
H  -0.3634997043 -1.2065984549  1.6667567347
H   1.8476368327 -2.0656480379  1.1794430418
H   2.0185749814 -0.3092380639  1.1216745857
H   1.9044869699 -1.2340345298 -0.3673479802
14
Scanning combination 71/73: [415.2970]  Energy = -158.5501674280
C   0.1557096830  0.8170585757 -1.1105735729
C  -0.4304179429  0.3768623431  0.2250165532
C   0.0222754274 -1.0208669130  0.6405363366
C   1.5384087612 -1.1650101266  0.6816891116
H  -0.3579919766  1.6914547769 -1.5039540966
H   1.2112073327  1.0681705761 -1.0075597239
H   0.0810236081  0.0175340039 -1.8480188806
H  -1.5192982657  0.3901969064  0.1661284050
H  -0.1507240442  1.0939149653  1.0002470143
H  -0.3956156735 -1.7573845494 -0.0495999210
H  -0.3910139727 -1.2457511096  1.6243739632
H   1.8400312745 -2.0692707234  1.2056471062
H   1.9945044546 -0.3117723595  1.1842782105
H   1.9517485390 -1.2092672530 -0.3257541226
14
Scanning combination 72/73: [420.2970]  Energy = -158.5504572766
C   0.1155934528  0.8055663126 -1.1484490501
C  -0.4160310052  0.3788756301  0.2152788414
C   0.0374335837 -1.0187293592  0.6320847971
C   1.5521937820 -1.1572246366  0.7357771470
H  -0.3584141114  1.7270932302 -1.4807617435
H   1.1900421758  0.9843588041 -1.0955593686
H  -0.0542968399  0.0416508207 -1.9080460240
H  -1.5067844610  0.4206498544  0.2067275393
H  -0.0877044232  1.1052348435  0.9600353234
H  -0.3308546742 -1.7507086157 -0.0880684194
H  -0.4152541319 -1.2778643310  1.5909797183
H   1.8266206736 -2.1068461212  1.1910011808
H   1.9940616895 -0.3549914386  1.3278851550
H   2.0032415016 -1.1211958802 -0.2564287199
14
Scanning combination 73/73: [425.2970]  Energy = -158.5501739685
C   0.0987099095  0.8072023300 -1.1581831566
C  -0.3893233601  0.3887006924  0.2230974304
C   0.0439958385 -1.0238636004  0.6037691709
C   1.5538331740 -1.1610106190  0.7549057879
H  -0.3718305882  1.7300705095 -1.4890672863
H   1.1771510442  0.9704230092 -1.1463156235
H  -0.1053607380  0.0322752066 -1.8977304990
H  -1.4805822425  0.4277465997  0.2300828302
H  -0.0499857737  1.0998809147  0.9798331328
H  -0.3331549945 -1.7403703127 -0.1296747596
H  -0.4231165144 -1.2823766398  1.5563396241
H   1.8287578877 -2.1114143090  1.2062429890
H   1.9611567620 -0.3574377808  1.3692810686
H   2.0395968113 -1.1039568894 -0.2201243311
