10
Scanning combination 1/73: [304.0906]  Energy = -284.6319847498
N  -1.6449860336 -1.2896529161 -0.9112800788
C  -0.4868249349 -0.5903025708 -1.4237734884
C  -0.8544479044  0.5469915092 -2.3502332872
O  -1.9762172227  0.8552837891 -2.6474389669
O   0.2263586242  1.1990836008 -2.8248914805
H  -2.2483173911 -0.6169571391 -0.4555411927
H  -2.1863454460 -1.6272456177 -1.6965145138
H   0.1697249955 -1.2749707373 -1.9622190775
H   0.1099908912 -0.1864310776 -0.6054875050
H  -0.1131100147  1.8968303901 -3.4008763168
10
Scanning combination 2/73: [309.0906]  Energy = -284.6319333492
N  -1.6504529675 -1.2838832275 -0.9035723915
C  -0.4929978441 -0.5885168957 -1.4302650441
C  -0.8599227240  0.5527319692 -2.3496073232
O  -1.9803523612  0.8676183142 -2.6448736788
O   0.2281192844  1.1975002087 -2.8186340519
H  -2.2809107018 -0.5932516161 -0.5129895867
H  -2.1662984311 -1.6675745496 -1.6856646271
H   0.1600802610 -1.2740278393 -1.9718003171
H   0.1081905462 -0.1859497429 -0.6153729419
H  -0.0986505198  1.8974117681 -3.3981921785
10
Scanning combination 3/73: [314.0906]  Energy = -284.6317665342
N  -1.6582857253 -1.2741803168 -0.8984100492
C  -0.4995914543 -0.5879148180 -1.4351959715
C  -0.8617008953  0.5588979403 -2.3490933231
O  -1.9804287676  0.8828373001 -2.6409684117
O   0.2306291663  1.1978175924 -2.8160850672
H  -2.3146225030 -0.5719449984 -0.5761683079
H  -2.1430237691 -1.7152410491 -1.6698248784
H   0.1478168911 -1.2754997581 -1.9804518000
H   0.1081207031 -0.1883627723 -0.6232586615
H  -0.0896887560  1.9007237359 -3.3954249492
10
Scanning combination 4/73: [319.0906]  Energy = -284.6315231919
N  -1.6672410906 -1.2640021167 -0.8946279249
C  -0.5061213112 -0.5871380428 -1.4400989152
C  -0.8623559966  0.5653176552 -2.3488765692
O  -1.9791674168  0.8997203580 -2.6364141049
O   0.2336036070  1.1977859063 -2.8154715891
H  -2.3478408425 -0.5558098503 -0.6426499258
H  -2.1183997754 -1.7640609538 -1.6499986292
H   0.1353328847 -1.2771233867 -1.9888633482
H   0.1078837549 -0.1916083775 -0.6305826643
H  -0.0823098219  1.9048252686 -3.3920883855
10
Scanning combination 5/73: [324.0906]  Energy = -284.6313181575
N  -1.6789788939 -1.2516763534 -0.8941580539
C  -0.5151332071 -0.5843530538 -1.4456734103
C  -0.8626402095  0.5743492309 -2.3504581313
O  -1.9758694449  0.9262318047 -2.6307708030
O   0.2387795881  1.1963050842 -2.8175419989
H  -2.3832114359 -0.5449647397 -0.7139006821
H  -2.0871090145 -1.8306232571 -1.6160512533
H   0.1178570374 -1.2771336774 -2.0001313433
H   0.1072302688 -0.1951029408 -0.6391413191
H  -0.0714938478  1.9113537982 -3.3872017362
10
Scanning combination 6/73: [329.0906]  Energy = -284.6309963332
N  -1.6879929947 -1.2438891619 -0.8921599297
C  -0.5215841896 -0.5838988632 -1.4515893263
C  -0.8630114468  0.5812608076 -2.3499528769
O  -1.9738246981  0.9439694656 -2.6260807322
O   0.2421164122  1.1948264834 -2.8187241154
H  -2.4138426469 -0.5448257889 -0.7816654631
H  -2.0637648750 -1.8705478158 -1.5911569179
H   0.1090745852 -1.2770458985 -2.0085638379
H   0.1042660153 -0.1980132982 -0.6462808278
H  -0.0638606589  1.9147613553 -3.3843994337
10
Scanning combination 7/73: [334.0906]  Energy = -284.6306869807
N  -1.6993159721 -1.2338105522 -0.8938268810
C  -0.5287080195 -0.5827956106 -1.4572620450
C  -0.8632083193  0.5888465101 -2.3494744629
O  -1.9713236747  0.9641545625 -2.6194980224
O   0.2457714591  1.1938063313 -2.8196534204
H  -2.4436130849 -0.5469031163 -0.8549411080
H  -2.0353928237 -1.9182887408 -1.5574894114
H   0.0965687898 -1.2767888261 -2.0190504785
H   0.1024710873 -0.2023728056 -0.6534665970
H  -0.0554680224  1.9187927337 -3.3812878300
10
Scanning combination 8/73: [339.0906]  Energy = -284.6303554024
N  -1.7111567332 -1.2236063292 -0.8972932230
C  -0.5355431752 -0.5814371966 -1.4629456297
C  -0.8632217932  0.5963711112 -2.3487029434
O  -1.9688929610  0.9829215465 -2.6127618397
O   0.2493175345  1.1929775607 -2.8203901247
H  -2.4715155240 -0.5547277797 -0.9299490326
H  -2.0061995117 -1.9623822426 -1.5200440559
H   0.0839763997 -1.2763704842 -2.0304845072
H   0.1006932515 -0.2079957394 -0.6603562074
H  -0.0472195137  1.9228572229 -3.3779964328
10
Scanning combination 9/73: [344.0906]  Energy = -284.6300143929
N  -1.7234028477 -1.2133025056 -0.9026870294
C  -0.5422588379 -0.5804612826 -1.4687338636
C  -0.8632040484  0.6035664058 -2.3476954620
O  -1.9665337101  1.0003572002 -2.6063646753
O   0.2527467087  1.1924842359 -2.8206490067
H  -2.4971549228 -0.5679048906 -1.0060901485
H  -1.9763952409 -2.0030805173 -1.4787456073
H   0.0710811765 -1.2755084687 -2.0429068648
H   0.0992382070 -0.2147155849 -0.6669408629
H  -0.0390536943  1.9271603356 -3.3743695142
10
Scanning combination 10/73: [349.0906]  Energy = -284.6296756688
N  -1.7358056774 -1.2033034153 -0.9096326932
C  -0.5485904678 -0.5795924054 -1.4747981141
C  -0.8632413775  0.6104754836 -2.3465142256
O  -1.9643857117  1.0161912455 -2.6007778417
O   0.2559422268  1.1925387530 -2.8198811447
H  -2.5196587290 -0.5864334431 -1.0827357601
H  -1.9467902051 -2.0390877695 -1.4341566825
H   0.0584670549 -1.2748468377 -2.0561704247
H   0.0977581656 -0.2226160349 -0.6735090864
H  -0.0313550566  1.9313981798 -3.3702427361
10
Scanning combination 11/73: [354.0906]  Energy = -284.6293759849
N  -1.7482572185 -1.1936850237 -0.9185461925
C  -0.5548784250 -0.5793891998 -1.4813325841
C  -0.8633545210  0.6171576189 -2.3454367189
O  -1.9622324717  1.0311917297 -2.5962845917
O   0.2591327027  1.1933220356 -2.8181403569
H  -2.5392633954 -0.6102498917 -1.1593968215
H  -1.9174191261 -2.0716748259 -1.3851345489
H   0.0458209413 -1.2739803389 -2.0704712206
H   0.0963971557 -0.2315957654 -0.6800845949
H  -0.0238154374  1.9360225827 -3.3655032242
10
Scanning combination 12/73: [359.0906]  Energy = -284.6291358688
N  -1.7605691250 -1.1848362401 -0.9291426461
C  -0.5610382292 -0.5796801964 -1.4885148242
C  -0.8635764345  0.6236378702 -2.3445957248
O  -1.9601184892  1.0453250383 -2.5930018744
O   0.2622848476  1.1948146808 -2.8153602160
H  -2.5557238997 -0.6395852085 -1.2353037272
H  -1.8887521216 -2.1001035633 -1.3320330155
H   0.0334389298 -1.2731345532 -2.0857595829
H   0.0948612139 -0.2415694807 -0.6868791836
H  -0.0163386246  1.9410682890 -3.3600237612
10
Scanning combination 13/73: [364.0906]  Energy = -284.6289657550
N  -1.7725475987 -1.1769604560 -0.9411158079
C  -0.5669979034 -0.5805487067 -1.4963005194
C  -0.8639367810  0.6297783006 -2.3440191432
O  -1.9581491022  1.0582607150 -2.5909036666
O   0.2653333221  1.1970131804 -2.8115687855
H  -2.5688234695 -0.6743300935 -1.3097564533
H  -1.8612112511 -2.1236124483 -1.2757020128
H   0.0214797192 -1.2724558245 -2.1018786472
H   0.0931524982 -0.2524080507 -0.6939659830
H  -0.0089289300  1.9466093691 -3.3537567033
10
Scanning combination 14/73: [369.0906]  Energy = -284.6288644433
N  -1.7839889762 -1.1701290176 -0.9540553489
C  -0.5726416856 -0.5820517467 -1.5045961537
C  -0.8644128466  0.6353824199 -2.3436981678
O  -1.9564302142  1.0695601264 -2.5899184220
O   0.2681765782  1.1999158770 -2.8068077978
H  -2.5782898195 -0.7141355465 -1.3820651235
H  -1.8352989182 -2.1415796629 -1.2173645570
H   0.0100964015 -1.2721096803 -2.1185547713
H   0.0913797828 -0.2639925250 -0.7013290920
H  -0.0017537127  1.9526673813 -3.3467071683
10
Scanning combination 15/73: [374.0906]  Energy = -284.6312106389
N  -1.7963834094 -1.1640928335 -0.9749032042
C  -0.5795937043 -0.5845354764 -1.5152667750
C  -0.8645996379  0.6411638605 -2.3455553520
O  -1.9543743253  1.0819481448 -2.5918812749
O   0.2717969234  1.2047652187 -2.7997053799
H  -2.5876086645 -0.7610519413 -1.4578728170
H  -1.8067663700 -2.1591996793 -1.1355212952
H  -0.0045964283 -1.2697612715 -2.1421815213
H   0.0905643722 -0.2798851829 -0.7107323575
H   0.0084088628  1.9633062220 -3.3351093284
10
Scanning combination 16/73: [379.0906]  Energy = -284.6311560687
N  -1.8042382924 -1.1590470774 -0.9829893310
C  -0.5833107041 -0.5872408534 -1.5236264593
C  -0.8657553579  0.6444663085 -2.3449492072
O  -1.9546851750  1.0854258656 -2.5930464316
O   0.2726881477  1.2079084885 -2.7934511178
H  -2.5864765932 -0.8078149930 -1.5178684956
H  -1.7896337974 -2.1610010961 -1.0926466450
H  -0.0113182326 -1.2722098125 -2.1548566580
H   0.0885217354 -0.2898280558 -0.7181851864
H   0.0136955277  1.9684496186 -3.3278732118
10
Scanning combination 17/73: [384.0906]  Energy = -284.6311590384
N  -1.8131262342 -1.1547037852 -0.9955392140
C  -0.5873634918 -0.5907795756 -1.5325575458
C  -0.8662431237  0.6476404074 -2.3449910556
O  -1.9539809368  1.0900405103 -2.5947289510
O   0.2744708126  1.2130349522 -2.7858807328
H  -2.5836465273 -0.8590504683 -1.5791950888
H  -1.7705798433 -2.1611535868 -1.0385964810
H  -0.0204791427 -1.2747411722 -2.1702206309
H   0.0873361911 -0.3024490505 -0.7260348446
H   0.0180571669  1.9749774036 -3.3195140016
10
Scanning combination 18/73: [389.0906]  Energy = -284.6311819349
N  -1.8213942812 -1.1514877181 -1.0090614003
C  -0.5911757118 -0.5946944616 -1.5422799633
C  -0.8665698508  0.6505601824 -2.3455826199
O  -1.9530926222  1.0939703861 -2.5974844676
O   0.2763600519  1.2187532611 -2.7778193980
H  -2.5783084784 -0.9150642775 -1.6362788752
H  -1.7534057316 -2.1573033758 -0.9823180714
H  -0.0288963713 -1.2771298997 -2.1865421360
H   0.0858306966 -0.3159865639 -0.7342494860
H   0.0224182627  1.9824296700 -3.3101432693
10
Scanning combination 19/73: [394.0906]  Energy = -284.6311894739
N  -1.8289077080 -1.1493855108 -1.0223902144
C  -0.5947980477 -0.5988046386 -1.5524649517
C  -0.8668792933  0.6531820173 -2.3465612078
O  -1.9521265446  1.0973528526 -2.6010802400
O   0.2783110529  1.2245826866 -2.7693960141
H  -2.5702518232 -0.9752597873 -1.6877610656
H  -1.7378782320 -2.1493621141 -0.9273561323
H  -0.0365769735 -1.2799864837 -2.2027810878
H   0.0838468710 -0.3293948206 -0.7428968460
H   0.0266621238  1.9901640766 -3.3000532451
10
Scanning combination 20/73: [399.0906]  Energy = -284.6311669721
N  -1.8356699695 -1.1485031622 -1.0356806004
C  -0.5984400701 -0.6034393403 -1.5631499262
C  -0.8672261734  0.6554067613 -2.3480021819
O  -1.9510216727  1.1005599608 -2.6054327567
O   0.2803466512  1.2304168993 -2.7606286963
H  -2.5597410963 -1.0391841851 -1.7336314834
H  -1.7237321059 -2.1378708682 -0.8733033211
H  -0.0437336570 -1.2828887499 -2.2190253751
H   0.0815801459 -0.3424906999 -0.7519287873
H   0.0309254657  1.9982205559 -3.2891908431
10
Scanning combination 21/73: [404.0906]  Energy = -284.6310973192
N  -1.8417530410 -1.1488378092 -1.0489090353
C  -0.6020536262 -0.6083920675 -1.5742313649
C  -0.8677124906  0.6572812628 -2.3497339786
O  -1.9498578865  1.1038131509 -2.6101623525
O   0.2823419524  1.2359566899 -2.7516129438
H  -2.5464481329 -1.1062910772 -1.7739724164
H  -1.7108872290 -2.1230044815 -0.8204577378
H  -0.0503740232 -1.2859086441 -2.2352234123
H   0.0789540972 -0.3551376050 -0.7613472741
H   0.0351412269  2.0062918316 -3.2776088010
10
Scanning combination 22/73: [409.0906]  Energy = -284.6309670997
N  -1.8472299158 -1.1504684580 -1.0621939296
C  -0.6056695844 -0.6136357725 -1.5855989664
C  -0.8684153547  0.6588252122 -2.3516184834
O  -1.9486543880  1.1073709811 -2.6148855648
O   0.2842278796  1.2409809935 -2.7425210797
H  -2.5301215142 -1.1761254930 -1.8089665644
H  -1.6994106422 -2.1049006786 -0.7687625558
H  -0.0564587206 -1.2889259098 -2.2513721661
H   0.0760271159 -0.3672902745 -0.7711119447
H   0.0392310369  2.0142065480 -3.2653952554
10
Scanning combination 23/73: [414.0906]  Energy = -284.6307675827
N  -1.8521607164 -1.1535930352 -1.0757044298
C  -0.6093638245 -0.6191111951 -1.5972035429
C  -0.8693360086  0.6601275313 -2.3535939224
O  -1.9473615786  1.1115855576 -2.6192965272
O   0.2860305687  1.2453384986 -2.7335697929
H  -2.5107691720 -1.2485240147 -1.8385923790
H  -1.6893346750 -2.0836421870 -0.7180867685
H  -0.0619444761 -1.2917470982 -2.2674770209
H   0.0727870528 -0.3789545501 -0.7811716623
H   0.0432041230  2.0218753487 -3.2526346144
10
Scanning combination 24/73: [419.0906]  Energy = -284.6304936749
N  -1.8566072121 -1.1583539547 -1.0895265166
C  -0.6131700900 -0.6247474080 -1.6089829402
C  -0.8704106058  0.6612673651 -2.3555915694
O  -1.9459921702  1.1164923059 -2.6230958066
O   0.2877686443  1.2489594867 -2.7249554216
H  -2.4885028796 -1.3232203933 -1.8627204301
H  -1.6806843853 -2.0592166064 -0.6685666365
H  -0.0667925924 -1.2941969838 -2.2835187075
H   0.0692303367 -0.3901667010 -0.7914408068
H   0.0471284129  2.0292653604 -3.2394522030
10
Scanning combination 25/73: [424.0906]  Energy = -284.6301396455
N  -1.8605979190 -1.1646866178 -1.1036338872
C  -0.6169982172 -0.6304890983 -1.6208113553
C  -0.8715341794  0.6622618888 -2.3574840225
O  -1.9446629839  1.1216827890 -2.6260223318
O   0.2894151754  1.2519105623 -2.7167804357
H  -2.4633830496 -1.3995975391 -1.8812841378
H  -1.6735841851 -2.0315688099 -0.6206289668
H  -0.0710297420 -1.2962326227 -2.2994356155
H   0.0655099049 -0.4010340991 -0.8017865792
H   0.0509741759  2.0363579458 -3.2260265489
10
Scanning combination 26/73: [429.0906]  Energy = -284.6297087271
N  -1.8641094996 -1.1728131366 -1.1180850078
C  -0.6208256058 -0.6362316091 -1.6325724900
C  -0.8726533366  0.6632429460 -2.3592650037
O  -1.9432604471  1.1274026994 -2.6280635848
O   0.2910164749  1.2542698084 -2.7090767631
H  -2.4356664159 -1.4775962089 -1.8941461114
H  -1.6680952312 -2.0006894447 -0.5743318215
H  -0.0747975502 -1.2977594111 -2.3152191352
H   0.0617658372 -0.4116504456 -0.8121602389
H   0.0547211879  2.0431378101 -3.2124728302
10
Scanning combination 27/73: [434.0906]  Energy = -284.6292363756
N  -1.8670184392 -1.1837194761 -1.1330780190
C  -0.6249591909 -0.6417364992 -1.6442516263
C  -0.8738954901  0.6645858843 -2.3611292824
O  -1.9414093187  1.1352309148 -2.6293062263
O   0.2927701121  1.2558165065 -2.7020093553
H  -2.4057801746 -1.5583374663 -1.9009600150
H  -1.6641120226 -1.9665888844 -0.5291611084
H  -0.0782615578 -1.2983229214 -2.3309807255
H   0.0577933896 -0.4218581524 -0.8226403979
H   0.0587123742  2.0495486739 -3.1987928488
10
Scanning combination 28/73: [439.0906]  Energy = -284.6287945992
N  -1.8690976588 -1.1983877182 -1.1487547753
C  -0.6297327090 -0.6468089028 -1.6558205105
C  -0.8755764774  0.6666114416 -2.3631507030
O  -1.9390562654  1.1464537407 -2.6293130649
O   0.2947578478  1.2560387026 -2.6959913310
H  -2.3736495772 -1.6426417974 -1.9015947888
H  -1.6617509302 -1.9290989349 -0.4848703015
H  -0.0814555164 -1.2973254688 -2.3468584873
H   0.0532291875 -0.4312835417 -0.8332565947
H   0.0636005267  2.0554304735 -3.1850354766
10
Scanning combination 29/73: [444.0906]  Energy = -284.6284297885
N  -1.8701125236 -1.2159420473 -1.1648099977
C  -0.6347063946 -0.6516253638 -1.6670452060
C  -0.8777954908  0.6689217532 -2.3647801793
O  -1.9371000059  1.1591798837 -2.6268618161
O   0.2965639729  1.2547310430 -2.6914023630
H  -2.3381462264 -1.7281807676 -1.8968084381
H  -1.6620340088 -1.8879329278 -0.4426454234
H  -0.0842059475 -1.2949032426 -2.3627800334
H   0.0483872896 -0.4399328517 -0.8437359879
H   0.0694575143  2.0606253155 -3.1715895169
10
Scanning combination 30/73: [449.0906]  Energy = -284.6281211054
N  -1.8699884576 -1.2342153704 -1.1806905887
C  -0.6388216264 -0.6565991255 -1.6775317179
C  -0.8801410594  0.6707474660 -2.3653408652
O  -1.9363112275  1.1701072100 -2.6212309627
O   0.2977025282  1.2525331293 -2.6882233763
H  -2.2983641628 -1.8110133753 -1.8875431123
H  -1.6663947497 -1.8431779594 -0.4042453437
H  -0.0863924507 -1.2920603310 -2.3783846812
H   0.0444411719 -0.4485666313 -0.8536440926
H   0.0750956953  2.0651729719 -3.1589988249
10
Scanning combination 31/73: [454.0906]  Energy = -284.6278456073
N  -1.8686715967 -1.2523590098 -1.1961291418
C  -0.6415617436 -0.6618783531 -1.6870741566
C  -0.8821535069  0.6718351513 -2.3647593193
O  -1.9364062350  1.1784845712 -2.6129023233
O   0.2981863782  1.2502151206 -2.6861509180
H  -2.2546250170 -1.8897360583 -1.8738258383
H  -1.6755357574 -1.7951525316 -0.3702097376
H  -0.0881851536 -1.2894867077 -2.3934846580
H   0.0422582085 -0.4579208235 -0.8628768216
H   0.0792976169  2.0692554490 -3.1474227643
10
Scanning combination 32/73: [459.0906]  Energy = -284.6276001488
N  -1.8661269855 -1.2702937180 -1.2108556724
C  -0.6429126875 -0.6674100888 -1.6956094022
C  -0.8837534390  0.6722091202 -2.3631942503
O  -1.9369805967  1.1847572811 -2.6026267772
O   0.2981438158  1.2480401907 -2.6848833587
H  -2.2075205946 -1.9641573803 -1.8552485032
H  -1.6894920780 -1.7444150706 -0.3407014440
H  -0.0898606584 -1.2873316057 -2.4081310502
H   0.0421858427 -0.4681503892 -0.8715439631
H   0.0816961329  2.0729394160 -3.1367311304
10
Scanning combination 33/73: [464.0906]  Energy = -284.6273908165
N  -1.8623887271 -1.2879433243 -1.2245102712
C  -0.6430111330 -0.6731130831 -1.7030942798
C  -0.8850567380  0.6719222700 -2.3607764735
O  -1.9378158395  1.1894318115 -2.5910403855
O   0.2976042209  1.2459822407 -2.6841564633
H  -2.1575172147 -2.0340370287 -1.8314771966
H  -1.7080184341 -1.6917527227 -0.3159414307
H  -0.0916701419 -1.2855807340 -2.4223900871
H   0.0443644017 -0.4791047339 -0.8798218153
H   0.0823854770  2.0761754841 -3.1267719244
10
Scanning combination 34/73: [469.0906]  Energy = -284.6272292816
N  -1.8575255615 -1.3052211334 -1.2368518806
C  -0.6420032663 -0.6789274979 -1.7095318253
C  -0.8862058989  0.6710418075 -2.3575879184
O  -1.9388368088  1.1927896691 -2.5785569784
O   0.2965718510  1.2439746510 -2.6837173848
H  -2.1051219145 -2.0990818359 -1.8023285061
H  -1.7307842120 -1.6378106215 -0.2960458885
H  -0.0937503863 -1.2841712857 -2.4363593856
H   0.0488513433 -0.4906156006 -0.8878847802
H   0.0816186405  2.0789106448 -3.1174353433
10
Scanning combination 35/73: [474.0906]  Energy = -284.6248472105
N  -1.8531607220 -1.3201808100 -1.2467765830
C  -0.6406171997 -0.6845939191 -1.7148447657
C  -0.8867468866  0.6701117355 -2.3535743411
O  -1.9387246830  1.1954162329 -2.5674290995
O   0.2956339243  1.2427851397 -2.6833429331
H  -2.0532369114 -2.1571194644 -1.7672581856
H  -1.7533288045 -1.5902255734 -0.2825722957
H  -0.0966809141 -1.2827208793 -2.4475833689
H   0.0545581170 -0.5009825349 -0.8950105213
H   0.0792274248  2.0806563749 -3.1102012624
10
Scanning combination 36/73: [479.0906]  Energy = -284.6249457514
N  -1.8388303191 -1.3441382855 -1.2591353814
C  -0.6345931050 -0.6923928352 -1.7196568048
C  -0.8885030956  0.6664950542 -2.3486122156
O  -1.9413031813  1.1959469772 -2.5474234186
O   0.2929591844  1.2399833362 -2.6842707976
H  -1.9913379732 -2.2202930146 -1.7274936894
H  -1.8025904957 -1.5124415819 -0.2683995437
H  -0.1003149058 -1.2796243376 -2.4679777315
H   0.0707668378 -0.5185356511 -0.9061717561
H   0.0746396291  2.0839497448 -3.0978896016
10
Scanning combination 37/73: [484.0906]  Energy = -284.6249204892
N  -1.8361062867 -1.3544932695 -1.2655104444
C  -0.6316769693 -0.6969817382 -1.7221046792
C  -0.8882687858  0.6648213399 -2.3430834781
O  -1.9422017453  1.1940273385 -2.5360716665
O   0.2912771387  1.2391462155 -2.6843188836
H  -1.9403852991 -2.2631815353 -1.6816283391
H  -1.8262984933 -1.4706549713 -0.2671504994
H  -0.1018335105 -1.2807084054 -2.4771971744
H   0.0793919516 -0.5284334555 -0.9125928194
H   0.0705339106  2.0852725623 -3.0923180218
10
Scanning combination 38/73: [489.0906]  Energy = -284.6273424551
N  -1.8215299121 -1.3713061181 -1.2739892350
C  -0.6238557473 -0.7048009844 -1.7248768105
C  -0.8888583370  0.6597903703 -2.3358977180
O  -1.9460944927  1.1882695735 -2.5146247048
O   0.2863098829  1.2370561975 -2.6837189903
H  -1.8821801070 -2.3085685834 -1.6316134188
H  -1.8744942494 -1.3993656061 -0.2702413647
H  -0.1053737390 -1.2803452140 -2.4925945535
H   0.0989326641 -0.5449216108 -0.9223537370
H   0.0643121811  2.0867943817 -3.0834577544
10
Scanning combination 39/73: [494.0906]  Energy = -284.6274190824
N  -1.8186320025 -1.3803804426 -1.2785244222
C  -0.6202887681 -0.7094538064 -1.7265398536
C  -0.8882922215  0.6574874424 -2.3298694826
O  -1.9468142434  1.1852328722 -2.5024979072
O   0.2842830703  1.2365484743 -2.6834577219
H  -1.8343151941 -2.3400629297 -1.5766188768
H  -1.8982330966 -1.3596916880 -0.2765425925
H  -0.1061227129 -1.2820675905 -2.5005008682
H   0.1083074585 -0.5544468605 -0.9282599538
H   0.0589314363  2.0874993384 -3.0788994724
10
Scanning combination 40/73: [499.0906]  Energy = -284.6275698360
N  -1.8119324471 -1.3914180523 -1.2827400036
C  -0.6155282873 -0.7154806818 -1.7287774790
C  -0.8887000572  0.6537255907 -2.3236900835
O  -1.9485429024  1.1817378075 -2.4871099960
O   0.2812088465  1.2352000241 -2.6822241080
H  -1.7850958853 -2.3686106600 -1.5179364756
H  -1.9278687342 -1.3110734898 -0.2866424108
H  -0.1077176708 -1.2833305102 -2.5098995011
H   0.1199525145 -0.5651922578 -0.9348146595
H   0.0533314567  2.0874858202 -3.0732644349
10
Scanning combination 41/73: [504.0906]  Energy = -284.6277578445
N  -1.8045230914 -1.4020602435 -1.2859644541
C  -0.6099877521 -0.7213950396 -1.7304175145
C  -0.8889543729  0.6495644218 -2.3171181230
O  -1.9503197750  1.1775234864 -2.4706511111
O   0.2777786306  1.2336144897 -2.6816838788
H  -1.7381684314 -2.3913241412 -1.4549261334
H  -1.9590496940 -1.2627545421 -0.3012403285
H  -0.1088354687 -1.2849315550 -2.5189861232
H   0.1328178914 -0.5758441685 -0.9416161752
H   0.0470601320  2.0875390421 -3.0673533286
10
Scanning combination 42/73: [509.0906]  Energy = -284.6279653253
N  -1.7970344874 -1.4120737347 -1.2882851588
C  -0.6040876837 -0.7273540539 -1.7317852734
C  -0.8890172456  0.6451290765 -2.3104224301
O  -1.9519547322  1.1730779153 -2.4533235283
O   0.2741602142  1.2318798105 -2.6817780847
H  -1.6940670265 -2.4079561876 -1.3886152979
H  -1.9897399499 -1.2156620860 -0.3196747216
H  -0.1094167145 -1.2869808648 -2.5273133128
H   0.1456777968 -0.5861381708 -0.9480210275
H   0.0401690292  2.0875576747 -3.0614626032
10
Scanning combination 43/73: [514.0906]  Energy = -284.6281796354
N  -1.7899185003 -1.4215737369 -1.2896364589
C  -0.5981874268 -0.7330528496 -1.7329355567
C  -0.8889180137  0.6407007774 -2.3036812367
O  -1.9534265001  1.1687046949 -2.4352744982
O   0.2704838447  1.2300208836 -2.6823445487
H  -1.6529689802 -2.4183518700 -1.3195421392
H  -2.0187485894 -1.1706310294 -0.3415044367
H  -0.1093879578 -1.2896227971 -2.5349848502
H   0.1575063226 -0.5958309296 -0.9539265119
H   0.0330545358  2.0874206855 -3.0558498445
10
Scanning combination 44/73: [519.0906]  Energy = -284.6284151143
N  -1.7824467008 -1.4305613898 -1.2901596894
C  -0.5921005415 -0.7390263081 -1.7341547715
C  -0.8885932506  0.6360306587 -2.2968598489
O  -1.9548153778  1.1640359877 -2.4156647967
O   0.2666333275  1.2280249084 -2.6836784204
H  -1.6149316700 -2.4228152649 -1.2484182142
H  -2.0474810771 -1.1265193021 -0.3667849701
H  -0.1089963031 -1.2925825188 -2.5418182590
H   0.1691155144 -0.6049874102 -0.9593793095
H   0.0256258033  2.0873124435 -3.0504661625
10
Scanning combination 45/73: [524.0906]  Energy = -284.6286797210
N  -1.7746819309 -1.4389880058 -1.2898206367
C  -0.5857708784 -0.7450314403 -1.7353183407
C  -0.8879401973  0.6312048124 -2.2898443904
O  -1.9561349131  1.1588420103 -2.3940509815
O   0.2625600231  1.2259394960 -2.6859091313
H  -1.5801923625 -2.4211593129 -1.1756524652
H  -2.0758454836 -1.0834031239 -0.3958760463
H  -0.1080877681 -1.2960787930 -2.5479091689
H   0.1802915442 -0.6136884307 -0.9644248192
H   0.0178937931  2.0872408183 -3.0454459911
10
Scanning combination 46/73: [529.0906]  Energy = -284.6289977819
N  -1.7664484335 -1.4466949891 -1.2886144671
C  -0.5788886469 -0.7512062242 -1.7363933664
C  -0.8868935689  0.6260395997 -2.2824515696
O  -1.9574570528  1.1526410883 -2.3695442110
O   0.2580421862  1.2237513044 -2.6892264749
H  -1.5490901301 -2.4133406290 -1.1017592030
H  -2.1043058671 -1.0404733883 -0.4295448538
H  -0.1064208243 -1.3002006773 -2.5533370538
H   0.1914196171 -0.6220911309 -0.9690669605
H   0.0096328478  2.0872369199 -3.0408175451
10
Scanning combination 47/73: [534.0906]  Energy = -284.6293929037
N  -1.7576514752 -1.4533424912 -1.2865010502
C  -0.5711132865 -0.7577086659 -1.7373502616
C  -0.8853755472  0.6204186623 -2.2745005679
O  -1.9586843396  1.1451377916 -2.3414951951
O   0.2528113490  1.2214627082 -2.6938869745
H  -1.5222187207 -2.3992437906 -1.0272130233
H  -2.1331016892 -0.9974018999 -0.4684181869
H  -0.1035918625 -1.3050220082 -2.5581413721
H   0.2028770208 -0.6304300196 -0.9732850365
H   0.0004376523  2.0873270940 -3.0365857977
10
Scanning combination 48/73: [539.0906]  Energy = -284.6298366247
N  -1.7486415043 -1.4588393270 -1.2832650803
C  -0.5626519842 -0.7644238515 -1.7381627781
C  -0.8833583336  0.6147207348 -2.2660465130
O  -1.9592464826  1.1374116331 -2.3109471822
O   0.2469212310  1.2190901115 -2.6999829092
H  -1.4998327053 -2.3789318890 -0.9524333107
H  -2.1619331436 -0.9559593346 -0.5115367227
H  -0.0995750523 -1.3103546856 -2.5623116502
H   0.2146265694 -0.6388047132 -0.9771282055
H  -0.0098958632  2.0874652048 -3.0327883599
10
Scanning combination 49/73: [544.0906]  Energy = -284.6302347639
N  -1.7402324246 -1.4638022622 -1.2787582388
C  -0.5547264964 -0.7707569267 -1.7388197750
C  -0.8809755264  0.6098415224 -2.2575870885
O  -1.9584921021  1.1315975978 -2.2808888937
O   0.2410554185  1.2166750816 -2.7069502986
H  -1.4810715226 -2.3528947010 -0.8780048864
H  -2.1896515340 -0.9197627513 -0.5557657065
H  -0.0954624537 -1.3154639176 -2.5657830385
H   0.2256958126 -0.6468447818 -0.9807253659
H  -0.0205090729  2.0874565310 -3.0296264766
10
Scanning combination 50/73: [549.0906]  Energy = -284.6305406662
N  -1.7325960809 -1.4688013048 -1.2729355482
C  -0.5481378276 -0.7763194263 -1.7393088342
C  -0.8785505367  0.6060181793 -2.2493349227
O  -1.9567391076  1.1279268377 -2.2524451509
O   0.2356597954  1.2141616679 -2.7139076280
H  -1.4647111049 -2.3215938807 -0.8045231553
H  -2.2157613204 -0.8894396140 -0.5999835188
H  -0.0924376936 -1.3198433635 -2.5688158908
H   0.2354473624 -0.6541497345 -0.9842690437
H  -0.0301491539  2.0870843920 -3.0272254762
10
Scanning combination 51/73: [554.0906]  Energy = -284.6307700119
N  -1.7252511493 -1.4736988159 -1.2656620886
C  -0.5425812581 -0.7812472193 -1.7395340774
C  -0.8762542998  0.6028905368 -2.2410728342
O  -1.9544938217  1.1254266261 -2.2247636625
O   0.2305399061  1.2114855330 -2.7205108148
H  -1.4506279470 -2.2851313399 -0.7322535896
H  -2.2408530964 -0.8634802995 -0.6455338706
H  -0.0907241506 -1.3235896832 -2.5717336058
H   0.2444704743 -0.6608250094 -0.9880381434
H  -0.0386488913  2.0863398459 -3.0254399541
10
Scanning combination 52/73: [559.0906]  Energy = -284.6309395567
N  -1.7178867166 -1.4782308039 -1.2568554385
C  -0.5376876391 -0.7856657837 -1.7393828782
C  -0.8740318085  0.6002776434 -2.2326564605
O  -1.9518194668  1.1238061785 -2.1976186500
O   0.2255614392  1.2087246673 -2.7267586269
H  -1.4393036059 -2.2436839558 -0.6614128398
H  -2.2652511719 -0.8413750554 -0.6931079051
H  -0.0903177348 -1.3268411415 -2.5746305994
H   0.2534427254 -0.6671450599 -0.9922145501
H  -0.0464254496  2.0853167943 -3.0240595237
10
Scanning combination 53/73: [564.0906]  Energy = -284.6310531634
N  -1.7104299059 -1.4823172226 -1.2465017470
C  -0.5334246985 -0.7895633326 -1.7388005560
C  -0.8718475395  0.5982462281 -2.2241222198
O  -1.9486416756  1.1233018220 -2.1716201592
O   0.2208415836  1.2059932675 -2.7325027185
H  -1.4309139658 -2.1975960620 -0.5923320107
H  -2.2888712087 -0.8234918234 -0.7423349454
H  -0.0914601415 -1.3295890817 -2.5775464200
H   0.2625567143 -0.6732663069 -0.9968972581
H  -0.0536564132  2.0840837194 -3.0229457684
10
Scanning combination 54/73: [569.0906]  Energy = -284.6311156585
N  -1.7028796532 -1.4858720801 -1.2346074301
C  -0.5298387839 -0.7928889969 -1.7378213803
C  -0.8697000031  0.5968498328 -2.2155809787
O  -1.9450535046  1.1239246846 -2.1473091418
O   0.2165706126  1.2034127938 -2.7374672148
H  -1.4253163123 -2.1471292605 -0.5254076326
H  -2.3116562731 -0.8101785262 -0.7927025027
H  -0.0944779965 -1.3318507967 -2.5805606075
H   0.2718010978 -0.6792751056 -1.0021641770
H  -0.0602315778  2.0827125028 -3.0220011917
10
Scanning combination 55/73: [574.0906]  Energy = -284.6311402856
N  -1.6952335630 -1.4886906923 -1.2212084982
C  -0.5269104847 -0.7956186804 -1.7364852573
C  -0.8675381532  0.5960954237 -2.2071461878
O  -1.9411979919  1.1254750331 -2.1249441824
O   0.2128948264  1.2011373121 -2.7414738293
H  -1.4223594083 -2.0924144065 -0.4610285723
H  -2.3337376012 -0.8017214363 -0.8438302988
H  -0.0995875358 -1.3337551144 -2.5837250130
H   0.2812067281 -0.6852983810 -1.0081121898
H  -0.0660241541  2.0813380678 -3.0211223470
10
Scanning combination 56/73: [579.0906]  Energy = -284.6311454791
N  -1.6875094836 -1.4905620033 -1.2063425238
C  -0.5246150126 -0.7977229294 -1.7348407773
C  -0.8652856237  0.5960146452 -2.1989455600
O  -1.9371351287  1.1278243486 -2.1046756255
O   0.2099437640  1.1993178417 -2.7444880415
H  -1.4219354393 -2.0335885857 -0.3995614812
H  -2.3553623947 -0.7985505241 -0.8953390808
H  -0.1069038995 -1.3354361850 -2.5870206063
H   0.2908279105 -0.6914821607 -1.0148175345
H  -0.0709347419  2.0801414217 -3.0202201846
10
Scanning combination 57/73: [584.0906]  Energy = -284.6311545546
N  -1.6797404745 -1.4912988752 -1.1900850522
C  -0.5229548689 -0.7991786187 -1.7329388311
C  -0.8629132349  0.5966346806 -2.1910831696
O  -1.9329201850  1.1308992308 -2.0865639668
O   0.2078168286  1.1980592780 -2.7465446211
H  -1.4239686837 -1.9708653894 -0.3413602607
H  -2.3766544545 -0.8010780318 -0.9468573267
H  -0.1164342902 -1.3369746689 -2.5904118149
H   0.3006171747 -0.6979434312 -1.0223092155
H  -0.0748313386  2.0792858629 -3.0192390433
10
Scanning combination 58/73: [589.0906]  Energy = -284.6311923860
N  -1.6720023607 -1.4907499936 -1.1725951071
C  -0.5219194094 -0.8000038096 -1.7308409384
C  -0.8604349783  0.5979352525 -2.1836335307
O  -1.9286408421  1.1345969964 -2.0705550422
O   0.2065126510  1.1974029158 -2.7476965072
H  -1.4284597677 -1.9045267443 -0.2868080544
H  -2.3974589941 -0.8094660516 -0.9980555272
H  -0.1280731848 -1.3384163641 -2.5938426390
H   0.3104584689 -0.7047625707 -1.0305464575
H  -0.0776087960  2.0788829125 -3.0181325243
10
Scanning combination 59/73: [594.0906]  Energy = -284.6289648227
N  -1.6650299948 -1.4898416201 -1.1541921826
C  -0.5212906027 -0.8000641214 -1.7284753290
C  -0.8578010166  0.6001768777 -2.1766034944
O  -1.9234100949  1.1399476650 -2.0573842900
O   0.2070507695  1.1978992920 -2.7484944264
H  -1.4357732458 -1.8356808214 -0.2365655059
H  -2.4179772036 -0.8246397834 -1.0470650344
H  -0.1417087868 -1.3395429921 -2.5970212345
H   0.3201559834 -0.7115519453 -1.0393742827
H  -0.0799645583  2.0788944363 -3.0171754395
10
Scanning combination 60/73: [599.0906]  Energy = -284.6291014188
N  -1.6578410265 -1.4868034974 -1.1353215324
C  -0.5216324075 -0.7997130057 -1.7261615765
C  -0.8552507753  0.6027930299 -2.1700666855
O  -1.9191782654  1.1448195526 -2.0452362381
O   0.2072085373  1.1983531470 -2.7479860245
H  -1.4452671622 -1.7634800679 -0.1908858535
H  -2.4366464516 -0.8444768822 -1.0958468992
H  -0.1567731586 -1.3406353897 -2.6002550698
H   0.3293626239 -0.7190066885 -1.0485450203
H  -0.0802690787  2.0793718508 -3.0161386718
10
Scanning combination 61/73: [604.0906]  Energy = -284.6292990394
N  -1.6512308712 -1.4826004849 -1.1165233822
C  -0.5223503347 -0.7990090791 -1.7238877282
C  -0.8528560904  0.6057235480 -2.1640614057
O  -1.9152372906  1.1498038652 -2.0348206400
O   0.2079854909  1.1992415858 -2.7469401094
H  -1.4576166588 -1.6889191012 -0.1504233273
H  -2.4531689212 -0.8686757276 -1.1424989069
H  -0.1728935647 -1.3417493463 -2.6032777417
H   0.3379823165 -0.7268031839 -1.0579263502
H  -0.0797261003  2.0803473410 -3.0146946780
10
Scanning combination 62/73: [609.0906]  Energy = -284.6295518227
N  -1.6453577926 -1.4775464433 -1.0981829051
C  -0.5235250588 -0.7980533479 -1.7217192719
C  -0.8506048506  0.6088952123 -2.1586383667
O  -1.9115373869  1.1549372660 -2.0260198882
O   0.2091795725  1.2004788027 -2.7453744580
H  -1.4727134947 -1.6125831995 -0.1156789815
H  -2.4672511698 -0.8965782187 -1.1864294836
H  -0.1897097451 -1.3428904407 -2.6060410891
H   0.3458085013 -0.7347877513 -1.0672623992
H  -0.0784111232  2.0817400583 -3.0128808590
10
Scanning combination 63/73: [614.0906]  Energy = -284.6298502494
N  -1.6402216853 -1.4719112250 -1.0805225068
C  -0.5251173256 -0.7969093858 -1.7196923180
C  -0.8485848504  0.6122488243 -2.1537639977
O  -1.9080911095  1.1602998992 -2.0186217850
O   0.2107291108  1.2019302545 -2.7433721686
H  -1.4904853506 -1.5350894992 -0.0869596671
H  -2.4788194508 -0.9275797723 -1.2273779091
H  -0.2069701714 -1.3440506434 -2.6085196952
H   0.3527438198 -0.7427818694 -1.0764285805
H  -0.0764041884  2.0834384848 -3.0107163740
10
Scanning combination 64/73: [619.0906]  Energy = -284.6301812035
N  -1.6357431837 -1.4658847756 -1.0636031191
C  -0.5271167916 -0.7956092027 -1.7178399533
C  -0.8468360563  0.6157561264 -2.1493846540
O  -1.9048770824  1.1660374527 -2.0124341700
O   0.2125748656  1.2034723301 -2.7410111956
H  -1.5109059703 -1.4571153813 -0.0643977833
H  -2.4879079628 -0.9612352585 -1.2652707819
H  -0.2245002630 -1.3452223110 -2.6107203104
H   0.3587756933 -0.7505917804 -1.0853924068
H  -0.0737722424  2.0853275879 -3.0082254940
10
Scanning combination 65/73: [624.0906]  Energy = -284.6305272118
N  -1.6318160183 -1.4595468981 -1.0474049313
C  -0.5295111785 -0.7941651472 -1.7161987249
C  -0.8453821709  0.6194043032 -2.1454256636
O  -1.9018519603  1.1722570416 -2.0072544484
O   0.2146718483  1.2049967653 -2.7383562426
H  -1.5339433362 -1.3793075779 -0.0480038869
H  -2.4946141217 -0.9972429099 -1.3001730123
H  -0.2422061402 -1.3464026040 -2.6126550129
H   0.3639312649 -0.7580388467 -1.0941890270
H  -0.0705567267  2.0873089270 -3.0054377149
10
Scanning combination 66/73: [629.0906]  Energy = -284.6308679264
N  -1.6283724871 -1.4528537884 -1.0319150599
C  -0.5322768084 -0.7926016879 -1.7148217539
C  -0.8442146928  0.6231110014 -2.1418152766
O  -1.8989855280  1.1788845338 -2.0027459180
O   0.2169543607  1.2064130555 -2.7354838570
H  -1.5595476786 -1.3021732658 -0.0377922290
H  -2.4990354564 -1.0352793771 -1.3322112318
H  -0.2599648701 -1.3476125941 -2.6143565007
H   0.3682414389 -0.7649836671 -1.1028377472
H  -0.0668072008  2.0893142343 -3.0023800325
10
Scanning combination 67/73: [634.0906]  Energy = -284.6311821742
N  -1.6254287709 -1.4456943075 -1.0171819479
C  -0.5353314514 -0.7909941910 -1.7137763838
C  -0.8432867119  0.6267323597 -2.1384890668
O  -1.8962374804  1.1856655657 -1.9983948881
O   0.2192909184  1.2076503500 -2.7325299642
H  -1.5876342996 -1.2260457825 -0.0338078909
H  -2.5012687991 -1.0748938415 -1.3615611914
H  -0.2775490673 -1.3489253868 -2.6158569630
H   0.3717229645 -0.7713570447 -1.1113009845
H  -0.0626395874  2.0913141860 -2.9990651622
10
Scanning combination 68/73: [639.0906]  Energy = -284.6314526604
N  -1.6230801750 -1.4379412338 -1.0032924362
C  -0.5385570748 -0.7894663535 -1.7131274551
C  -0.8425184775  0.6300981243 -2.1353993026
O  -1.8935255777  1.1922517708 -1.9935468051
O   0.2215118908  1.2086677206 -2.7297359607
H  -1.6181221829 -1.1511406898 -0.0361102891
H  -2.5014323996 -1.1155527475 -1.3884100701
H  -0.2946080322 -1.3504414679 -2.6171942179
H   0.3743980510 -0.7771657203 -1.1194719000
H  -0.0582495816  2.0933276015 -2.9955055505
10
Scanning combination 69/73: [644.0906]  Energy = -284.6316695015
N  -1.6214844467 -1.4294370013 -0.9903276672
C  -0.5417994597 -0.7881507932 -1.7129129146
C  -0.8417898121  0.6330589199 -2.1325108773
O  -1.8906967370  1.1983035025 -1.9874252512
O   0.2234260736  1.2094551687 -2.7274507725
H  -1.6509356675 -1.0775423296 -0.0447682401
H  -2.4997123218 -1.1568488802 -1.4129961178
H  -0.3107452208 -1.3522761020 -2.6184026666
H   0.3763227687 -0.7824980549 -1.1271937133
H  -0.0538874764  2.0954122644 -2.9917270270
10
Scanning combination 70/73: [649.0906]  Energy = -284.6318353915
N  -1.6208173541 -1.4199800982 -0.9783430261
C  -0.5448997039 -0.7871575874 -1.7131218009
C  -0.8409489582  0.6355292780 -2.1297776041
O  -1.8875366719  1.2036352013 -1.9792385923
O   0.2248425837  1.2099971305 -2.7260928399
H  -1.6860060715 -1.0052524541 -0.0598238199
H  -2.4963088288 -1.1986829300 -1.4356245724
H  -0.3256399238 -1.3545111761 -2.6194980535
H   0.3775926916 -0.7874996780 -1.1342997165
H  -0.0498128114  2.0976285094 -2.9877693819
10
Scanning combination 71/73: [654.0906]  Energy = -284.6319590941
N  -1.6211401389 -1.4095458576 -0.9672660337
C  -0.5478481867 -0.7864911027 -1.7137196654
C  -0.8398893147  0.6376506663 -2.1271213540
O  -1.8837605123  1.2086334452 -1.9688210632
O   0.2256889816  1.2102540065 -2.7260044353
H  -1.7233300806 -0.9348166687 -0.0810193300
H  -2.4912841210 -1.2412123298 -1.4563897916
H  -0.3391507947 -1.3570783719 -2.6205133880
H   0.3782284896 -0.7922600211 -1.1407007073
H  -0.0462023521  2.0999576773 -2.9837217192
10
Scanning combination 72/73: [659.0906]  Energy = -284.6320328936
N  -1.6222941016 -1.3985985171 -0.9568200101
C  -0.5509679661 -0.7858937778 -1.7146682196
C  -0.8385531344  0.6399223340 -2.1245041642
O  -1.8790913250  1.2145012986 -1.9572705419
O   0.2262144815  1.2101828444 -2.7271909014
H  -1.7629720683 -0.8679007401 -0.1074705386
H  -2.4845527045 -1.2848738486 -1.4748446770
H  -0.3515305875 -1.3595579642 -2.6215315934
H   0.3780869270 -0.7966265071 -1.1465312526
H  -0.0429027431  2.1022583937 -2.9797935234
10
Scanning combination 73/73: [664.0906]  Energy = -284.6320272354
N  -1.6240790709 -1.3877167473 -0.9467493452
C  -0.5546915493 -0.7849307537 -1.7158511686
C  -0.8369527097  0.6428423073 -2.1219810719
O  -1.8734447658  1.2221852818 -1.9458618736
O   0.2268401530  1.2097747403 -2.7293009990
H  -1.8048527540 -0.8061250572 -0.1383084672
H  -2.4760730806 -1.3303585508 -1.4903488442
H  -0.3634000871 -1.3613070608 -2.6226748688
H   0.3770208219 -0.8002855242 -1.1520759332
H  -0.0393361666  2.1043631832 -2.9762729030
