10
Scanning combination 1/73: [123.1008]  Energy = -230.3042596203
C  -0.3734612190 -0.5292621661  0.4799780792
O  -0.4196205642 -0.3569033030 -0.9240032806
O   0.5771013170  0.6273788069 -1.2288833226
C   1.4501307068  0.0154931174 -2.1596974270
H   0.6043557140 -0.8943887088  0.7989203697
H  -1.1356992779 -1.2714480378  0.7051980331
H  -0.6082241077  0.4041898918  0.9917643691
H   2.1992457341  0.7688741462 -2.3916720292
H   1.9309991102 -0.8639185935 -1.7277592882
H   0.9144392631 -0.2606135032 -3.0680850152
10
Scanning combination 2/73: [128.1008]  Energy = -230.3045227016
C  -0.3839862915 -0.5279136702  0.4877492838
O  -0.3860448144 -0.3909536952 -0.9196981491
O   0.6085994308  0.6059072087 -1.1996893620
C   1.4529553425  0.0207157831 -2.1714309957
H   0.5861556209 -0.8881008052  0.8361813135
H  -1.1536573699 -1.2633563631  0.7093689511
H  -0.6273896391  0.4180039153  0.9752403230
H   2.1944091018  0.7802328937 -2.4075780161
H   1.9447979447 -0.8664515847 -1.7672855451
H   0.8940063227 -0.2406440995 -3.0719469297
10
Scanning combination 3/73: [133.1008]  Energy = -230.3045961082
C  -0.3949990470 -0.5272110619  0.4994661131
O  -0.3497449141 -0.4246889328 -0.9093284861
O   0.6429700941  0.5793474559 -1.1736795462
C   1.4583651715  0.0247920495 -2.1860339921
H   0.5629785915 -0.8802909795  0.8861277978
H  -1.1735389185 -1.2548194662  0.7142973543
H  -0.6517953607  0.4306162963  0.9543482168
H   2.1895748584  0.7927818356 -2.4252289999
H   1.9638316754 -0.8707256732 -1.8193644326
H   0.8723290320 -0.2139371231 -3.0747762023
10
Scanning combination 4/73: [138.1008]  Energy = -230.3046518116
C  -0.4054638889 -0.5260973529  0.5112511218
O  -0.3127206177 -0.4585237182 -0.8966815290
O   0.6786049111  0.5511903311 -1.1489250766
C   1.4634632448  0.0282573057 -2.2005808342
H   0.5380203830 -0.8696783929  0.9394137914
H  -1.1925135019 -1.2470340305  0.7173615763
H  -0.6769516217  0.4427246656  0.9326616139
H   2.1844247526  0.8055807955 -2.4407113736
H   1.9821834534 -0.8757020855 -1.8760521692
H   0.8506680633 -0.1861027684 -3.0771887192
10
Scanning combination 5/73: [143.1008]  Energy = -230.3046836744
C  -0.4154079993 -0.5246737547  0.5224180327
O  -0.2751948115 -0.4923947110 -0.8823537816
O   0.7151392716  0.5218726041 -1.1251277151
C   1.4679777536  0.0314657658 -2.2145438404
H   0.5120588948 -0.8563280469  0.9924425367
H  -1.2098333837 -1.2401217848  0.7190605436
H  -0.7017544181  0.4540779216  0.9092191379
H   2.1793232028  0.8177987740 -2.4539529027
H   1.9980552423 -0.8804437237 -1.9342753048
H   0.8287490503 -0.1575924331 -3.0777960389
10
Scanning combination 6/73: [148.1008]  Energy = -230.3046720317
C  -0.4247212096 -0.5229881357  0.5321369025
O  -0.2374444684 -0.5263913906 -0.8674139346
O   0.7521012714  0.4921254911 -1.1016092568
C   1.4715211608  0.0347024288 -2.2272305158
H   0.4860063733 -0.8408867175  1.0425887485
H  -1.2254516020 -1.2341067701  0.7198423253
H  -0.7254136238  0.4650007745  0.8842857043
H   2.1745223960  0.8292072289 -2.4652464627
H   2.0106464318 -0.8844003048 -1.9913501129
H   0.8064312030 -0.1292895339 -3.0765313188
10
Scanning combination 7/73: [153.1008]  Energy = -230.3046519358
C  -0.4337831835 -0.5209241781  0.5410300593
O  -0.1995347989 -0.5600929456 -0.8509218535
O   0.7896116014  0.4614789737 -1.0792766811
C   1.4743172920  0.0379857093 -2.2393515067
H   0.4591529012 -0.8236544592  1.0902685785
H  -1.2394421291 -1.2287751438  0.7197100229
H  -0.7475354395  0.4748979253  0.8573194086
H   2.1698379454  0.8398063607 -2.4747264587
H   2.0204273100 -0.8870655934 -2.0478178835
H   0.7839482255 -0.1011293609 -3.0725260501
10
Scanning combination 8/73: [158.1008]  Energy = -230.3046324519
C  -0.4422060705 -0.5186287700  0.5485872545
O  -0.1614191740 -0.5937077543 -0.8334768238
O   0.8275409468  0.4302145837 -1.0575775433
C   1.4762255212  0.0412490251 -2.2502624443
H   0.4318804136 -0.8049224172  1.1354219654
H  -1.2520899162 -1.2237968950  0.7185541247
H  -0.7679888467  0.4840218982  0.8282841430
H   2.1649322350  0.8498030933 -2.4826053965
H   2.0276176151 -0.8886650474 -2.1033097329
H   0.7610650023 -0.0732782031 -3.0657978411
10
Scanning combination 9/73: [163.1008]  Energy = -230.3046149337
C  -0.4497237141 -0.5161767039  0.5545201223
O  -0.1230293355 -0.6272980693 -0.8152549728
O   0.8658514778  0.3983637594 -1.0363172643
C   1.4771651642  0.0444098466 -2.2595810882
H   0.4044342322 -0.7846505029  1.1778770881
H  -1.2634054299 -1.2189573429  0.7161259349
H  -0.7865817004  0.4923401293  0.7967988684
H   2.1594942311  0.8592575036 -2.4888019952
H   2.0320941294 -0.8893386552 -2.1575878885
H   0.7376109250 -0.0457227047 -3.0559569433
10
Scanning combination 10/73: [168.1008]  Energy = -230.3046011403
C  -0.4562008270 -0.5136283750  0.5588152618
O  -0.0843405796 -0.6608523737 -0.7962332809
O   0.9045470912  0.3658961302 -1.0155058907
C   1.4771776031  0.0473759283 -2.2672007986
H   0.3767233915 -0.7626650803  1.2179284309
H  -1.2733617837 -1.2142386765  0.7122737411
H  -0.8032513989  0.4997718909  0.7625847363
H   2.1534283816  0.8682087467 -2.4931971545
H   2.0338618927 -0.8891896433 -2.2109941929
H   0.7135133967 -0.0183727025 -3.0427298102
10
Scanning combination 11/73: [173.1008]  Energy = -230.3045906893
C  -0.4616366548 -0.5109747383  0.5614886658
O  -0.0454440554 -0.6942775386 -0.7764199091
O   0.9435383525  0.3328663954 -0.9952223737
C   1.4762660878  0.0501372544 -2.2731464263
H   0.3487706113 -0.7389218433  1.2553475334
H  -1.2818722619 -1.2097257098  0.7069840421
H  -0.8178800481  0.5062529996  0.7256912063
H   2.1468026387  0.8766113475 -2.4956997091
H   2.0327640533 -0.8881473560 -2.2633674572
H   0.6888543658  0.0086670929 -3.0260577739
10
Scanning combination 12/73: [178.1008]  Energy = -230.3045756454
C  -0.4660664397 -0.5081772869  0.5623902621
O  -0.0064901243 -0.7274648433 -0.7559735533
O   0.9826555912  0.2994449231 -0.9754815207
C   1.4743216483  0.0527780837 -2.2773265778
H   0.3209890634 -0.7135517618  1.2892546894
H  -1.2888528956 -1.2054827021  0.7003292163
H  -0.8302581133  0.5117496482  0.6861752656
H   2.1397068322  0.8843783075 -2.4962907758
H   2.0284591899 -0.8861414087 -2.3137919534
H   0.6636890560  0.0352011659 -3.0058691893
10
Scanning combination 13/73: [183.1008]  Energy = -230.3045469190
C  -0.4695083798 -0.5052352167  0.5612837874
O   0.0323702730 -0.7603396401 -0.7351194555
O   1.0217146143  0.2658391289 -0.9562234142
C   1.4712179292  0.0554204951 -2.2795886834
H   0.2939086876 -0.6867640870  1.3188124354
H  -1.2942671580 -1.2015063965  0.6924189133
H  -0.8402066251  0.5162543390  0.6439699242
H   2.1321969725  0.8914298571 -2.4950341664
H   2.0206969975 -0.8832022387 -2.3612861048
H   0.6379935480  0.0611077091 -2.9820135694
10
Scanning combination 14/73: [188.1008]  Energy = -230.3045058966
C  -0.4719631282 -0.5021714637  0.5580964343
O   0.0710490028 -0.7928476238 -0.7139709464
O   1.0606111628  0.2321613593 -0.9374385296
C   1.4669403064  0.0581021250 -2.2798687824
H   0.2676848442 -0.6587004727  1.3439508404
H  -1.2981814875 -1.1977622471  0.6833759891
H  -0.8476894692  0.5197179242  0.5990246108
H   2.1243035480  0.8977563026 -2.4920673797
H   2.0095612432 -0.8793909531 -2.4056565580
H   0.6117844387  0.0863913044 -2.9544116144
10
Scanning combination 15/73: [193.1008]  Energy = -230.3044624434
C  -0.4734713754 -0.4989946674  0.5529527169
O   0.1094618838 -0.8249072273 -0.6925065819
O   1.0992858612  0.1984497681 -0.9192224140
C   1.4615577397  0.0608033556 -2.2782721907
H   0.2421595195 -0.6294737086  1.3650608763
H  -1.3007055215 -1.1942157606  0.6733375529
H  -0.8528489666  0.5220719148  0.5516749879
H   2.1160739321  0.9033879131 -2.4875655405
H   1.9953507581 -0.8747155828 -2.4472201998
H   0.5852889696  0.1110438937 -2.9233553747
10
Scanning combination 16/73: [198.1008]  Energy = -230.3044250041
C  -0.4741045137 -0.4956874525  0.5460467913
O   0.1475113731 -0.8563984425 -0.6706513379
O   1.1376763004  0.1647250130 -0.9017293660
C   1.4551548359  0.0634977300 -2.2749823729
H   0.2171406258 -0.5992453520  1.3825430940
H  -1.3019616227 -1.1908628643  0.6624537020
H  -0.8559575961  0.5233100828  0.5026169837
H   2.1075769018  0.9083575394 -2.4817031034
H   1.9784115109 -0.8691457202 -2.4863030592
H   0.5588735292  0.1349938512 -2.8894979243
10
Scanning combination 17/73: [203.1008]  Energy = -230.3043941738
C  -0.4739471427 -0.4922311870  0.5375783835
O   0.1850969014 -0.8872072516 -0.6483419212
O   1.1757128655  0.1310116141 -0.8851114166
C   1.4478229652  0.0661651523 -2.2702123482
H   0.1925471674 -0.5682152272  1.3966496310
H  -1.3020430243 -1.1876997533  0.6508370844
H  -0.8573122472  0.5234845729  0.4525705314
H   2.0988658611  0.9126932124 -2.4746117259
H   1.9590418669 -0.8626660361 -2.5230377530
H   0.5328670889  0.1581652145 -2.8535338634
10
Scanning combination 18/73: [208.1008]  Energy = -230.3043619673
C  -0.4730915721 -0.4886248322  0.5277585032
O   0.2221242606 -0.9172164610 -0.6255023837
O   1.2133379120  0.0973291364 -0.8695225048
C   1.4396652276  0.0687887449 -2.2641511698
H   0.1684246229 -0.5365647831  1.4075080033
H  -1.3010544937 -1.1847233343  0.6385744722
H  -0.8572090376  0.5226259687  0.4021225201
H   2.0899852136  0.9164493015 -2.4664107281
H   1.9374656251 -0.8553273841 -2.5574211501
H   0.5075423098  0.1805434233 -2.8160693149
10
Scanning combination 19/73: [213.1008]  Energy = -230.3043133395
C  -0.4716311442 -0.4849290918  0.5168332276
O   0.2585192186 -0.9463356383 -0.6020285741
O   1.2505264431  0.0636666842 -0.8551190220
C   1.4308604125  0.0713576522 -2.2570059573
H   0.1448305825 -0.5043686369  1.4153071896
H  -1.2991594844 -1.1819199550  0.6257491743
H  -0.8559112808  0.5206712846  0.3516200265
H   2.0809673943  0.9197243111 -2.4572530276
H   1.9138439375 -0.8472382729 -2.5895239676
H   0.4831310884  0.2022181805 -2.7774648339
10
Scanning combination 20/73: [218.1008]  Energy = -230.3042280912
C  -0.4696273524 -0.4812680577  0.5050341103
O   0.2942456236 -0.9745064101 -0.5778150264
O   1.2872828286  0.0299962954 -0.8420193770
C   1.4216401674  0.0738563854 -2.2489207211
H   0.1217135383 -0.4716189790  1.4203333891
H  -1.2965725928 -1.1792402961  0.6124457600
H  -0.8535079818  0.5174868576  0.3010768571
H   2.0718085902  0.9226508117 -2.4473324686
H   1.8883168681 -0.8384865801 -2.6195915685
H   0.4597546976  0.2232957134 -2.7377193762
10
Scanning combination 21/73: [223.1008]  Energy = -230.3039100306
C  -0.4669430184 -0.4776911502  0.4924204219
O   0.3292836461 -1.0017219062 -0.5528439584
O   1.3236102552 -0.0036762437 -0.8302552834
C   1.4120704082  0.0761519208 -2.2398532958
H   0.0989367985 -0.4383141791  1.4228225467
H  -1.2935222661 -1.1766330574  0.5986901410
H  -0.8497276003  0.5129401894  0.2499826161
H   2.0624813251  0.9253995174 -2.4368072558
H   1.8610051198 -0.8290551892 -2.6478628778
H   0.4372662952  0.2438040670 -2.6962545974
10
Scanning combination 22/73: [228.1008]  Energy = -230.3037331401
C  -0.4634883348 -0.4743047646  0.4789230733
O   0.3636784872 -1.0279749106 -0.5272567877
O   1.3594271429 -0.0373300253 -0.8196997401
C   1.4022095659  0.0782314153 -2.2296522312
H   0.0764196234 -0.4043344515  1.4228778272
H  -1.2898055683 -1.1739684713  0.5842665308
H  -0.8440196685  0.5069509221  0.1972799075
H   2.0527632785  0.9278577491 -2.4254753133
H   1.8318602086 -0.8189574799 -2.6745121304
H   0.4151890965  0.2637596999 -2.6519772578
10
Scanning combination 23/73: [233.1008]  Energy = -230.3036892330
C  -0.4555847034 -0.4729898438  0.4610516243
O   0.4005179079 -1.0577973085 -0.5039363155
O   1.3971412033 -0.0711130378 -0.8046428802
C   1.3918803269  0.0789863211 -2.2130303206
H   0.0524098971 -0.3591095206  1.4203295040
H  -1.2827179939 -1.1711580967  0.5668197947
H  -0.8316934586  0.4937962058  0.1253722142
H   2.0413682929  0.9287201668 -2.4102437256
H   1.7917353127 -0.8094638265 -2.7049795094
H   0.3893492462  0.2884436197 -2.5870255129
10
Scanning combination 24/73: [238.1008]  Energy = -230.3034443846
C  -0.4531182497 -0.4693410984  0.4451401042
O   0.4315173372 -1.0801416119 -0.4779328982
O   1.4298161077 -0.1030957001 -0.7978693287
C   1.3805450385  0.0829043368 -2.2016840399
H   0.0352908458 -0.3294544061  1.4104220285
H  -1.2785937729 -1.1691023505  0.5544716570
H  -0.8258247029  0.4873901379  0.0790156846
H   2.0332431147  0.9300772367 -2.3999551297
H   1.7611650389 -0.7984305242 -2.7196201097
H   0.3709082177  0.3055773335 -2.5471412592
10
Scanning combination 25/73: [243.1008]  Energy = -230.3033330510
C  -0.4438894950 -0.4677451264  0.4253919217
O   0.4664091237 -1.1071352736 -0.4534806776
O   1.4656846381 -0.1364742337 -0.7858963607
C   1.3690095714  0.0832767197 -2.1831234947
H   0.0136670685 -0.2848685452  1.3994637869
H  -1.2707054939 -1.1656778870  0.5348638276
H  -0.8101807484  0.4722336404  0.0103969306
H   2.0202103665  0.9310428711 -2.3829955166
H   1.7172517338 -0.7871008374 -2.7423979141
H   0.3484922824  0.3265106832 -2.4820086437
10
Scanning combination 26/73: [248.1008]  Energy = -230.3031638101
C  -0.4366747259 -0.4656001057  0.4044040481
O   0.4983443829 -1.1307481181 -0.4290817327
O   1.4986199103 -0.1682090078 -0.7769017344
C   1.3563563298  0.0857718391 -2.1649347507
H  -0.0021449433 -0.2459526467  1.3813166146
H  -1.2631208069 -1.1632871938  0.5180105014
H  -0.7969143482  0.4585111816 -0.0503496775
H   2.0094838540  0.9313326350 -2.3677600332
H   1.6745003512 -0.7760507270 -2.7543973044
H   0.3289078313  0.3456241085 -2.4245145306
10
Scanning combination 27/73: [253.1008]  Energy = -230.3029968315
C  -0.4292892644 -0.4634530585  0.3832609573
O   0.5289599451 -1.1525718312 -0.4039092222
O   1.5304188166 -0.1996364056 -0.7699455194
C   1.3436217622  0.0881884412 -2.1465452862
H  -0.0178128251 -0.2073866849  1.3613222466
H  -1.2552878691 -1.1610341807  0.5015787724
H  -0.7824340660  0.4430407946 -0.1110765849
H   1.9990942024  0.9312607266 -2.3526446061
H   1.6310949677 -0.7642156177 -2.7648121473
H   0.3108339008  0.3641603467 -2.3656368024
10
Scanning combination 28/73: [258.1008]  Energy = -230.3027871084
C  -0.4217846322 -0.4616431228  0.3621059354
O   0.5582004684 -1.1724896625 -0.3779656514
O   1.5609795773 -0.2307401940 -0.7651058672
C   1.3311703475  0.0905989870 -2.1279367376
H  -0.0335298414 -0.1686887569  1.3394163800
H  -1.2472813973 -1.1590390074  0.4860047705
H  -0.7674127936  0.4252241805 -0.1709946242
H   1.9893688492  0.9307322092 -2.3379555028
H   1.5865881101 -0.7515313425 -2.7739068881
H   0.2951892901  0.3825087026 -2.3060396652
10
Scanning combination 29/73: [263.1008]  Energy = -230.3024268221
C  -0.4145079982 -0.4601391639  0.3418953307
O   0.5858998058 -1.1901112892 -0.3508629870
O   1.5901666222 -0.2616537681 -0.7629254172
C   1.3194674872  0.0928712283 -2.1100041702
H  -0.0499575744 -0.1304909575  1.3167979264
H  -1.2392923919 -1.1574059851  0.4717551327
H  -0.7531018396  0.4053748106 -0.2280049643
H   1.9806378093  0.9297324943 -2.3240876781
H   1.5421395420 -0.7377901954 -2.7826255304
H   0.2827842383  0.4007324050 -2.2480487116
10
Scanning combination 30/73: [268.1008]  Energy = -230.3016491769
C  -0.4108149016 -0.4575699378  0.3271054930
O   0.6094691432 -1.2006651979 -0.3205682237
O   1.6149366943 -0.2923423403 -0.7683367126
C   1.3096411056  0.0955350908 -2.0983717893
H  -0.0657076547 -0.1047698707  1.2997796371
H  -1.2340153387 -1.1562224472  0.4604608442
H  -0.7455448792  0.3928652233 -0.2649932610
H   1.9738082135  0.9298729389 -2.3135919470
H   1.5112685927 -0.7237346441 -2.7896061584
H   0.2744144494  0.4139356329 -2.2114791963
10
Scanning combination 31/73: [273.1008]  Energy = -230.3006213947
C  -0.4052243386 -0.4551022888  0.3130868328
O   0.6333464075 -1.2110410151 -0.2897540382
O   1.6398236928 -0.3235724917 -0.7740473156
C   1.3003050309  0.0962636136 -2.0862804832
H  -0.0850423160 -0.0741572566  1.2836373125
H  -1.2268284375 -1.1555059575  0.4468097441
H  -0.7348786672  0.3771747562 -0.3056359427
H   1.9661689916  0.9295433235 -2.3001749490
H   1.4766500115 -0.7083151867 -2.8012383150
H   0.2668913173  0.4269440439 -2.1692182069
10
Scanning combination 32/73: [278.1008]  Energy = -230.2992864008
C  -0.3998862328 -0.4529547807  0.2995930236
O   0.6560116942 -1.2193474669 -0.2590633034
O   1.6628733954 -0.3542683037 -0.7812068323
C   1.2915139359  0.0970608156 -2.0745648839
H  -0.1034864233 -0.0440495419  1.2664739627
H  -1.2189592878 -1.1560203341  0.4340510997
H  -0.7256470689  0.3608656810 -0.3439941062
H   1.9600455993  0.9285676782 -2.2865165978
H   1.4419388355 -0.6930713833 -2.8114360293
H   0.2610729520  0.4403416244 -2.1291035060
10
Scanning combination 33/73: [283.1008]  Energy = -230.2976317251
C  -0.3954618667 -0.4512321615  0.2875033082
O   0.6771119736 -1.2249472761 -0.2283217473
O   1.6836221912 -0.3843750195 -0.7904049265
C   1.2838103479  0.0981363739 -2.0641631324
H  -0.1212928458 -0.0151856104  1.2492829245
H  -1.2107552156 -1.1582451519  0.4235057831
H  -0.7193587138  0.3437843850 -0.3787841727
H   1.9565328093  0.9267907976 -2.2735579070
H   1.4082812213 -0.6780257358 -2.8207374247
H   0.2577470269  0.4548945221 -2.0927875046
10
Scanning combination 34/73: [288.1008]  Energy = -230.2956913489
C  -0.3920168898 -0.4500470080  0.2771081085
O   0.6966557183 -1.2278234148 -0.1976393970
O   1.7020044603 -0.4138560099 -0.8015643321
C   1.2774377659  0.0994490350 -2.0552749970
H  -0.1391338391  0.0126570746  1.2324982218
H  -1.2023403517 -1.1621869995  0.4157244205
H  -0.7159946865  0.3253426678 -0.4103539607
H   1.9559179670  0.9240774834 -2.2617603881
H   1.3757067109 -0.6628552622 -2.8299055122
H   0.2572412750  0.4708977230 -2.0597466315
10
Scanning combination 35/73: [293.1008]  Energy = -230.2935175382
C  -0.3895030803 -0.4494333849  0.2683718403
O   0.7147142603 -1.2280842218 -0.1672872720
O   1.7179708822 -0.4426257301 -0.8144015910
C   1.2724075923  0.1009816397 -2.0478340846
H  -0.1571740222  0.0395435893  1.2161736470
H  -1.1937304069 -1.1677357383  0.4108516026
H  -0.7154132895  0.3053283265 -0.4390790767
H   1.9581826338  0.9203487926 -2.2512903840
H   1.3441889106 -0.6474587662 -2.8390911842
H   0.2595412892  0.4884538390 -2.0295380364
10
Scanning combination 36/73: [298.1008]  Energy = -230.2911765383
C  -0.3879243858 -0.4493748122  0.2611813199
O   0.7313443538 -1.2258063279 -0.1375777911
O   1.7314288849 -0.4705740673 -0.8286245036
C   1.2686497546  0.1027834170 -2.0417668099
H  -0.1753564374  0.0653575974  1.2003001783
H  -1.1849117381 -1.1747832814  0.4089871879
H  -0.7174545013  0.2837161609 -0.4653737001
H   1.9632840603  0.9155186052 -2.2422591578
H   1.3138212100 -0.6318505880 -2.8482072472
H   0.2644544935  0.5076156334 -2.0017653799
10
Scanning combination 37/73: [303.1008]  Energy = -230.2887502126
C  -0.3872528751 -0.4498597654  0.2552916224
O   0.7466790528 -1.2211877381 -0.1088380896
O   1.7423751431 -0.4976154476 -0.8438356430
C   1.2660240117  0.1049357384 -2.0368807077
H  -0.1935179346  0.0900391808  1.1846670417
H  -1.1758847981 -1.1831231420  0.4101197927
H  -0.7218258991  0.2604726928 -0.4898056287
H   1.9710425539  0.9095381128 -2.2347518531
H   1.2845478512 -0.6160620136 -2.8569933837
H   0.2717194503  0.5283904310 -1.9758442562
10
Scanning combination 38/73: [308.1008]  Energy = -230.2863283913
C  -0.3874159297 -0.4508976112  0.2503465342
O   0.7608984034 -1.2144995484 -0.0813797785
O   1.7508841168 -0.5236947691 -0.8595938369
C   1.2643579661  0.1075338019 -2.0328768345
H  -0.2114246833  0.1136240897  1.1688962476
H  -1.1666788305 -1.1924670529  0.4141150734
H  -0.7281347337  0.2355077714 -0.5129771813
H   1.9811395334  0.9024124434 -2.2288107837
H   1.2561430199 -0.6001337249 -2.8650627206
H   0.2811019036  0.5507327612 -1.9510905384
10
Scanning combination 39/73: [313.1008]  Energy = -230.2823755254
C  -0.3804799497 -0.4305264605  0.2673923713
O   0.7759376673 -1.1929412213 -0.0437945404
O   1.7518933875 -0.5589427035 -0.8889136492
C   1.2557436367  0.0885909048 -2.0507876225
H  -0.2396721193  0.0752895484  1.2268222098
H  -1.1818596638 -1.1646314257  0.3465280794
H  -0.6627820654  0.3146020450 -0.4651659087
H   1.9223331615  0.9376964310 -2.1993011038
H   1.3187880690 -0.5911460157 -2.9052826671
H   0.2383118531  0.4523939508 -1.9872986953
10
Scanning combination 40/73: [318.1008]  Energy = -230.2797377408
C  -0.3837694298 -0.4318452843  0.2621447662
O   0.7870294841 -1.1805912658 -0.0218240077
O   1.7527074845 -0.5814525944 -0.9047558439
C   1.2541501427  0.0940774941 -2.0480533513
H  -0.2438624012  0.0747396968  1.2195459299
H  -1.1831937274 -1.1670125793  0.3455619285
H  -0.6636828924  0.3131866155 -0.4696998999
H   1.9238699047  0.9399073547 -2.1982332631
H   1.3154863470 -0.5842044279 -2.9018630866
H   0.2371767195  0.4555443724 -1.9838098633
10
Scanning combination 41/73: [323.1008]  Energy = -230.2775611831
C  -0.3798971814 -0.4296006403  0.2633712724
O   0.8025677234 -1.1684611928  0.0045541750
O   1.7560046949 -0.6096548009 -0.9214410938
C   1.2528761785  0.0896163374 -2.0479416759
H  -0.2691949861  0.0957876655  1.2144343516
H  -1.1719630091 -1.1733386280  0.3383681842
H  -0.6603037941  0.2957451489 -0.4864148288
H   1.9256119597  0.9351688945 -2.1843669310
H   1.2947353615 -0.5659330521 -2.9204716601
H   0.2434872727  0.4647152861 -1.9621015279
10
Scanning combination 42/73: [328.1008]  Energy = -230.2753325700
C  -0.3831926407 -0.4315311652  0.2590624818
O   0.8132183711 -1.1541429245  0.0238605094
O   1.7537563776 -0.6311420293 -0.9364218475
C   1.2522922233  0.0948586709 -2.0456306202
H  -0.2723704354  0.0948986374  1.2091363634
H  -1.1735621508 -1.1770021029  0.3375709160
H  -0.6610996144  0.2951723574 -0.4900427336
H   1.9283305775  0.9378760095 -2.1829929505
H   1.2927484341 -0.5606398972 -2.9178316359
H   0.2421007713  0.4671498557 -1.9595965015
10
Scanning combination 43/73: [333.1008]  Energy = -230.2736137059
C  -0.3802806447 -0.4276922408  0.2629434932
O   0.8274512748 -1.1375210833  0.0474166657
O   1.7517443010 -0.6581900526 -0.9536874879
C   1.2510206687  0.0896199907 -2.0486692739
H  -0.2973783143  0.1112491803  1.2086820254
H  -1.1602719871 -1.1854189321  0.3309093363
H  -0.6594009406  0.2824201228 -0.5010554455
H   1.9321429177  0.9317009283 -2.1675270455
H   1.2784251011 -0.5434333540 -2.9376233854
H   0.2473378259  0.4739843803 -1.9450118936
10
Scanning combination 44/73: [338.1008]  Energy = -230.2719764138
C  -0.3831459583 -0.4300097148  0.2595202128
O   0.8379534898 -1.1215966708  0.0643322454
O   1.7468856413 -0.6789292968 -0.9676983765
C   1.2512266702  0.0942066368 -2.0466135461
H  -0.3002686365  0.1098087855  1.2042366991
H  -1.1618472620 -1.1892342467  0.3301560722
H  -0.6600890135  0.2818577107 -0.5035475137
H   1.9350150520  0.9344099748 -2.1661065095
H   1.2773517637 -0.5386115721 -2.9352193078
H   0.2465289468  0.4758236777 -1.9432901558
10
Scanning combination 45/73: [343.1008]  Energy = -230.2708322253
C  -0.3804282025 -0.4251264062  0.2643173853
O   0.8514850938 -1.1019211781  0.0848157315
O   1.7406683074 -0.7048446790 -0.9844168594
C   1.2495337195  0.0884493445 -2.0508840856
H  -0.3237611420  0.1203559127  1.2076563489
H  -1.1477219382 -1.1971762122  0.3229352641
H  -0.6590340472  0.2747069504 -0.5090977976
H   1.9381350093  0.9276376296 -2.1500077214
H   1.2700039199 -0.5228459679 -2.9545142241
H   0.2497883268  0.4792932966 -1.9355189468
10
Scanning combination 46/73: [348.1008]  Energy = -230.2698611848
C  -0.3828097271 -0.4277581697  0.2615778957
O   0.8619043613 -1.0846028580  0.0995171124
O   1.7334723019 -0.7249131805 -0.9974590485
C   1.2503630460  0.0924049851 -2.0489427451
H  -0.3263710257  0.1183854140  1.2039934869
H  -1.1492783187 -1.2010389915  0.3219705928
H  -0.6594578335  0.2743373253 -0.5104535712
H   1.9409388104  0.9304368568 -2.1484014120
H   1.2697897025 -0.5184660745 -2.9523055479
H   0.2494026327  0.4803535035 -1.9345797712
10
Scanning combination 47/73: [353.1008]  Energy = -230.2693926712
C  -0.3794849405 -0.4214627691  0.2666464867
O   0.8752841572 -1.0622921046  0.1171619782
O   1.7235317708 -0.7501588947 -1.0133332379
C   1.2476022063  0.0856275886 -2.0537219419
H  -0.3480318217  0.1232114394  1.2110637341
H  -1.1339566077 -1.2076762580  0.3119471077
H  -0.6576853023  0.2740781346 -0.5107768484
H   1.9414983381  0.9235243828 -2.1302037213
H   1.2692339802 -0.5043354916 -2.9708115579
H   0.2494641328  0.4790477043 -1.9333113778
10
Scanning combination 48/73: [358.1008]  Energy = -230.2691259409
C  -0.3813471863 -0.4243647184  0.2644439031
O   0.8857076300 -1.0436514648  0.1297940139
O   1.7141341904 -0.7696746883 -1.0254375458
C   1.2489432182  0.0889751043 -2.0517865129
H  -0.3503413706  0.1207127207  1.2081324556
H  -1.1354753853 -1.2115354537  0.3105143804
H  -0.6577081563  0.2740882402 -0.5109827067
H   1.9440569701  0.9264963658 -2.1282356381
H   1.2698507035 -0.5003933108 -2.9687525126
H   0.2493486329  0.4791555175 -1.9331767819
10
Scanning combination 49/73: [363.1008]  Energy = -230.2692795464
C  -0.3802064154 -0.4224091208  0.2656775363
O   0.8975549764 -1.0217567135  0.1428978244
O   1.7021990462 -0.7914945894 -1.0385865065
C   1.2479103040  0.0869275095 -2.0529646733
H  -0.3594158628  0.1191530533  1.2103826775
H  -1.1294750900 -1.2161556121  0.3042410890
H  -0.6575486317  0.2749135492 -0.5103630645
H   1.9447933159  0.9253690616 -2.1184943729
H   1.2723159889 -0.4931950184 -2.9744047488
H   0.2489628563  0.4785233908 -1.9339132478
10
Scanning combination 50/73: [368.1008]  Energy = -230.2700226102
C  -0.3748692481 -0.4134686444  0.2702393624
O   0.9116061973 -0.9957167433  0.1566561856
O   1.6870604431 -0.8166068500 -1.0529048116
C   1.2426317936  0.0779384117 -2.0574964781
H  -0.3793013416  0.1164157505  1.2227168994
H  -1.1096982629 -1.2204296772  0.2867899836
H  -0.6530183456  0.2873857418 -0.5025424526
H   1.9395075467  0.9172784655 -2.0935835545
H   1.2809609085 -0.4808673133 -2.9925253670
H   0.2423396877  0.4678363998 -1.9428109057
10
Scanning combination 51/73: [373.1008]  Energy = -230.2708671706
C  -0.3753530634 -0.4158040921  0.2690918615
O   0.9224583221 -0.9744324060  0.1663978313
O   1.6739074461 -0.8359280569 -1.0638308195
C   1.2440360631  0.0794872054 -2.0558749292
H  -0.3818367441  0.1126658843  1.2214420659
H  -1.1102161363 -1.2242276670  0.2833412605
H  -0.6520402369  0.2888584751 -0.5005292792
H   1.9409764750  0.9202660015 -2.0896453761
H   1.2835039965 -0.4771239686 -2.9912464490
H   0.2421225894  0.4657146510 -1.9444326281
10
Scanning combination 52/73: [378.1008]  Energy = -230.2716839295
C  -0.3760021608 -0.4173898901  0.2689272816
O   0.9324420173 -0.9505847025  0.1731060529
O   1.6568655182 -0.8538048820 -1.0740172184
C   1.2450646132  0.0805959558 -2.0553595823
H  -0.3973542896  0.1322264227  1.2103452117
H  -1.0864380854 -1.2464524383  0.3014921255
H  -0.6771728332  0.2558190051 -0.5205362916
H   1.9695372249  0.8979447965 -2.0809204650
H   1.2610219702 -0.4642328193 -2.9999103798
H   0.2601509142  0.5048803333 -1.9281267496
10
Scanning combination 53/73: [383.1008]  Energy = -230.2731539319
C  -0.3759579588 -0.4190354082  0.2681355188
O   0.9436109431 -0.9277164155  0.1815704345
O   1.6417935214 -0.8733082928 -1.0845987673
C   1.2462970118  0.0812897333 -2.0540679553
H  -0.4004630540  0.1276804881  1.2095375683
H  -1.0853381982 -1.2502548813  0.2972198310
H  -0.6758472896  0.2578602934 -0.5174799783
H   1.9705198142  0.8998498079 -2.0755250742
H   1.2644531487 -0.4599533241 -2.9987866263
H   0.2598229581  0.5019277513 -1.9306055774
10
Scanning combination 54/73: [388.1008]  Energy = -230.2746912744
C  -0.3747591416 -0.4182861269  0.2677075592
O   0.9545202219 -0.9014416791  0.1866540136
O   1.6219944652 -0.8919765673 -1.0943179336
C   1.2454436597  0.0802574548 -2.0534509048
H  -0.4155001877  0.1400261422  1.2026734696
H  -1.0612432574 -1.2674073211  0.3075926037
H  -0.6937445438  0.2350703320 -0.5310179417
H   1.9906469929  0.8792714369 -2.0631096378
H   1.2502600265 -0.4473988096 -3.0069179395
H   0.2722864315  0.5293600400 -1.9198920735
10
Scanning combination 55/73: [393.1008]  Energy = -230.2767739232
C  -0.3735723574 -0.4195864920  0.2674321515
O   0.9661377006 -0.8762368340  0.1925161066
O   1.6034764236 -0.9113030968 -1.1037217261
C   1.2464232752  0.0797130469 -2.0520698643
H  -0.4189191366  0.1345585992  1.2033569871
H  -1.0581335594 -1.2716207841  0.3017226819
H  -0.6921317368  0.2387908986 -0.5266367167
H   1.9912382387  0.8803383183 -2.0553400545
H   1.2552826664 -0.4432995509 -3.0067777878
H   0.2713637200  0.5250452956 -1.9239116680
10
Scanning combination 56/73: [398.1008]  Energy = -230.2787493453
C  -0.3737757504 -0.4204174100  0.2669340610
O   0.9758504692 -0.8485620623  0.1946413013
O   1.5809177424 -0.9280104846 -1.1124637719
C   1.2468460436  0.0803139900 -2.0514542361
H  -0.4332886826  0.1485137123  1.1946847486
H  -1.0341340392 -1.2910619651  0.3166484283
H  -0.7110672609  0.2112953451 -0.5420877006
H   2.0156900371  0.8584643740 -2.0453189302
H   1.2387982879 -0.4309373855 -3.0139743631
H   0.2868699339  0.5554860778 -1.9102458926
10
Scanning combination 57/73: [403.1008]  Energy = -230.2815687382
C  -0.3681642343 -0.4144746169  0.2680974450
O   0.9901631766 -0.8173352882  0.1980565361
O   1.5559885982 -0.9501900173 -1.1213380034
C   1.2424084122  0.0734134797 -2.0520154564
H  -0.4402955247  0.1348977151  1.2051309487
H  -1.0179107650 -1.2932837040  0.2983154587
H  -0.7086860758  0.2307709727 -0.5288700143
H   2.0081693182  0.8532389159 -2.0225150471
H   1.2558336660 -0.4258698867 -3.0192708275
H   0.2770172506  0.5423663725 -1.9272920508
10
Scanning combination 58/73: [408.1008]  Energy = -230.2839688488
C  -0.3685658330 -0.4172687381  0.2682021368
O   0.9990812983 -0.7883436158  0.1969528821
O   1.5306275131 -0.9651541393 -1.1286990369
C   1.2448594637  0.0744653587 -2.0510652612
H  -0.4495923014  0.1416734632  1.1990224221
H  -1.0011331466 -1.3081286011  0.3092041255
H  -0.7217633488  0.2105221473 -0.5376836591
H   2.0265628844  0.8380790588 -2.0152944102
H   1.2468403485 -0.4170487526 -3.0225822217
H   0.2897556180  0.5629044929 -1.9186519008
10
Scanning combination 59/73: [413.1008]  Energy = -230.2870786303
C  -0.3638943951 -0.4111305381  0.2714915601
O   1.0114686588 -0.7537034092  0.1953603784
O   1.5001888385 -0.9843905863 -1.1363986047
C   1.2413141373  0.0673595523 -2.0537769588
H  -0.4554465451  0.1251334538  1.2137769651
H  -0.9819391726 -1.3128849908  0.2922051607
H  -0.7238955540  0.2310598649 -0.5209163280
H   2.0219239517  0.8304149946 -1.9908061155
H   1.2686070861 -0.4140761728 -3.0291419880
H   0.2808255158  0.5518025416 -1.9411123587
10
Scanning combination 60/73: [418.1008]  Energy = -230.2882907203
C  -0.3782402574 -0.4346541133  0.2657860541
O   1.0096685796 -0.7328414342  0.1888413368
O   1.4789507514 -0.9855988355 -1.1417400066
C   1.2584613731  0.0884966108 -2.0466303252
H  -0.4803094097  0.1898367038  1.1527942829
H  -0.9531419149 -1.3578851760  0.3807883641
H  -0.7771603820  0.1040773950 -0.5857458989
H   2.1063196075  0.7788436013 -2.0211232483
H   1.1816141489 -0.3833443259 -3.0257371602
H   0.3558705054  0.6601966360 -1.8650689228
10
Scanning combination 61/73: [423.1008]  Energy = -230.2911217597
C  -0.3752108051 -0.4314536191  0.2697118236
O   1.0187049584 -0.6968957821  0.1834237140
O   1.4454086168 -1.0006345300 -1.1489361934
C   1.2577575545  0.0833108172 -2.0493597363
H  -0.4876981463  0.1747755451  1.1657319738
H  -0.9361113772 -1.3638223199  0.3735396209
H  -0.7804641610  0.1127540527 -0.5749664145
H   2.1077158985  0.7690533492 -2.0043856902
H   1.2011688653 -0.3786621619 -3.0324153532
H   0.3539986373  0.6559398785 -1.8785129603
10
Scanning combination 62/73: [428.1008]  Energy = -230.2938428434
C  -0.3735440196 -0.4283435273  0.2759564947
O   1.0252489189 -0.6595493553  0.1752945733
O   1.4092545409 -1.0127170834 -1.1560502781
C   1.2583253679  0.0782919648 -2.0544521680
H  -0.4942640603  0.1600463418  1.1825240978
H  -0.9135713347 -1.3742021789  0.3657921313
H  -0.7902212582  0.1236491954 -0.5595298033
H   2.1126817027  0.7559662649 -1.9824801139
H   1.2224318824 -0.3764718794 -3.0416405718
H   0.3526103814  0.6545539397 -1.8996881700
10
Scanning combination 63/73: [433.1008]  Energy = -230.2963498440
C  -0.3728197134 -0.4257549371  0.2835259018
O   1.0294144286 -0.6212390790  0.1649375445
O   1.3711168600 -1.0220428383 -1.1631797393
C   1.2600210027  0.0736381508 -2.0607762704
H  -0.4997009716  0.1435357983  1.2012728238
H  -0.8901293703 -1.3852531037  0.3596619860
H  -0.8032265366  0.1337717274 -0.5416483416
H   2.1190612580  0.7415750994 -1.9609987865
H   1.2462349550 -0.3756323763 -3.0509369488
H   0.3531334366  0.6550817323 -1.9239940530
10
Scanning combination 64/73: [438.1008]  Energy = -230.2985399816
C  -0.3730727353 -0.4239441326  0.2924104769
O   1.0309822107 -0.5823044924  0.1525802800
O   1.3314019632 -1.0284311143 -1.1704591849
C   1.2630613204  0.0694510314 -2.0682264740
H  -0.5042033133  0.1259566039  1.2213135915
H  -0.8660410056 -1.3968999819  0.3557625970
H  -0.8196502575  0.1417732201 -0.5216529518
H   2.1271031920  0.7258068341 -1.9405597696
H   1.2716231710 -0.3758723541 -3.0602254548
H   0.3565539658  0.6581745066 -1.9506837168
10
Scanning combination 65/73: [443.1008]  Energy = -230.3003381211
C  -0.3745311075 -0.4233324228  0.3027048039
O   1.0295901981 -0.5432127890  0.1384631864
O   1.2906342908 -1.0315508883 -1.1780457799
C   1.2678496893  0.0659968595 -2.0768069187
H  -0.5077707640  0.1079884149  1.2421126622
H  -0.8419397951 -1.4092359906  0.3549602768
H  -0.8398916933  0.1463852852 -0.4996130555
H   2.1373371949  0.7088481773 -1.9220825608
H   1.2977399937 -0.3771433346 -3.0694161781
H   0.3639181123  0.6645492928 -1.9793517958
10
Scanning combination 66/73: [448.1008]  Energy = -230.3017079404
C  -0.3775229647 -0.4243010606  0.3145778014
O   1.0247779274 -0.5044506395  0.1228664124
O   1.2493697615 -1.0310020579 -1.1861666054
C   1.2747998804  0.0635885835 -2.0866398880
H  -0.5104383726  0.0901525058  1.2634214144
H  -0.8185627752 -1.4224234969  0.3582369184
H  -0.8642223182  0.1466368189 -0.4755707620
H   2.1504052041  0.6909426813 -1.9065998324
H   1.3240101907 -0.3794461482 -3.0785763668
H   0.3760377790  0.6747166879 -2.0096809318
10
Scanning combination 67/73: [453.1008]  Energy = -230.3026530097
C  -0.3822840979 -0.4270000876  0.3280061139
O   1.0162210734 -0.4663591940  0.1060555097
O   1.2080404577 -1.0265296722 -1.1950360170
C   1.2840330110  0.0624715737 -2.0977685723
H  -0.5121811046  0.0728172271  1.2850585232
H  -0.7962823741 -1.4365816504  0.3661964347
H  -0.8924841037  0.1420684711 -0.4498938179
H   2.1667179552  0.6721724042 -1.8946925954
H   1.3500240535 -0.3828183635 -3.0877176911
H   0.3931125667  0.6888294949 -2.0411156952
10
Scanning combination 68/73: [458.1008]  Energy = -230.3032084782
C  -0.3887409537 -0.4312955812  0.3427244734
O   1.0038972234 -0.4290428468  0.0882847755
O   1.1668660895 -1.0182014674 -1.2048034723
C   1.2952907891  0.0626725324 -2.1100150172
H  -0.5128603814  0.0562763226  1.3067469126
H  -0.7746430476 -1.4517189054  0.3786498783
H  -0.9246765607  0.1326651811 -0.4228734164
H   2.1861891464  0.6522335165 -1.8859834391
H   1.3753884376 -0.3873397387 -3.0967009249
H   0.4150078043  0.7070185173 -2.0734366149
10
Scanning combination 69/73: [463.1008]  Energy = -230.3034478898
C  -0.3967465554 -0.4369073282  0.3585509475
O   0.9878258628 -0.3924926284  0.0697792425
O   1.1259534417 -1.0061331578 -1.2156313806
C   1.3082438133  0.0640618606 -2.1232951170
H  -0.5123450747  0.0406238931  1.3284708544
H  -0.7527845624 -1.4677687710  0.3949963803
H  -0.9615437027  0.1185358744 -0.3938430329
H   2.2084538141  0.6306389166 -1.8796177524
H   1.4000143849 -0.3931372385 -3.1054820768
H   0.4419717719  0.7295967590 -2.1075644416
10
Scanning combination 70/73: [468.1008]  Energy = -230.3035366384
C  -0.4067727791 -0.4438677261  0.3760000574
O   0.9670917959 -0.3570425808  0.0507972227
O   1.0857213014 -0.9895667856 -1.2280328909
C   1.3231810241  0.0668318932 -2.1382165307
H  -0.5105566512  0.0252678890  1.3509629471
H  -0.7301922650 -1.4842512696  0.4152075996
H  -1.0049869584  0.0995162595 -0.3601497004
H   2.2330875220  0.6068281573 -1.8755185848
H   1.4247879206 -0.4004441248 -3.1143001694
H   0.4755092956  0.7570685031 -2.1463572679
10
Scanning combination 71/73: [473.1008]  Energy = -230.3036520549
C  -0.4184316952 -0.4514217200  0.3947426922
O   0.9422959286 -0.3222364111  0.0316806916
O   1.0459559943 -0.9692899280 -1.2421497596
C   1.3392899551  0.0705889856 -2.1546669883
H  -0.5078773030  0.0094918453  1.3749627494
H  -0.7080594930 -1.5014605360  0.4389948492
H  -1.0542931565  0.0763877874 -0.3209480778
H   2.2601896133  0.5820306370 -1.8739622076
H   1.4507035333 -0.4090651902 -3.1235813569
H   0.5153880962  0.7882406799 -2.1904118591
10
Scanning combination 72/73: [478.1008]  Energy = -230.3038630786
C  -0.4308127524 -0.4594669767  0.4138937312
O   0.9141093346 -0.2879945558  0.0125297106
O   1.0066444463 -0.9459428683 -1.2577444567
C   1.3560278563  0.0749172259 -2.1715753978
H  -0.5045594254 -0.0066953525  1.3993277842
H  -0.6868079233 -1.5181359910  0.4645228586
H  -1.1043036755  0.0508952498 -0.2790311150
H   2.2877308512  0.5570767853 -1.8743731831
H   1.4771613529 -0.4182833853 -3.1326187328
H   0.5586918496  0.8194557905 -2.2357814951
10
Scanning combination 73/73: [483.1008]  Energy = -230.3040925625
C  -0.4424925956 -0.4675051356  0.4319239883
O   0.8842895606 -0.2537347861 -0.0068277937
O   0.9672041046 -0.9211099760 -1.2740402409
C   1.3721833642  0.0791370209 -2.1873020966
H  -0.5004519583 -0.0221346376  1.4219957697
H  -0.6648725183 -1.5336351105  0.4890290507
H  -1.1508182368  0.0243578205 -0.2386388981
H   2.3137394709  0.5316705730 -1.8742002651
H   1.5021059558 -0.4276310484 -3.1403311205
H   0.6021145389  0.8486302851 -2.2777641603
